c Result of efficient AIG-to-CNF conversion using package CNF
p cnf 86 246
2 60 -73 0
2 -60 73 0
-2 -60 -73 0
-2 60 73 0
3 4 -5 0
3 -4 5 0
-3 -4 -5 0
-3 4 5 0
4 -60 -73 0
-4 60 0
-4 73 0
5 61 -74 0
5 -61 74 0
-5 -61 -74 0
-5 61 74 0
6 -7 8 0
6 7 -8 0
-6 7 8 0
-6 -7 -8 0
7 62 -75 0
7 -62 75 0
-7 -62 -75 0
-7 62 75 0
-8 61 4 0
-8 74 4 0
-8 61 74 0
8 -61 -74 0
8 -74 -4 0
8 -61 -4 0
9 -10 11 0
9 10 -11 0
-9 10 11 0
-9 -10 -11 0
10 63 -76 0
10 -63 76 0
-10 -63 -76 0
-10 63 76 0
-11 62 12 0
-11 75 12 0
11 -12 0
11 -62 -75 0
12 -7 -8 0
-12 7 0
-12 8 0
13 -14 15 0
13 14 -15 0
-13 14 15 0
-13 -14 -15 0
14 64 -77 0
14 -64 77 0
-14 -64 -77 0
-14 64 77 0
-15 7 16 0
-15 8 16 0
-15 10 16 0
15 -16 0
15 -7 -8 -10 0
-16 63 17 0
-16 76 17 0
-16 63 76 0
16 -63 -76 0
16 -76 -17 0
16 -63 -17 0
17 -62 -75 0
-17 62 0
-17 75 0
18 -19 20 0
18 19 -20 0
-18 19 20 0
-18 -19 -20 0
19 65 -78 0
19 -65 78 0
-19 -65 -78 0
-19 65 78 0
-20 64 21 0
-20 77 21 0
20 -21 0
20 -64 -77 0
21 -14 -15 0
-21 14 0
-21 15 0
22 -23 24 0
22 23 -24 0
-22 23 24 0
-22 -23 -24 0
23 66 -79 0
23 -66 79 0
-23 -66 -79 0
-23 66 79 0
-24 15 25 0
-24 25 27 0
24 -25 0
24 -15 -27 0
-25 65 26 0
-25 78 26 0
-25 65 78 0
25 -65 -78 0
25 -78 -26 0
25 -65 -26 0
26 -64 -77 0
-26 64 0
-26 77 0
27 -14 -19 0
-27 14 0
-27 19 0
28 -29 30 0
28 29 -30 0
-28 29 30 0
-28 -29 -30 0
29 67 -80 0
29 -67 80 0
-29 -67 -80 0
-29 67 80 0
-30 66 31 0
-30 79 31 0
30 -31 0
30 -66 -79 0
31 -23 -24 0
-31 23 0
-31 24 0
32 -33 34 0
32 33 -34 0
-32 33 34 0
-32 -33 -34 0
33 68 -81 0
33 -68 81 0
-33 -68 -81 0
-33 68 81 0
-34 27 36 0
-34 35 36 0
-34 15 36 0
34 -36 0
34 -15 -27 -35 0
35 -23 -29 0
-35 23 0
-35 29 0
-36 67 80 38 0
-36 67 37 38 0
-36 80 37 38 0
36 -67 -80 0
36 -80 -37 0
36 -38 0
36 -67 -37 0
37 -66 -79 0
-37 66 0
-37 79 0
38 -25 -35 0
-38 25 0
-38 35 0
39 -40 41 0
39 40 -41 0
-39 40 41 0
-39 -40 -41 0
40 69 -82 0
40 -69 82 0
-40 -69 -82 0
-40 69 82 0
-41 68 42 0
-41 81 42 0
41 -42 0
41 -68 -81 0
42 -33 -34 0
-42 33 0
-42 34 0
43 -44 45 0
43 44 -45 0
-43 44 45 0
-43 -44 -45 0
44 70 -83 0
44 -70 83 0
-44 -70 -83 0
-44 70 83 0
-45 34 46 0
-45 46 48 0
45 -46 0
45 -34 -48 0
-46 69 47 0
-46 82 47 0
-46 69 82 0
46 -69 -82 0
46 -82 -47 0
46 -69 -47 0
47 -68 -81 0
-47 68 0
-47 81 0
48 -33 -40 0
-48 33 0
-48 40 0
49 -50 51 0
49 50 -51 0
-49 50 51 0
-49 -50 -51 0
50 71 -84 0
50 -71 84 0
-50 -71 -84 0
-50 71 84 0
-51 70 52 0
-51 83 52 0
51 -52 0
51 -70 -83 0
52 -44 -45 0
-52 44 0
-52 45 0
53 -54 55 0
53 54 -55 0
-53 54 55 0
-53 -54 -55 0
54 72 -85 0
54 -72 85 0
-54 -72 -85 0
-54 72 85 0
-55 48 57 0
-55 56 57 0
-55 34 57 0
55 -57 0
55 -34 -48 -56 0
56 -44 -50 0
-56 44 0
-56 50 0
-57 71 84 59 0
-57 71 58 59 0
-57 84 58 59 0
57 -71 -84 0
57 -84 -58 0
57 -59 0
57 -71 -58 0
58 -70 -83 0
-58 70 0
-58 83 0
59 -46 -56 0
-59 46 0
-59 56 0
-86 0
2 0
3 0
6 0
9 0
13 0
18 0
22 0
28 0
32 0
39 0
43 0
49 0
53 0

