c Result of efficient AIG-to-CNF conversion using package CNF
p cnf 194 656
2 -182 -188 0
-2 182 0
-2 188 0
3 4 -5 0
3 -4 5 0
-3 -4 -5 0
-3 4 5 0
4 -182 -189 0
-4 182 0
-4 189 0
5 -183 -188 0
-5 183 0
-5 188 0
6 7 -8 0
6 -7 8 0
-6 -7 -8 0
-6 7 8 0
7 -182 -183 -188 -189 0
-7 189 0
-7 182 0
-7 188 0
-7 183 0
8 9 -12 0
8 -9 12 0
-8 -9 -12 0
-8 9 12 0
9 10 -11 0
9 -10 11 0
-9 -10 -11 0
-9 10 11 0
10 -182 -190 0
-10 182 0
-10 190 0
11 -183 -189 0
-11 183 0
-11 189 0
12 -184 -188 0
-12 184 0
-12 188 0
13 14 -15 0
13 -14 15 0
-13 -14 -15 0
-13 14 15 0
14 -7 -8 0
-14 7 0
-14 8 0
15 -16 23 0
15 16 -23 0
-15 16 23 0
-15 -16 -23 0
16 17 -18 0
16 -17 18 0
-16 -17 -18 0
-16 17 18 0
17 -182 -191 0
-17 182 0
-17 191 0
18 19 -22 0
18 -19 22 0
-18 -19 -22 0
-18 19 22 0
19 20 -21 0
19 -20 21 0
-19 -20 -21 0
-19 20 21 0
20 -183 -190 0
-20 183 0
-20 190 0
21 -184 -189 0
-21 184 0
-21 189 0
22 -185 -188 0
-22 185 0
-22 188 0
-23 24 25 0
23 -24 0
23 -25 0
24 -182 -183 -189 -190 0
-24 190 0
-24 182 0
-24 189 0
-24 183 0
25 -184 -188 -9 0
-25 184 0
-25 188 0
-25 9 0
26 27 -28 0
26 -27 28 0
-26 -27 -28 0
-26 27 28 0
27 -14 -15 0
-27 14 0
-27 15 0
28 29 -30 0
28 -29 30 0
-28 -29 -30 0
-28 29 30 0
29 -16 -23 0
-29 16 0
-29 23 0
30 -31 42 0
30 31 -42 0
-30 31 42 0
-30 -31 -42 0
31 32 -33 0
31 -32 33 0
-31 -32 -33 0
-31 32 33 0
32 -182 -191 -18 0
-32 182 0
-32 191 0
-32 18 0
33 34 -37 0
33 -34 37 0
-33 -34 -37 0
-33 34 37 0
34 35 -36 0
34 -35 36 0
-34 -35 -36 0
-34 35 36 0
35 -182 -192 0
-35 182 0
-35 192 0
36 -183 -191 0
-36 183 0
-36 191 0
37 38 -41 0
37 -38 41 0
-37 -38 -41 0
-37 38 41 0
38 39 -40 0
38 -39 40 0
-38 -39 -40 0
-38 39 40 0
39 -184 -190 0
-39 184 0
-39 190 0
40 -185 -189 0
-40 185 0
-40 189 0
41 -186 -188 0
-41 186 0
-41 188 0
-42 43 44 0
42 -43 0
42 -44 0
43 -183 -184 -189 -190 0
-43 190 0
-43 183 0
-43 189 0
-43 184 0
44 -185 -188 -19 0
-44 185 0
-44 188 0
-44 19 0
45 -46 69 0
45 46 -69 0
-45 46 69 0
-45 -46 -69 0
46 -47 66 0
46 47 -66 0
-46 47 66 0
-46 -47 -66 0
47 -48 63 0
47 48 -63 0
-47 48 63 0
-47 -48 -63 0
48 49 -50 0
48 -49 50 0
-48 -49 -50 0
-48 49 50 0
49 -34 -37 0
-49 34 0
-49 37 0
50 51 -58 0
50 -51 58 0
-50 -51 -58 0
-50 51 58 0
51 52 -53 0
51 -52 53 0
-51 -52 -53 0
-51 52 53 0
52 -182 -183 -191 -192 0
-52 192 0
-52 182 0
-52 191 0
-52 183 0
53 54 -57 0
53 -54 57 0
-53 -54 -57 0
-53 54 57 0
54 55 -56 0
54 -55 56 0
-54 -55 -56 0
-54 55 56 0
55 -182 -193 0
-55 182 0
-55 193 0
56 -183 -192 0
-56 183 0
-56 192 0
57 -184 -191 0
-57 184 0
-57 191 0
58 59 -62 0
58 -59 62 0
-58 -59 -62 0
-58 59 62 0
59 60 -61 0
59 -60 61 0
-59 -60 -61 0
-59 60 61 0
60 -185 -190 0
-60 185 0
-60 190 0
61 -186 -189 0
-61 186 0
-61 189 0
62 -187 -188 0
-62 187 0
-62 188 0
-63 64 65 0
63 -64 0
63 -65 0
64 -184 -185 -189 -190 0
-64 190 0
-64 184 0
-64 189 0
-64 185 0
65 -186 -188 -38 0
-65 186 0
-65 188 0
-65 38 0
-66 67 68 0
66 -67 0
66 -68 0
67 -32 -33 0
-67 32 0
-67 33 0
68 -31 -42 0
-68 31 0
-68 42 0
-69 70 71 0
69 -70 0
69 -71 0
70 -29 -30 0
-70 29 0
-70 30 0
71 -27 -28 0
-71 27 0
-71 28 0
72 -73 98 0
72 73 -98 0
-72 73 98 0
-72 -73 -98 0
73 -74 95 0
73 74 -95 0
-73 74 95 0
-73 -74 -95 0
74 -75 92 0
74 75 -92 0
-74 75 92 0
-74 -75 -92 0
75 -76 89 0
75 76 -89 0
-75 76 89 0
-75 -76 -89 0
76 77 -86 0
76 -77 86 0
-76 -77 -86 0
-76 77 86 0
77 -78 83 0
77 78 -83 0
-77 78 83 0
-77 -78 -83 0
78 79 -82 0
78 -79 82 0
-78 -79 -82 0
-78 79 82 0
79 80 -81 0
79 -80 81 0
-79 -80 -81 0
-79 80 81 0
80 -183 -193 0
-80 183 0
-80 193 0
81 -184 -192 0
-81 184 0
-81 192 0
82 -185 -191 0
-82 185 0
-82 191 0
-83 84 85 0
83 -84 0
83 -85 0
84 -182 -183 -192 -193 0
-84 193 0
-84 182 0
-84 192 0
-84 183 0
85 -184 -191 -54 0
-85 184 0
-85 191 0
-85 54 0
86 87 -88 0
86 -87 88 0
-86 -87 -88 0
-86 87 88 0
87 -186 -190 0
-87 186 0
-87 190 0
88 -187 -189 0
-88 187 0
-88 189 0
-89 90 91 0
89 -90 0
89 -91 0
90 -52 -53 0
-90 52 0
-90 53 0
91 -51 -58 0
-91 51 0
-91 58 0
-92 93 94 0
92 -93 0
92 -94 0
93 -185 -186 -189 -190 0
-93 190 0
-93 185 0
-93 189 0
-93 186 0
94 -187 -188 -59 0
-94 187 0
-94 188 0
-94 59 0
-95 96 97 0
95 -96 0
95 -97 0
96 -49 -50 0
-96 49 0
-96 50 0
97 -48 -63 0
-97 48 0
-97 63 0
-98 27 99 0
-98 99 101 0
98 -99 0
98 -27 -101 0
-99 100 46 0
-99 70 100 0
99 -100 0
99 -70 -46 0
100 -47 -66 0
-100 47 0
-100 66 0
101 -28 -46 0
-101 28 0
-101 46 0
102 -103 124 0
102 103 -124 0
-102 103 124 0
-102 -103 -124 0
103 -104 121 0
103 104 -121 0
-103 104 121 0
-103 -104 -121 0
104 105 -106 0
104 -105 106 0
-104 -105 -106 0
-104 105 106 0
105 -186 -187 -189 -190 0
-105 190 0
-105 186 0
-105 189 0
-105 187 0
106 -107 118 0
106 107 -118 0
-106 107 118 0
-106 -107 -118 0
107 108 -117 0
107 -108 117 0
-107 -108 -117 0
-107 108 117 0
108 -109 114 0
108 109 -114 0
-108 109 114 0
-108 -109 -114 0
109 110 -113 0
109 -110 113 0
-109 -110 -113 0
-109 110 113 0
110 111 -112 0
110 -111 112 0
-110 -111 -112 0
-110 111 112 0
111 -184 -193 0
-111 184 0
-111 193 0
112 -185 -192 0
-112 185 0
-112 192 0
113 -186 -191 0
-113 186 0
-113 191 0
-114 115 116 0
114 -115 0
114 -116 0
115 -183 -184 -192 -193 0
-115 193 0
-115 183 0
-115 192 0
-115 184 0
116 -185 -191 -79 0
-116 185 0
-116 191 0
-116 79 0
117 -187 -190 0
-117 187 0
-117 190 0
-118 119 120 0
118 -119 0
118 -120 0
119 -78 -83 0
-119 78 0
-119 83 0
120 -77 -86 0
-120 77 0
-120 86 0
-121 122 123 0
121 -122 0
121 -123 0
122 -76 -89 0
-122 76 0
-122 89 0
123 -75 -92 0
-123 75 0
-123 92 0
-124 125 126 0
124 -125 0
124 -126 0
125 -74 -95 0
-125 74 0
-125 95 0
126 -73 -98 0
-126 73 0
-126 98 0
127 -128 145 0
127 128 -145 0
-127 128 145 0
-127 -128 -145 0
128 -129 142 0
128 129 -142 0
-128 129 142 0
-128 -129 -142 0
129 -130 139 0
129 130 -139 0
-129 130 139 0
-129 -130 -139 0
130 -131 136 0
130 131 -136 0
-130 131 136 0
-130 -131 -136 0
131 132 -135 0
131 -132 135 0
-131 -132 -135 0
-131 132 135 0
132 133 -134 0
132 -133 134 0
-132 -133 -134 0
-132 133 134 0
133 -185 -193 0
-133 185 0
-133 193 0
134 -186 -192 0
-134 186 0
-134 192 0
135 -187 -191 0
-135 187 0
-135 191 0
-136 137 138 0
136 -137 0
136 -138 0
137 -184 -185 -192 -193 0
-137 193 0
-137 184 0
-137 192 0
-137 185 0
138 -186 -191 -110 0
-138 186 0
-138 191 0
-138 110 0
-139 140 141 0
139 -140 0
139 -141 0
140 -109 -114 0
-140 109 0
-140 114 0
141 -187 -190 -108 0
-141 187 0
-141 190 0
-141 108 0
-142 143 144 0
142 -143 0
142 -144 0
143 -107 -118 0
-143 107 0
-143 118 0
144 -105 -106 0
-144 105 0
-144 106 0
-145 101 147 0
-145 27 147 0
-145 146 147 0
145 -147 0
145 -27 -101 -146 0
146 -73 -103 0
-146 73 0
-146 103 0
-147 125 148 149 0
-147 148 103 149 0
147 -149 0
147 -148 0
147 -125 -103 0
148 -104 -121 0
-148 104 0
-148 121 0
149 -99 -146 0
-149 99 0
-149 146 0
150 -151 162 0
150 151 -162 0
-150 151 162 0
-150 -151 -162 0
151 152 -153 0
151 -152 153 0
-151 -152 -153 0
-151 152 153 0
152 -130 -139 0
-152 130 0
-152 139 0
153 154 -155 0
153 -154 155 0
-153 -154 -155 0
-153 154 155 0
154 -131 -136 0
-154 131 0
-154 136 0
155 -156 159 0
155 156 -159 0
-155 156 159 0
-155 -156 -159 0
156 157 -158 0
156 -157 158 0
-156 -157 -158 0
-156 157 158 0
157 -186 -193 0
-157 186 0
-157 193 0
158 -187 -192 0
-158 187 0
-158 192 0
-159 160 161 0
159 -160 0
159 -161 0
160 -185 -186 -192 -193 0
-160 193 0
-160 185 0
-160 192 0
-160 186 0
161 -187 -191 -132 0
-161 187 0
-161 191 0
-161 132 0
-162 163 164 0
162 -163 0
162 -164 0
163 -129 -142 0
-163 129 0
-163 142 0
164 -128 -145 0
-164 128 0
-164 145 0
165 -166 171 0
165 166 -171 0
-165 166 171 0
-165 -166 -171 0
166 167 -168 0
166 -167 168 0
-166 -167 -168 0
-166 167 168 0
167 -154 -155 0
-167 154 0
-167 155 0
168 169 -170 0
168 -169 170 0
-168 -169 -170 0
-168 169 170 0
169 -156 -159 0
-169 156 0
-169 159 0
170 186 -187 -193 0
170 -187 192 -193 0
-170 193 0
-170 187 0
-170 -186 -192 0
-171 128 172 0
-171 145 172 0
-171 151 172 0
171 -172 0
171 -128 -145 -151 0
-172 173 151 0
-172 163 173 0
172 -173 0
172 -163 -151 0
173 -152 -153 0
-173 152 0
-173 153 0
174 -175 179 0
174 175 -179 0
-174 175 179 0
-174 -175 -179 0
175 -176 0
-175 176 0
-176 177 178 0
176 -177 0
176 -178 0
177 -186 -187 -192 -193 0
-177 193 0
-177 186 0
-177 192 0
-177 187 0
178 -169 -170 0
-178 169 0
-178 170 0
-179 180 181 0
179 -180 0
179 -181 0
180 -167 -168 0
-180 167 0
-180 168 0
181 -166 -171 0
-181 166 0
-181 171 0
-194 0
2 0
3 0
6 0
13 0
26 0
45 0
72 0
102 0
127 0
150 0
165 0
174 0

