c Result of efficient AIG-to-CNF conversion using package CNF
p cnf 41 111
2 27 -34 0
2 -27 34 0
-2 -27 -34 0
-2 27 34 0
3 4 -5 0
3 -4 5 0
-3 -4 -5 0
-3 4 5 0
4 -27 -34 0
-4 27 0
-4 34 0
5 28 -35 0
5 -28 35 0
-5 -28 -35 0
-5 28 35 0
6 -7 8 0
6 7 -8 0
-6 7 8 0
-6 -7 -8 0
7 29 -36 0
7 -29 36 0
-7 -29 -36 0
-7 29 36 0
-8 28 4 0
-8 35 4 0
-8 28 35 0
8 -28 -35 0
8 -35 -4 0
8 -28 -4 0
9 -10 11 0
9 10 -11 0
-9 10 11 0
-9 -10 -11 0
10 30 -37 0
10 -30 37 0
-10 -30 -37 0
-10 30 37 0
-11 29 12 0
-11 36 12 0
11 -12 0
11 -29 -36 0
12 -7 -8 0
-12 7 0
-12 8 0
13 -14 15 0
13 14 -15 0
-13 14 15 0
-13 -14 -15 0
14 31 -38 0
14 -31 38 0
-14 -31 -38 0
-14 31 38 0
-15 7 16 0
-15 8 16 0
-15 10 16 0
15 -16 0
15 -7 -8 -10 0
-16 30 17 0
-16 37 17 0
-16 30 37 0
16 -30 -37 0
16 -37 -17 0
16 -30 -17 0
17 -29 -36 0
-17 29 0
-17 36 0
18 -19 20 0
18 19 -20 0
-18 19 20 0
-18 -19 -20 0
19 32 -39 0
19 -32 39 0
-19 -32 -39 0
-19 32 39 0
-20 31 21 0
-20 38 21 0
20 -21 0
20 -31 -38 0
21 -14 -15 0
-21 14 0
-21 15 0
22 -23 24 0
22 23 -24 0
-22 23 24 0
-22 -23 -24 0
23 33 -40 0
23 -33 40 0
-23 -33 -40 0
-23 33 40 0
-24 14 25 0
-24 15 25 0
-24 19 25 0
24 -25 0
24 -14 -15 -19 0
-25 32 26 0
-25 39 26 0
-25 32 39 0
25 -32 -39 0
25 -39 -26 0
25 -32 -26 0
26 -31 -38 0
-26 31 0
-26 38 0
-41 0
2 0
3 0
6 0
9 0
13 0
18 0
22 0

