c Result of efficient AIG-to-CNF conversion using package CNF
p cnf 76 216
2 52 -64 0
2 -52 64 0
-2 -52 -64 0
-2 52 64 0
3 4 -5 0
3 -4 5 0
-3 -4 -5 0
-3 4 5 0
4 -52 -64 0
-4 52 0
-4 64 0
5 53 -65 0
5 -53 65 0
-5 -53 -65 0
-5 53 65 0
6 -7 8 0
6 7 -8 0
-6 7 8 0
-6 -7 -8 0
7 54 -66 0
7 -54 66 0
-7 -54 -66 0
-7 54 66 0
-8 53 4 0
-8 65 4 0
-8 53 65 0
8 -53 -65 0
8 -65 -4 0
8 -53 -4 0
9 -10 11 0
9 10 -11 0
-9 10 11 0
-9 -10 -11 0
10 55 -67 0
10 -55 67 0
-10 -55 -67 0
-10 55 67 0
-11 54 12 0
-11 66 12 0
11 -12 0
11 -54 -66 0
12 -7 -8 0
-12 7 0
-12 8 0
13 -14 15 0
13 14 -15 0
-13 14 15 0
-13 -14 -15 0
14 56 -68 0
14 -56 68 0
-14 -56 -68 0
-14 56 68 0
-15 7 16 0
-15 8 16 0
-15 10 16 0
15 -16 0
15 -7 -8 -10 0
-16 55 17 0
-16 67 17 0
-16 55 67 0
16 -55 -67 0
16 -67 -17 0
16 -55 -17 0
17 -54 -66 0
-17 54 0
-17 66 0
18 -19 20 0
18 19 -20 0
-18 19 20 0
-18 -19 -20 0
19 57 -69 0
19 -57 69 0
-19 -57 -69 0
-19 57 69 0
-20 56 21 0
-20 68 21 0
20 -21 0
20 -56 -68 0
21 -14 -15 0
-21 14 0
-21 15 0
22 -23 24 0
22 23 -24 0
-22 23 24 0
-22 -23 -24 0
23 58 -70 0
23 -58 70 0
-23 -58 -70 0
-23 58 70 0
-24 15 25 0
-24 25 27 0
24 -25 0
24 -15 -27 0
-25 57 26 0
-25 69 26 0
-25 57 69 0
25 -57 -69 0
25 -69 -26 0
25 -57 -26 0
26 -56 -68 0
-26 56 0
-26 68 0
27 -14 -19 0
-27 14 0
-27 19 0
28 -29 30 0
28 29 -30 0
-28 29 30 0
-28 -29 -30 0
29 59 -71 0
29 -59 71 0
-29 -59 -71 0
-29 59 71 0
-30 58 31 0
-30 70 31 0
30 -31 0
30 -58 -70 0
31 -23 -24 0
-31 23 0
-31 24 0
32 -33 34 0
32 33 -34 0
-32 33 34 0
-32 -33 -34 0
33 60 -72 0
33 -60 72 0
-33 -60 -72 0
-33 60 72 0
-34 27 36 0
-34 35 36 0
-34 15 36 0
34 -36 0
34 -15 -27 -35 0
35 -23 -29 0
-35 23 0
-35 29 0
-36 59 71 38 0
-36 59 37 38 0
-36 71 37 38 0
36 -59 -71 0
36 -71 -37 0
36 -38 0
36 -59 -37 0
37 -58 -70 0
-37 58 0
-37 70 0
38 -25 -35 0
-38 25 0
-38 35 0
39 -40 41 0
39 40 -41 0
-39 40 41 0
-39 -40 -41 0
40 61 -73 0
40 -61 73 0
-40 -61 -73 0
-40 61 73 0
-41 60 42 0
-41 72 42 0
41 -42 0
41 -60 -72 0
42 -33 -34 0
-42 33 0
-42 34 0
43 -44 45 0
43 44 -45 0
-43 44 45 0
-43 -44 -45 0
44 62 -74 0
44 -62 74 0
-44 -62 -74 0
-44 62 74 0
-45 33 46 0
-45 34 46 0
-45 40 46 0
45 -46 0
45 -33 -34 -40 0
-46 61 47 0
-46 73 47 0
-46 61 73 0
46 -61 -73 0
46 -73 -47 0
46 -61 -47 0
47 -60 -72 0
-47 60 0
-47 72 0
48 -49 50 0
48 49 -50 0
-48 49 50 0
-48 -49 -50 0
49 63 -75 0
49 -63 75 0
-49 -63 -75 0
-49 63 75 0
-50 62 51 0
-50 74 51 0
50 -51 0
50 -62 -74 0
51 62 -74 -45 0
51 -62 74 -45 0
-51 45 0
-51 62 74 0
-51 -62 -74 0
-76 0
2 0
3 0
6 0
9 0
13 0
18 0
22 0
28 0
32 0
39 0
43 0
48 0

