c Result of efficient AIG-to-CNF conversion using package CNF
p cnf 36 108
2 -30 -33 0
-2 30 0
-2 33 0
3 4 -5 0
3 -4 5 0
-3 -4 -5 0
-3 4 5 0
4 -30 -34 0
-4 30 0
-4 34 0
5 -31 -33 0
-5 31 0
-5 33 0
6 7 -8 0
6 -7 8 0
-6 -7 -8 0
-6 7 8 0
7 -30 -31 -33 -34 0
-7 34 0
-7 30 0
-7 33 0
-7 31 0
8 9 -12 0
8 -9 12 0
-8 -9 -12 0
-8 9 12 0
9 10 -11 0
9 -10 11 0
-9 -10 -11 0
-9 10 11 0
10 -30 -35 0
-10 30 0
-10 35 0
11 -31 -34 0
-11 31 0
-11 34 0
12 -32 -33 0
-12 32 0
-12 33 0
13 14 -15 0
13 -14 15 0
-13 -14 -15 0
-13 14 15 0
14 -7 -8 0
-14 7 0
-14 8 0
15 -16 19 0
15 16 -19 0
-15 16 19 0
-15 -16 -19 0
16 17 -18 0
16 -17 18 0
-16 -17 -18 0
-16 17 18 0
17 -31 -35 0
-17 31 0
-17 35 0
18 -32 -34 0
-18 32 0
-18 34 0
-19 20 21 0
19 -20 0
19 -21 0
20 -30 -31 -34 -35 0
-20 35 0
-20 30 0
-20 34 0
-20 31 0
21 -32 -33 -9 0
-21 32 0
-21 33 0
-21 9 0
22 -23 24 0
22 23 -24 0
-22 23 24 0
-22 -23 -24 0
23 31 -32 -35 0
23 -32 34 -35 0
-23 35 0
-23 32 0
-23 -31 -34 0
-24 25 26 0
24 -25 0
24 -26 0
25 -16 -19 0
-25 16 0
-25 19 0
26 -14 -15 0
-26 14 0
-26 15 0
-27 28 29 0
27 -28 0
27 -29 0
28 -31 -32 -34 -35 0
-28 35 0
-28 31 0
-28 34 0
-28 32 0
29 -23 -24 0
-29 23 0
-29 24 0
-36 0
2 0
3 0
6 0
13 0
22 0
27 0

