c Result of efficient AIG-to-CNF conversion using package CNF
p cnf 70 198
2 48 -59 0
2 -48 59 0
-2 -48 -59 0
-2 48 59 0
3 4 -5 0
3 -4 5 0
-3 -4 -5 0
-3 4 5 0
4 -48 -59 0
-4 48 0
-4 59 0
5 49 -60 0
5 -49 60 0
-5 -49 -60 0
-5 49 60 0
6 -7 8 0
6 7 -8 0
-6 7 8 0
-6 -7 -8 0
7 50 -61 0
7 -50 61 0
-7 -50 -61 0
-7 50 61 0
-8 49 4 0
-8 60 4 0
-8 49 60 0
8 -49 -60 0
8 -60 -4 0
8 -49 -4 0
9 -10 11 0
9 10 -11 0
-9 10 11 0
-9 -10 -11 0
10 51 -62 0
10 -51 62 0
-10 -51 -62 0
-10 51 62 0
-11 50 12 0
-11 61 12 0
11 -12 0
11 -50 -61 0
12 -7 -8 0
-12 7 0
-12 8 0
13 -14 15 0
13 14 -15 0
-13 14 15 0
-13 -14 -15 0
14 52 -63 0
14 -52 63 0
-14 -52 -63 0
-14 52 63 0
-15 7 16 0
-15 8 16 0
-15 10 16 0
15 -16 0
15 -7 -8 -10 0
-16 51 17 0
-16 62 17 0
-16 51 62 0
16 -51 -62 0
16 -62 -17 0
16 -51 -17 0
17 -50 -61 0
-17 50 0
-17 61 0
18 -19 20 0
18 19 -20 0
-18 19 20 0
-18 -19 -20 0
19 53 -64 0
19 -53 64 0
-19 -53 -64 0
-19 53 64 0
-20 52 21 0
-20 63 21 0
20 -21 0
20 -52 -63 0
21 -14 -15 0
-21 14 0
-21 15 0
22 -23 24 0
22 23 -24 0
-22 23 24 0
-22 -23 -24 0
23 54 -65 0
23 -54 65 0
-23 -54 -65 0
-23 54 65 0
-24 15 25 0
-24 25 27 0
24 -25 0
24 -15 -27 0
-25 53 26 0
-25 64 26 0
-25 53 64 0
25 -53 -64 0
25 -64 -26 0
25 -53 -26 0
26 -52 -63 0
-26 52 0
-26 63 0
27 -14 -19 0
-27 14 0
-27 19 0
28 -29 30 0
28 29 -30 0
-28 29 30 0
-28 -29 -30 0
29 55 -66 0
29 -55 66 0
-29 -55 -66 0
-29 55 66 0
-30 54 31 0
-30 65 31 0
30 -31 0
30 -54 -65 0
31 -23 -24 0
-31 23 0
-31 24 0
32 -33 34 0
32 33 -34 0
-32 33 34 0
-32 -33 -34 0
33 56 -67 0
33 -56 67 0
-33 -56 -67 0
-33 56 67 0
-34 27 36 0
-34 35 36 0
-34 15 36 0
34 -36 0
34 -15 -27 -35 0
35 -23 -29 0
-35 23 0
-35 29 0
-36 55 66 38 0
-36 55 37 38 0
-36 66 37 38 0
36 -55 -66 0
36 -66 -37 0
36 -38 0
36 -55 -37 0
37 -54 -65 0
-37 54 0
-37 65 0
38 -25 -35 0
-38 25 0
-38 35 0
39 -40 41 0
39 40 -41 0
-39 40 41 0
-39 -40 -41 0
40 57 -68 0
40 -57 68 0
-40 -57 -68 0
-40 57 68 0
-41 56 42 0
-41 67 42 0
41 -42 0
41 -56 -67 0
42 -33 -34 0
-42 33 0
-42 34 0
43 -44 45 0
43 44 -45 0
-43 44 45 0
-43 -44 -45 0
44 58 -69 0
44 -58 69 0
-44 -58 -69 0
-44 58 69 0
-45 33 46 0
-45 34 46 0
-45 40 46 0
45 -46 0
45 -33 -34 -40 0
-46 57 47 0
-46 68 47 0
-46 57 68 0
46 -57 -68 0
46 -68 -47 0
46 -57 -47 0
47 -56 -67 0
-47 56 0
-47 67 0
-70 0
2 0
3 0
6 0
9 0
13 0
18 0
22 0
28 0
32 0
39 0
43 0

