c Result of efficient AIG-to-CNF conversion using package CNF
p cnf 76 248
2 -68 -72 0
-2 68 0
-2 72 0
3 4 -5 0
3 -4 5 0
-3 -4 -5 0
-3 4 5 0
4 -68 -73 0
-4 68 0
-4 73 0
5 -69 -72 0
-5 69 0
-5 72 0
6 7 -8 0
6 -7 8 0
-6 -7 -8 0
-6 7 8 0
7 -68 -69 -72 -73 0
-7 73 0
-7 68 0
-7 72 0
-7 69 0
8 9 -12 0
8 -9 12 0
-8 -9 -12 0
-8 9 12 0
9 10 -11 0
9 -10 11 0
-9 -10 -11 0
-9 10 11 0
10 -68 -74 0
-10 68 0
-10 74 0
11 -69 -73 0
-11 69 0
-11 73 0
12 -70 -72 0
-12 70 0
-12 72 0
13 14 -15 0
13 -14 15 0
-13 -14 -15 0
-13 14 15 0
14 -7 -8 0
-14 7 0
-14 8 0
15 16 -17 0
15 -16 17 0
-15 -16 -17 0
-15 16 17 0
16 -70 -72 -9 0
-16 70 0
-16 72 0
-16 9 0
17 18 -25 0
17 -18 25 0
-17 -18 -25 0
-17 18 25 0
18 19 -20 0
18 -19 20 0
-18 -19 -20 0
-18 19 20 0
19 -68 -69 -73 -74 0
-19 74 0
-19 68 0
-19 73 0
-19 69 0
20 21 -24 0
20 -21 24 0
-20 -21 -24 0
-20 21 24 0
21 22 -23 0
21 -22 23 0
-21 -22 -23 0
-21 22 23 0
22 -68 -75 0
-22 68 0
-22 75 0
23 -69 -74 0
-23 69 0
-23 74 0
24 -70 -73 0
-24 70 0
-24 73 0
25 -71 -72 0
-25 71 0
-25 72 0
26 -27 40 0
26 27 -40 0
-26 27 40 0
-26 -27 -40 0
27 -28 37 0
27 28 -37 0
-27 28 37 0
-27 -28 -37 0
28 -29 34 0
28 29 -34 0
-28 29 34 0
-28 -29 -34 0
29 30 -33 0
29 -30 33 0
-29 -30 -33 0
-29 30 33 0
30 31 -32 0
30 -31 32 0
-30 -31 -32 0
-30 31 32 0
31 -69 -75 0
-31 69 0
-31 75 0
32 -70 -74 0
-32 70 0
-32 74 0
33 -71 -73 0
-33 71 0
-33 73 0
-34 35 36 0
34 -35 0
34 -36 0
35 -68 -69 -74 -75 0
-35 75 0
-35 68 0
-35 74 0
-35 69 0
36 -70 -73 -21 0
-36 70 0
-36 73 0
-36 21 0
-37 38 39 0
37 -38 0
37 -39 0
38 -19 -20 0
-38 19 0
-38 20 0
39 -71 -72 -18 0
-39 71 0
-39 72 0
-39 18 0
-40 41 42 0
40 -41 0
40 -42 0
41 -16 -17 0
-41 16 0
-41 17 0
42 -14 -15 0
-42 14 0
-42 15 0
43 -44 53 0
43 44 -53 0
-43 44 53 0
-43 -44 -53 0
44 45 -46 0
44 -45 46 0
-44 -45 -46 0
-44 45 46 0
45 -29 -34 0
-45 29 0
-45 34 0
46 -47 50 0
46 47 -50 0
-46 47 50 0
-46 -47 -50 0
47 48 -49 0
47 -48 49 0
-47 -48 -49 0
-47 48 49 0
48 -70 -75 0
-48 70 0
-48 75 0
49 -71 -74 0
-49 71 0
-49 74 0
-50 51 52 0
50 -51 0
50 -52 0
51 -69 -70 -74 -75 0
-51 75 0
-51 69 0
-51 74 0
-51 70 0
52 -71 -73 -30 0
-52 71 0
-52 73 0
-52 30 0
-53 54 55 0
53 -54 0
53 -55 0
54 -28 -37 0
-54 28 0
-54 37 0
55 -27 -40 0
-55 27 0
-55 40 0
56 -57 60 0
56 57 -60 0
-56 57 60 0
-56 -57 -60 0
57 58 -59 0
57 -58 59 0
-57 -58 -59 0
-57 58 59 0
58 -47 -50 0
-58 47 0
-58 50 0
59 70 -71 -75 0
59 -71 74 -75 0
-59 75 0
-59 71 0
-59 -70 -74 0
-60 27 61 0
-60 40 61 0
-60 44 61 0
60 -61 0
60 -27 -40 -44 0
-61 62 44 0
-61 54 62 0
61 -62 0
61 -54 -44 0
62 -45 -46 0
-62 45 0
-62 46 0
63 -64 65 0
63 64 -65 0
-63 64 65 0
-63 -64 -65 0
64 -70 -71 -74 -75 0
-64 75 0
-64 70 0
-64 74 0
-64 71 0
-65 66 67 0
65 -66 0
65 -67 0
66 -58 -59 0
-66 58 0
-66 59 0
67 -57 -60 0
-67 57 0
-67 60 0
-76 0
2 0
3 0
6 0
13 0
26 0
43 0
56 0
63 0

