c Result of efficient AIG-to-CNF conversion using package CNF
p cnf 369 1266
2 -353 -361 0
-2 353 0
-2 361 0
3 4 -5 0
3 -4 5 0
-3 -4 -5 0
-3 4 5 0
4 -353 -362 0
-4 353 0
-4 362 0
5 -354 -361 0
-5 354 0
-5 361 0
6 7 -8 0
6 -7 8 0
-6 -7 -8 0
-6 7 8 0
7 -353 -354 -361 -362 0
-7 362 0
-7 353 0
-7 361 0
-7 354 0
8 9 -10 0
8 -9 10 0
-8 -9 -10 0
-8 9 10 0
9 -353 -363 0
-9 353 0
-9 363 0
10 11 -12 0
10 -11 12 0
-10 -11 -12 0
-10 11 12 0
11 -354 -362 0
-11 354 0
-11 362 0
12 -355 -361 0
-12 355 0
-12 361 0
13 14 -15 0
13 -14 15 0
-13 -14 -15 0
-13 14 15 0
14 -7 -8 0
-14 7 0
-14 8 0
15 16 -17 0
15 -16 17 0
-15 -16 -17 0
-15 16 17 0
16 -354 -355 -361 -362 0
-16 362 0
-16 354 0
-16 361 0
-16 355 0
17 18 -19 0
17 -18 19 0
-17 -18 -19 0
-17 18 19 0
18 -353 -363 -10 0
-18 353 0
-18 363 0
-18 10 0
19 20 -23 0
19 -20 23 0
-19 -20 -23 0
-19 20 23 0
20 21 -22 0
20 -21 22 0
-20 -21 -22 0
-20 21 22 0
21 -353 -364 0
-21 353 0
-21 364 0
22 -354 -363 0
-22 354 0
-22 363 0
23 24 -25 0
23 -24 25 0
-23 -24 -25 0
-23 24 25 0
24 -355 -362 0
-24 355 0
-24 362 0
25 -356 -361 0
-25 356 0
-25 361 0
26 27 -28 0
26 -27 28 0
-26 -27 -28 0
-26 27 28 0
27 -14 -15 0
-27 14 0
-27 15 0
28 -29 44 0
28 29 -44 0
-28 29 44 0
-28 -29 -44 0
29 30 -31 0
29 -30 31 0
-29 -30 -31 0
-29 30 31 0
30 -355 -356 -361 -362 0
-30 362 0
-30 355 0
-30 361 0
-30 356 0
31 32 -33 0
31 -32 33 0
-31 -32 -33 0
-31 32 33 0
32 -20 -23 0
-32 20 0
-32 23 0
33 34 -39 0
33 -34 39 0
-33 -34 -39 0
-33 34 39 0
34 35 -38 0
34 -35 38 0
-34 -35 -38 0
-34 35 38 0
35 36 -37 0
35 -36 37 0
-35 -36 -37 0
-35 36 37 0
36 -353 -365 0
-36 353 0
-36 365 0
37 -354 -364 0
-37 354 0
-37 364 0
38 -355 -363 0
-38 355 0
-38 363 0
39 40 -43 0
39 -40 43 0
-39 -40 -43 0
-39 40 43 0
40 41 -42 0
40 -41 42 0
-40 -41 -42 0
-40 41 42 0
41 -353 -354 -363 -364 0
-41 364 0
-41 353 0
-41 363 0
-41 354 0
42 -356 -362 0
-42 356 0
-42 362 0
43 -357 -361 0
-43 357 0
-43 361 0
-44 45 46 0
44 -45 0
44 -46 0
45 -18 -19 0
-45 18 0
-45 19 0
46 -16 -19 0
-46 16 0
-46 19 0
47 -48 73 0
47 48 -73 0
-47 48 73 0
-47 -48 -73 0
48 -49 70 0
48 49 -70 0
-48 49 70 0
-48 -49 -70 0
49 -50 67 0
49 50 -67 0
-49 50 67 0
-49 -50 -67 0
50 51 -52 0
50 -51 52 0
-50 -51 -52 0
-50 51 52 0
51 -34 -39 0
-51 34 0
-51 39 0
52 53 -60 0
52 -53 60 0
-52 -53 -60 0
-52 53 60 0
53 54 -55 0
53 -54 55 0
-53 -54 -55 0
-53 54 55 0
54 -353 -366 0
-54 353 0
-54 366 0
55 56 -59 0
55 -56 59 0
-55 -56 -59 0
-55 56 59 0
56 57 -58 0
56 -57 58 0
-56 -57 -58 0
-56 57 58 0
57 -354 -365 0
-57 354 0
-57 365 0
58 -355 -364 0
-58 355 0
-58 364 0
59 -356 -363 0
-59 356 0
-59 363 0
60 61 -66 0
60 -61 66 0
-60 -61 -66 0
-60 61 66 0
61 62 -65 0
61 -62 65 0
-61 -62 -65 0
-61 62 65 0
-62 63 64 0
62 -63 0
62 -64 0
63 -353 -354 -364 -365 0
-63 365 0
-63 353 0
-63 364 0
-63 354 0
64 -355 -363 -35 0
-64 355 0
-64 363 0
-64 35 0
65 -357 -362 0
-65 357 0
-65 362 0
66 -358 -361 0
-66 358 0
-66 361 0
-67 68 69 0
67 -68 0
67 -69 0
68 -356 -362 -41 0
-68 356 0
-68 362 0
-68 41 0
69 -357 -361 -40 0
-69 357 0
-69 361 0
-69 40 0
-70 71 72 0
70 -71 0
70 -72 0
71 -32 -33 0
-71 32 0
-71 33 0
72 -30 -31 0
-72 30 0
-72 31 0
-73 74 75 0
73 -74 0
73 -75 0
74 -29 -44 0
-74 29 0
-74 44 0
75 -27 -28 0
-75 27 0
-75 28 0
76 -77 106 0
76 77 -106 0
-76 77 106 0
-76 -77 -106 0
77 -78 103 0
77 78 -103 0
-77 78 103 0
-77 -78 -103 0
78 -79 100 0
78 79 -100 0
-78 79 100 0
-78 -79 -100 0
79 80 -81 0
79 -80 81 0
-79 -80 -81 0
-79 80 81 0
80 -53 -60 0
-80 53 0
-80 60 0
81 82 -93 0
81 -82 93 0
-81 -82 -93 0
-81 82 93 0
82 83 -84 0
82 -83 84 0
-82 -83 -84 0
-82 83 84 0
83 -353 -366 -55 0
-83 353 0
-83 366 0
-83 55 0
84 85 -88 0
84 -85 88 0
-84 -85 -88 0
-84 85 88 0
85 86 -87 0
85 -86 87 0
-85 -86 -87 0
-85 86 87 0
86 -353 -367 0
-86 353 0
-86 367 0
87 -354 -366 0
-87 354 0
-87 366 0
88 89 -92 0
88 -89 92 0
-88 -89 -92 0
-88 89 92 0
89 90 -91 0
89 -90 91 0
-89 -90 -91 0
-89 90 91 0
90 -355 -365 0
-90 355 0
-90 365 0
91 -356 -364 0
-91 356 0
-91 364 0
92 -357 -363 0
-92 357 0
-92 363 0
93 94 -99 0
93 -94 99 0
-93 -94 -99 0
-93 94 99 0
94 95 -98 0
94 -95 98 0
-94 -95 -98 0
-94 95 98 0
-95 96 97 0
95 -96 0
95 -97 0
96 -354 -355 -364 -365 0
-96 365 0
-96 354 0
-96 364 0
-96 355 0
97 -356 -363 -56 0
-97 356 0
-97 363 0
-97 56 0
98 -358 -362 0
-98 358 0
-98 362 0
99 -359 -361 0
-99 359 0
-99 361 0
-100 101 102 0
100 -101 0
100 -102 0
101 -357 -362 -62 0
-101 357 0
-101 362 0
-101 62 0
102 -358 -361 -61 0
-102 358 0
-102 361 0
-102 61 0
-103 104 105 0
103 -104 0
103 -105 0
104 -51 -52 0
-104 51 0
-104 52 0
105 -50 -67 0
-105 50 0
-105 67 0
-106 27 107 0
-106 107 109 0
106 -107 0
106 -27 -109 0
-107 108 48 0
-107 74 108 0
107 -108 0
107 -74 -48 0
108 -49 -70 0
-108 49 0
-108 70 0
109 -28 -48 0
-109 28 0
-109 48 0
110 -111 146 0
110 111 -146 0
-110 111 146 0
-110 -111 -146 0
111 -112 143 0
111 112 -143 0
-111 112 143 0
-111 -112 -143 0
112 -113 140 0
112 113 -140 0
-112 113 140 0
-112 -113 -140 0
113 -114 137 0
113 114 -137 0
-113 114 137 0
-113 -114 -137 0
114 115 -130 0
114 -115 130 0
-114 -115 -130 0
-114 115 130 0
115 116 -117 0
115 -116 117 0
-115 -116 -117 0
-115 116 117 0
116 -85 -88 0
-116 85 0
-116 88 0
117 118 -125 0
117 -118 125 0
-117 -118 -125 0
-117 118 125 0
118 119 -120 0
118 -119 120 0
-118 -119 -120 0
-118 119 120 0
119 -353 -354 -366 -367 0
-119 367 0
-119 353 0
-119 366 0
-119 354 0
120 121 -124 0
120 -121 124 0
-120 -121 -124 0
-120 121 124 0
121 122 -123 0
121 -122 123 0
-121 -122 -123 0
-121 122 123 0
122 -353 -368 0
-122 353 0
-122 368 0
123 -354 -367 0
-123 354 0
-123 367 0
124 -355 -366 0
-124 355 0
-124 366 0
125 126 -129 0
125 -126 129 0
-125 -126 -129 0
-125 126 129 0
126 127 -128 0
126 -127 128 0
-126 -127 -128 0
-126 127 128 0
127 -356 -365 0
-127 356 0
-127 365 0
128 -357 -364 0
-128 357 0
-128 364 0
129 -358 -363 0
-129 358 0
-129 363 0
130 131 -136 0
130 -131 136 0
-130 -131 -136 0
-130 131 136 0
131 132 -135 0
131 -132 135 0
-131 -132 -135 0
-131 132 135 0
-132 133 134 0
132 -133 0
132 -134 0
133 -355 -356 -364 -365 0
-133 365 0
-133 355 0
-133 364 0
-133 356 0
134 -357 -363 -89 0
-134 357 0
-134 363 0
-134 89 0
135 -359 -362 0
-135 359 0
-135 362 0
136 -360 -361 0
-136 360 0
-136 361 0
-137 138 139 0
137 -138 0
137 -139 0
138 -83 -84 0
-138 83 0
-138 84 0
139 -82 -93 0
-139 82 0
-139 93 0
-140 141 142 0
140 -141 0
140 -142 0
141 -358 -362 -95 0
-141 358 0
-141 362 0
-141 95 0
142 -359 -361 -94 0
-142 359 0
-142 361 0
-142 94 0
-143 144 145 0
143 -144 0
143 -145 0
144 -80 -81 0
-144 80 0
-144 81 0
145 -79 -100 0
-145 79 0
-145 100 0
-146 147 148 0
146 -147 0
146 -148 0
147 -78 -103 0
-147 78 0
-147 103 0
148 -77 -106 0
-148 77 0
-148 106 0
149 -150 187 0
149 150 -187 0
-149 150 187 0
-149 -150 -187 0
150 -151 184 0
150 151 -184 0
-150 151 184 0
-150 -151 -184 0
151 -152 181 0
151 152 -181 0
-151 152 181 0
-151 -152 -181 0
152 -153 178 0
152 153 -178 0
-152 153 178 0
-152 -153 -178 0
153 154 -173 0
153 -154 173 0
-153 -154 -173 0
-153 154 173 0
154 -155 170 0
154 155 -170 0
-154 155 170 0
-154 -155 -170 0
155 156 -165 0
155 -156 165 0
-155 -156 -165 0
-155 156 165 0
156 -157 162 0
156 157 -162 0
-156 157 162 0
-156 -157 -162 0
157 158 -161 0
157 -158 161 0
-157 -158 -161 0
-157 158 161 0
158 159 -160 0
158 -159 160 0
-158 -159 -160 0
-158 159 160 0
159 -354 -368 0
-159 354 0
-159 368 0
160 -355 -367 0
-160 355 0
-160 367 0
161 -356 -366 0
-161 356 0
-161 366 0
-162 163 164 0
162 -163 0
162 -164 0
163 -353 -354 -367 -368 0
-163 368 0
-163 353 0
-163 367 0
-163 354 0
164 -355 -366 -121 0
-164 355 0
-164 366 0
-164 121 0
165 166 -169 0
165 -166 169 0
-165 -166 -169 0
-165 166 169 0
166 167 -168 0
166 -167 168 0
-166 -167 -168 0
-166 167 168 0
167 -357 -365 0
-167 357 0
-167 365 0
168 -358 -364 0
-168 358 0
-168 364 0
169 -359 -363 0
-169 359 0
-169 363 0
-170 171 172 0
170 -171 0
170 -172 0
171 -119 -120 0
-171 119 0
-171 120 0
172 -118 -125 0
-172 118 0
-172 125 0
173 174 -177 0
173 -174 177 0
-173 -174 -177 0
-173 174 177 0
-174 175 176 0
174 -175 0
174 -176 0
175 -356 -357 -364 -365 0
-175 365 0
-175 356 0
-175 364 0
-175 357 0
176 -358 -363 -126 0
-176 358 0
-176 363 0
-176 126 0
177 -360 -362 0
-177 360 0
-177 362 0
-178 179 180 0
178 -179 0
178 -180 0
179 -116 -117 0
-179 116 0
-179 117 0
180 -115 -130 0
-180 115 0
-180 130 0
-181 182 183 0
181 -182 0
181 -183 0
182 -359 -362 -132 0
-182 359 0
-182 362 0
-182 132 0
183 -360 -361 -131 0
-183 360 0
-183 361 0
-183 131 0
-184 185 186 0
184 -185 0
184 -186 0
185 -114 -137 0
-185 114 0
-185 137 0
186 -113 -140 0
-186 113 0
-186 140 0
-187 109 189 0
-187 27 189 0
-187 188 189 0
187 -189 0
187 -27 -109 -188 0
188 -77 -111 0
-188 77 0
-188 111 0
-189 147 190 191 0
-189 190 111 191 0
189 -191 0
189 -190 0
189 -147 -111 0
190 -112 -143 0
-190 112 0
-190 143 0
191 -107 -188 0
-191 107 0
-191 188 0
192 -193 226 0
192 193 -226 0
-192 193 226 0
-192 -193 -226 0
193 -194 223 0
193 194 -223 0
-193 194 223 0
-193 -194 -223 0
194 195 -196 0
194 -195 196 0
-194 -195 -196 0
-194 195 196 0
195 -360 -362 -174 0
-195 360 0
-195 362 0
-195 174 0
196 -197 220 0
196 197 -220 0
-196 197 220 0
-196 -197 -220 0
197 -198 217 0
197 198 -217 0
-197 198 217 0
-197 -198 -217 0
198 -199 214 0
198 199 -214 0
-198 199 214 0
-198 -199 -214 0
199 200 -209 0
199 -200 209 0
-199 -200 -209 0
-199 200 209 0
200 -201 206 0
200 201 -206 0
-200 201 206 0
-200 -201 -206 0
201 202 -205 0
201 -202 205 0
-201 -202 -205 0
-201 202 205 0
202 203 -204 0
202 -203 204 0
-202 -203 -204 0
-202 203 204 0
203 -355 -368 0
-203 355 0
-203 368 0
204 -356 -367 0
-204 356 0
-204 367 0
205 -357 -366 0
-205 357 0
-205 366 0
-206 207 208 0
206 -207 0
206 -208 0
207 -354 -355 -367 -368 0
-207 368 0
-207 354 0
-207 367 0
-207 355 0
208 -356 -366 -158 0
-208 356 0
-208 366 0
-208 158 0
209 210 -213 0
209 -210 213 0
-209 -210 -213 0
-209 210 213 0
210 211 -212 0
210 -211 212 0
-210 -211 -212 0
-210 211 212 0
211 -358 -365 0
-211 358 0
-211 365 0
212 -359 -364 0
-212 359 0
-212 364 0
213 -360 -363 0
-213 360 0
-213 363 0
-214 215 216 0
214 -215 0
214 -216 0
215 -157 -162 0
-215 157 0
-215 162 0
216 -156 -165 0
-216 156 0
-216 165 0
-217 218 219 0
217 -218 0
217 -219 0
218 -357 -358 -364 -365 0
-218 365 0
-218 357 0
-218 364 0
-218 358 0
219 -359 -363 -166 0
-219 359 0
-219 363 0
-219 166 0
-220 221 222 0
220 -221 0
220 -222 0
221 -155 -170 0
-221 155 0
-221 170 0
222 -154 -173 0
-222 154 0
-222 173 0
-223 224 225 0
223 -224 0
223 -225 0
224 -153 -178 0
-224 153 0
-224 178 0
225 -152 -181 0
-225 152 0
-225 181 0
-226 227 228 0
226 -227 0
226 -228 0
227 -151 -184 0
-227 151 0
-227 184 0
228 -150 -187 0
-228 150 0
-228 187 0
229 -230 259 0
229 230 -259 0
-229 230 259 0
-229 -230 -259 0
230 -231 256 0
230 231 -256 0
-230 231 256 0
-230 -231 -256 0
231 -232 253 0
231 232 -253 0
-231 232 253 0
-231 -232 -253 0
232 -233 250 0
232 233 -250 0
-232 233 250 0
-232 -233 -250 0
233 -234 247 0
233 234 -247 0
-233 234 247 0
-233 -234 -247 0
234 235 -244 0
234 -235 244 0
-234 -235 -244 0
-234 235 244 0
235 -236 241 0
235 236 -241 0
-235 236 241 0
-235 -236 -241 0
236 237 -240 0
236 -237 240 0
-236 -237 -240 0
-236 237 240 0
237 238 -239 0
237 -238 239 0
-237 -238 -239 0
-237 238 239 0
238 -356 -368 0
-238 356 0
-238 368 0
239 -357 -367 0
-239 357 0
-239 367 0
240 -358 -366 0
-240 358 0
-240 366 0
-241 242 243 0
241 -242 0
241 -243 0
242 -355 -356 -367 -368 0
-242 368 0
-242 355 0
-242 367 0
-242 356 0
243 -357 -366 -202 0
-243 357 0
-243 366 0
-243 202 0
244 245 -246 0
244 -245 246 0
-244 -245 -246 0
-244 245 246 0
245 -359 -365 0
-245 359 0
-245 365 0
246 -360 -364 0
-246 360 0
-246 364 0
-247 248 249 0
247 -248 0
247 -249 0
248 -201 -206 0
-248 201 0
-248 206 0
249 -200 -209 0
-249 200 0
-249 209 0
-250 251 252 0
250 -251 0
250 -252 0
251 -358 -359 -364 -365 0
-251 365 0
-251 358 0
-251 364 0
-251 359 0
252 -360 -363 -210 0
-252 360 0
-252 363 0
-252 210 0
-253 254 255 0
253 -254 0
253 -255 0
254 -199 -214 0
-254 199 0
-254 214 0
255 -198 -217 0
-255 198 0
-255 217 0
-256 257 258 0
256 -257 0
256 -258 0
257 -197 -220 0
-257 197 0
-257 220 0
258 -195 -196 0
-258 195 0
-258 196 0
-259 187 260 0
-259 260 262 0
259 -260 0
259 -187 -262 0
-260 261 193 0
-260 227 261 0
260 -261 0
260 -227 -193 0
261 -194 -223 0
-261 194 0
-261 223 0
262 -150 -193 0
-262 150 0
-262 193 0
263 -264 287 0
263 264 -287 0
-263 264 287 0
-263 -264 -287 0
264 265 -266 0
264 -265 266 0
-264 -265 -266 0
-264 265 266 0
265 -232 -253 0
-265 232 0
-265 253 0
266 -267 284 0
266 267 -284 0
-266 267 284 0
-266 -267 -284 0
267 268 -269 0
267 -268 269 0
-267 -268 -269 0
-267 268 269 0
268 -359 -360 -364 -365 0
-268 365 0
-268 359 0
-268 364 0
-268 360 0
269 -270 281 0
269 270 -281 0
-269 270 281 0
-269 -270 -281 0
270 271 -280 0
270 -271 280 0
-270 -271 -280 0
-270 271 280 0
271 -272 277 0
271 272 -277 0
-271 272 277 0
-271 -272 -277 0
272 273 -276 0
272 -273 276 0
-272 -273 -276 0
-272 273 276 0
273 274 -275 0
273 -274 275 0
-273 -274 -275 0
-273 274 275 0
274 -357 -368 0
-274 357 0
-274 368 0
275 -358 -367 0
-275 358 0
-275 367 0
276 -359 -366 0
-276 359 0
-276 366 0
-277 278 279 0
277 -278 0
277 -279 0
278 -356 -357 -367 -368 0
-278 368 0
-278 356 0
-278 367 0
-278 357 0
279 -358 -366 -237 0
-279 358 0
-279 366 0
-279 237 0
280 -360 -365 0
-280 360 0
-280 365 0
-281 282 283 0
281 -282 0
281 -283 0
282 -236 -241 0
-282 236 0
-282 241 0
283 -235 -244 0
-283 235 0
-283 244 0
-284 285 286 0
284 -285 0
284 -286 0
285 -234 -247 0
-285 234 0
-285 247 0
286 -233 -250 0
-286 233 0
-286 250 0
-287 288 289 0
287 -288 0
287 -289 0
288 -231 -256 0
-288 231 0
-288 256 0
289 -230 -259 0
-289 230 0
-289 259 0
290 -291 310 0
290 291 -310 0
-290 291 310 0
-290 -291 -310 0
291 292 -293 0
291 -292 293 0
-291 -292 -293 0
-291 292 293 0
292 -267 -284 0
-292 267 0
-292 284 0
293 -294 307 0
293 294 -307 0
-293 294 307 0
-293 -294 -307 0
294 -295 304 0
294 295 -304 0
-294 295 304 0
-294 -295 -304 0
295 -296 301 0
295 296 -301 0
-295 296 301 0
-295 -296 -301 0
296 297 -300 0
296 -297 300 0
-296 -297 -300 0
-296 297 300 0
297 298 -299 0
297 -298 299 0
-297 -298 -299 0
-297 298 299 0
298 -358 -368 0
-298 358 0
-298 368 0
299 -359 -367 0
-299 359 0
-299 367 0
300 -360 -366 0
-300 360 0
-300 366 0
-301 302 303 0
301 -302 0
301 -303 0
302 -357 -358 -367 -368 0
-302 368 0
-302 357 0
-302 367 0
-302 358 0
303 -359 -366 -273 0
-303 359 0
-303 366 0
-303 273 0
-304 305 306 0
304 -305 0
304 -306 0
305 -272 -277 0
-305 272 0
-305 277 0
306 -360 -365 -271 0
-306 360 0
-306 365 0
-306 271 0
-307 308 309 0
307 -308 0
307 -309 0
308 -270 -281 0
-308 270 0
-308 281 0
309 -268 -269 0
-309 268 0
-309 269 0
-310 262 312 0
-310 311 312 0
-310 187 312 0
310 -312 0
310 -187 -262 -311 0
311 -230 -264 0
-311 230 0
-311 264 0
-312 288 313 314 0
-312 313 264 314 0
312 -314 0
312 -313 0
312 -288 -264 0
313 -265 -266 0
-313 265 0
-313 266 0
314 -260 -311 0
-314 260 0
-314 311 0
315 -316 329 0
315 316 -329 0
-315 316 329 0
-315 -316 -329 0
316 317 -318 0
316 -317 318 0
-316 -317 -318 0
-316 317 318 0
317 -294 -307 0
-317 294 0
-317 307 0
318 319 -320 0
318 -319 320 0
-318 -319 -320 0
-318 319 320 0
319 -295 -304 0
-319 295 0
-319 304 0
320 321 -322 0
320 -321 322 0
-320 -321 -322 0
-320 321 322 0
321 -296 -301 0
-321 296 0
-321 301 0
322 -323 326 0
322 323 -326 0
-322 323 326 0
-322 -323 -326 0
323 324 -325 0
323 -324 325 0
-323 -324 -325 0
-323 324 325 0
324 -359 -368 0
-324 359 0
-324 368 0
325 -360 -367 0
-325 360 0
-325 367 0
-326 327 328 0
326 -327 0
326 -328 0
327 -358 -359 -367 -368 0
-327 368 0
-327 358 0
-327 367 0
-327 359 0
328 -360 -366 -297 0
-328 360 0
-328 366 0
-328 297 0
-329 330 331 0
329 -330 0
329 -331 0
330 -292 -293 0
-330 292 0
-330 293 0
331 -291 -310 0
-331 291 0
-331 310 0
332 -333 340 0
332 333 -340 0
-332 333 340 0
-332 -333 -340 0
333 334 -335 0
333 -334 335 0
-333 -334 -335 0
-333 334 335 0
334 -319 -320 0
-334 319 0
-334 320 0
335 336 -337 0
335 -336 337 0
-335 -336 -337 0
-335 336 337 0
336 -321 -322 0
-336 321 0
-336 322 0
337 338 -339 0
337 -338 339 0
-337 -338 -339 0
-337 338 339 0
338 -323 -326 0
-338 323 0
-338 326 0
339 359 -360 -368 0
339 -360 367 -368 0
-339 368 0
-339 360 0
-339 -359 -367 0
-340 291 341 0
-340 310 341 0
-340 316 341 0
340 -341 0
340 -291 -310 -316 0
-341 342 316 0
-341 330 342 0
341 -342 0
341 -330 -316 0
342 -317 -318 0
-342 317 0
-342 318 0
343 -344 350 0
343 344 -350 0
-343 344 350 0
-343 -344 -350 0
344 345 -346 0
344 -345 346 0
-344 -345 -346 0
-344 345 346 0
345 -336 -337 0
-345 336 0
-345 337 0
346 -347 0
-346 347 0
-347 348 349 0
347 -348 0
347 -349 0
348 -359 -360 -367 -368 0
-348 368 0
-348 359 0
-348 367 0
-348 360 0
349 -338 -339 0
-349 338 0
-349 339 0
-350 351 352 0
350 -351 0
350 -352 0
351 -334 -335 0
-351 334 0
-351 335 0
352 -333 -340 0
-352 333 0
-352 340 0
-369 0
2 0
3 0
6 0
13 0
26 0
47 0
76 0
110 0
149 0
192 0
229 0
263 0
290 0
315 0
332 0
343 0

