c Result of efficient AIG-to-CNF conversion using package CNF
p cnf 1204 4178
2 -1176 -1190 0
-2 1176 0
-2 1190 0
3 4 -5 0
3 -4 5 0
-3 -4 -5 0
-3 4 5 0
4 -1176 -1191 0
-4 1176 0
-4 1191 0
5 -1177 -1190 0
-5 1177 0
-5 1190 0
6 7 -8 0
6 -7 8 0
-6 -7 -8 0
-6 7 8 0
7 -1176 -1177 -1190 -1191 0
-7 1191 0
-7 1176 0
-7 1190 0
-7 1177 0
8 9 -12 0
8 -9 12 0
-8 -9 -12 0
-8 9 12 0
9 10 -11 0
9 -10 11 0
-9 -10 -11 0
-9 10 11 0
10 -1176 -1192 0
-10 1176 0
-10 1192 0
11 -1177 -1191 0
-11 1177 0
-11 1191 0
12 -1178 -1190 0
-12 1178 0
-12 1190 0
13 14 -15 0
13 -14 15 0
-13 -14 -15 0
-13 14 15 0
14 -7 -8 0
-14 7 0
-14 8 0
15 16 -17 0
15 -16 17 0
-15 -16 -17 0
-15 16 17 0
16 -1178 -1190 -9 0
-16 1178 0
-16 1190 0
-16 9 0
17 18 -25 0
17 -18 25 0
-17 -18 -25 0
-17 18 25 0
18 19 -20 0
18 -19 20 0
-18 -19 -20 0
-18 19 20 0
19 -1176 -1177 -1191 -1192 0
-19 1192 0
-19 1176 0
-19 1191 0
-19 1177 0
20 21 -24 0
20 -21 24 0
-20 -21 -24 0
-20 21 24 0
21 22 -23 0
21 -22 23 0
-21 -22 -23 0
-21 22 23 0
22 -1176 -1193 0
-22 1176 0
-22 1193 0
23 -1177 -1192 0
-23 1177 0
-23 1192 0
24 -1178 -1191 0
-24 1178 0
-24 1191 0
25 -1179 -1190 0
-25 1179 0
-25 1190 0
26 -27 44 0
26 27 -44 0
-26 27 44 0
-26 -27 -44 0
27 28 -29 0
27 -28 29 0
-27 -28 -29 0
-27 28 29 0
28 -1179 -1190 -18 0
-28 1179 0
-28 1190 0
-28 18 0
29 30 -43 0
29 -30 43 0
-29 -30 -43 0
-29 30 43 0
30 31 -32 0
30 -31 32 0
-30 -31 -32 0
-30 31 32 0
31 -19 -20 0
-31 19 0
-31 20 0
32 33 -34 0
32 -33 34 0
-32 -33 -34 0
-32 33 34 0
33 -1178 -1191 -21 0
-33 1178 0
-33 1191 0
-33 21 0
34 35 -42 0
34 -35 42 0
-34 -35 -42 0
-34 35 42 0
35 36 -37 0
35 -36 37 0
-35 -36 -37 0
-35 36 37 0
36 -1176 -1177 -1192 -1193 0
-36 1193 0
-36 1176 0
-36 1192 0
-36 1177 0
37 38 -41 0
37 -38 41 0
-37 -38 -41 0
-37 38 41 0
38 39 -40 0
38 -39 40 0
-38 -39 -40 0
-38 39 40 0
39 -1176 -1194 0
-39 1176 0
-39 1194 0
40 -1177 -1193 0
-40 1177 0
-40 1193 0
41 -1178 -1192 0
-41 1178 0
-41 1192 0
42 -1179 -1191 0
-42 1179 0
-42 1191 0
43 -1180 -1190 0
-43 1180 0
-43 1190 0
-44 45 46 0
44 -45 0
44 -46 0
45 -16 -17 0
-45 16 0
-45 17 0
46 -14 -15 0
-46 14 0
-46 15 0
47 -48 73 0
47 48 -73 0
-47 48 73 0
-47 -48 -73 0
48 49 -50 0
48 -49 50 0
-48 -49 -50 0
-48 49 50 0
49 -1180 -1190 -30 0
-49 1180 0
-49 1190 0
-49 30 0
50 51 -72 0
50 -51 72 0
-50 -51 -72 0
-50 51 72 0
51 52 -53 0
51 -52 53 0
-51 -52 -53 0
-51 52 53 0
52 -31 -32 0
-52 31 0
-52 32 0
53 54 -55 0
53 -54 55 0
-53 -54 -55 0
-53 54 55 0
54 -33 -34 0
-54 33 0
-54 34 0
55 56 -57 0
55 -56 57 0
-55 -56 -57 0
-55 56 57 0
56 -1176 -1195 0
-56 1176 0
-56 1195 0
57 -58 69 0
57 58 -69 0
-57 58 69 0
-57 -58 -69 0
58 59 -68 0
58 -59 68 0
-58 -59 -68 0
-58 59 68 0
59 -60 65 0
59 60 -65 0
-59 60 65 0
-59 -60 -65 0
60 61 -64 0
60 -61 64 0
-60 -61 -64 0
-60 61 64 0
61 62 -63 0
61 -62 63 0
-61 -62 -63 0
-61 62 63 0
62 -1177 -1194 0
-62 1177 0
-62 1194 0
63 -1178 -1193 0
-63 1178 0
-63 1193 0
64 -1179 -1192 0
-64 1179 0
-64 1192 0
-65 66 67 0
65 -66 0
65 -67 0
66 -1176 -1177 -1193 -1194 0
-66 1194 0
-66 1176 0
-66 1193 0
-66 1177 0
67 -1178 -1192 -38 0
-67 1178 0
-67 1192 0
-67 38 0
68 -1180 -1191 0
-68 1180 0
-68 1191 0
-69 70 71 0
69 -70 0
69 -71 0
70 -36 -37 0
-70 36 0
-70 37 0
71 -1179 -1191 -35 0
-71 1179 0
-71 1191 0
-71 35 0
72 -1181 -1190 0
-72 1181 0
-72 1190 0
-73 74 75 0
73 -74 0
73 -75 0
74 -28 -29 0
-74 28 0
-74 29 0
75 -27 -44 0
-75 27 0
-75 44 0
76 -77 108 0
76 77 -108 0
-76 77 108 0
-76 -77 -108 0
77 -78 105 0
77 78 -105 0
-77 78 105 0
-77 -78 -105 0
78 79 -104 0
78 -79 104 0
-78 -79 -104 0
-78 79 104 0
79 80 -81 0
79 -80 81 0
-79 -80 -81 0
-79 80 81 0
80 -54 -55 0
-80 54 0
-80 55 0
81 82 -83 0
81 -82 83 0
-81 -82 -83 0
-81 82 83 0
82 -58 -69 0
-82 58 0
-82 69 0
83 84 -85 0
83 -84 85 0
-83 -84 -85 0
-83 84 85 0
84 -1176 -1195 -57 0
-84 1176 0
-84 1195 0
-84 57 0
85 86 -89 0
85 -86 89 0
-85 -86 -89 0
-85 86 89 0
86 87 -88 0
86 -87 88 0
-86 -87 -88 0
-86 87 88 0
87 -1176 -1196 0
-87 1176 0
-87 1196 0
88 -1177 -1195 0
-88 1177 0
-88 1195 0
89 -90 101 0
89 90 -101 0
-89 90 101 0
-89 -90 -101 0
90 91 -100 0
90 -91 100 0
-90 -91 -100 0
-90 91 100 0
91 -92 97 0
91 92 -97 0
-91 92 97 0
-91 -92 -97 0
92 93 -96 0
92 -93 96 0
-92 -93 -96 0
-92 93 96 0
93 94 -95 0
93 -94 95 0
-93 -94 -95 0
-93 94 95 0
94 -1178 -1194 0
-94 1178 0
-94 1194 0
95 -1179 -1193 0
-95 1179 0
-95 1193 0
96 -1180 -1192 0
-96 1180 0
-96 1192 0
-97 98 99 0
97 -98 0
97 -99 0
98 -1177 -1178 -1193 -1194 0
-98 1194 0
-98 1177 0
-98 1193 0
-98 1178 0
99 -1179 -1192 -61 0
-99 1179 0
-99 1192 0
-99 61 0
100 -1181 -1191 0
-100 1181 0
-100 1191 0
-101 102 103 0
101 -102 0
101 -103 0
102 -60 -65 0
-102 60 0
-102 65 0
103 -1180 -1191 -59 0
-103 1180 0
-103 1191 0
-103 59 0
104 -1182 -1190 0
-104 1182 0
-104 1190 0
-105 106 107 0
105 -106 0
105 -107 0
106 -52 -53 0
-106 52 0
-106 53 0
107 -1181 -1190 -51 0
-107 1181 0
-107 1190 0
-107 51 0
-108 44 109 0
-108 109 111 0
108 -109 0
108 -44 -111 0
-109 110 48 0
-109 74 110 0
109 -110 0
109 -74 -48 0
110 -49 -50 0
-110 49 0
-110 50 0
111 -27 -48 0
-111 27 0
-111 48 0
112 -113 150 0
112 113 -150 0
-112 113 150 0
-112 -113 -150 0
113 -114 147 0
113 114 -147 0
-113 114 147 0
-113 -114 -147 0
114 115 -146 0
114 -115 146 0
-114 -115 -146 0
-114 115 146 0
115 -116 143 0
115 116 -143 0
-115 116 143 0
-115 -116 -143 0
116 117 -118 0
116 -117 118 0
-116 -117 -118 0
-116 117 118 0
117 -90 -101 0
-117 90 0
-117 101 0
118 119 -120 0
118 -119 120 0
-118 -119 -120 0
-118 119 120 0
119 -86 -89 0
-119 86 0
-119 89 0
120 121 -128 0
120 -121 128 0
-120 -121 -128 0
-120 121 128 0
121 122 -123 0
121 -122 123 0
-121 -122 -123 0
-121 122 123 0
122 -1176 -1177 -1195 -1196 0
-122 1196 0
-122 1176 0
-122 1195 0
-122 1177 0
123 124 -127 0
123 -124 127 0
-123 -124 -127 0
-123 124 127 0
124 125 -126 0
124 -125 126 0
-124 -125 -126 0
-124 125 126 0
125 -1176 -1197 0
-125 1176 0
-125 1197 0
126 -1177 -1196 0
-126 1177 0
-126 1196 0
127 -1178 -1195 0
-127 1178 0
-127 1195 0
128 -129 140 0
128 129 -140 0
-128 129 140 0
-128 -129 -140 0
129 130 -139 0
129 -130 139 0
-129 -130 -139 0
-129 130 139 0
130 -131 136 0
130 131 -136 0
-130 131 136 0
-130 -131 -136 0
131 132 -135 0
131 -132 135 0
-131 -132 -135 0
-131 132 135 0
132 133 -134 0
132 -133 134 0
-132 -133 -134 0
-132 133 134 0
133 -1179 -1194 0
-133 1179 0
-133 1194 0
134 -1180 -1193 0
-134 1180 0
-134 1193 0
135 -1181 -1192 0
-135 1181 0
-135 1192 0
-136 137 138 0
136 -137 0
136 -138 0
137 -1178 -1179 -1193 -1194 0
-137 1194 0
-137 1178 0
-137 1193 0
-137 1179 0
138 -1180 -1192 -93 0
-138 1180 0
-138 1192 0
-138 93 0
139 -1182 -1191 0
-139 1182 0
-139 1191 0
-140 141 142 0
140 -141 0
140 -142 0
141 -92 -97 0
-141 92 0
-141 97 0
142 -1181 -1191 -91 0
-142 1181 0
-142 1191 0
-142 91 0
-143 144 145 0
143 -144 0
143 -145 0
144 -84 -85 0
-144 84 0
-144 85 0
145 -82 -83 0
-145 82 0
-145 83 0
146 -1183 -1190 0
-146 1183 0
-146 1190 0
-147 148 149 0
147 -148 0
147 -149 0
148 -80 -81 0
-148 80 0
-148 81 0
149 -1182 -1190 -79 0
-149 1182 0
-149 1190 0
-149 79 0
-150 151 152 0
150 -151 0
150 -152 0
151 -78 -105 0
-151 78 0
-151 105 0
152 -77 -108 0
-152 77 0
-152 108 0
153 -154 197 0
153 154 -197 0
-153 154 197 0
-153 -154 -197 0
154 -155 194 0
154 155 -194 0
-154 155 194 0
-154 -155 -194 0
155 156 -193 0
155 -156 193 0
-155 -156 -193 0
-155 156 193 0
156 -157 190 0
156 157 -190 0
-156 157 190 0
-156 -157 -190 0
157 158 -159 0
157 -158 159 0
-157 -158 -159 0
-157 158 159 0
158 -129 -140 0
-158 129 0
-158 140 0
159 160 -161 0
159 -160 161 0
-159 -160 -161 0
-159 160 161 0
160 -121 -128 0
-160 121 0
-160 128 0
161 162 -173 0
161 -162 173 0
-161 -162 -173 0
-161 162 173 0
162 163 -164 0
162 -163 164 0
-162 -163 -164 0
-162 163 164 0
163 -1176 -1198 0
-163 1176 0
-163 1198 0
164 -165 170 0
164 165 -170 0
-164 165 170 0
-164 -165 -170 0
165 166 -169 0
165 -166 169 0
-165 -166 -169 0
-165 166 169 0
166 167 -168 0
166 -167 168 0
-166 -167 -168 0
-166 167 168 0
167 -1177 -1197 0
-167 1177 0
-167 1197 0
168 -1178 -1196 0
-168 1178 0
-168 1196 0
169 -1179 -1195 0
-169 1179 0
-169 1195 0
-170 171 172 0
170 -171 0
170 -172 0
171 -1176 -1177 -1196 -1197 0
-171 1197 0
-171 1176 0
-171 1196 0
-171 1177 0
172 -1178 -1195 -124 0
-172 1178 0
-172 1195 0
-172 124 0
173 -174 187 0
173 174 -187 0
-173 174 187 0
-173 -174 -187 0
174 175 -176 0
174 -175 176 0
-174 -175 -176 0
-174 175 176 0
175 -122 -123 0
-175 122 0
-175 123 0
176 177 -186 0
176 -177 186 0
-176 -177 -186 0
-176 177 186 0
177 -178 183 0
177 178 -183 0
-177 178 183 0
-177 -178 -183 0
178 179 -182 0
178 -179 182 0
-178 -179 -182 0
-178 179 182 0
179 180 -181 0
179 -180 181 0
-179 -180 -181 0
-179 180 181 0
180 -1180 -1194 0
-180 1180 0
-180 1194 0
181 -1181 -1193 0
-181 1181 0
-181 1193 0
182 -1182 -1192 0
-182 1182 0
-182 1192 0
-183 184 185 0
183 -184 0
183 -185 0
184 -1179 -1180 -1193 -1194 0
-184 1194 0
-184 1179 0
-184 1193 0
-184 1180 0
185 -1181 -1192 -132 0
-185 1181 0
-185 1192 0
-185 132 0
186 -1183 -1191 0
-186 1183 0
-186 1191 0
-187 188 189 0
187 -188 0
187 -189 0
188 -131 -136 0
-188 131 0
-188 136 0
189 -1182 -1191 -130 0
-189 1182 0
-189 1191 0
-189 130 0
-190 191 192 0
190 -191 0
190 -192 0
191 -119 -120 0
-191 119 0
-191 120 0
192 -117 -118 0
-192 117 0
-192 118 0
193 -1184 -1190 0
-193 1184 0
-193 1190 0
-194 195 196 0
194 -195 0
194 -196 0
195 -116 -143 0
-195 116 0
-195 143 0
196 -1183 -1190 -115 0
-196 1183 0
-196 1190 0
-196 115 0
-197 111 199 0
-197 198 199 0
-197 44 199 0
197 -199 0
197 -44 -111 -198 0
198 -77 -113 0
-198 77 0
-198 113 0
-199 151 200 201 0
-199 200 113 201 0
199 -201 0
199 -200 0
199 -151 -113 0
200 -114 -147 0
-200 114 0
-200 147 0
201 -109 -198 0
-201 109 0
-201 198 0
202 -203 252 0
202 203 -252 0
-202 203 252 0
-202 -203 -252 0
203 -204 249 0
203 204 -249 0
-203 204 249 0
-203 -204 -249 0
204 205 -248 0
204 -205 248 0
-204 -205 -248 0
-204 205 248 0
205 -206 245 0
205 206 -245 0
-205 206 245 0
-205 -206 -245 0
206 -207 242 0
206 207 -242 0
-206 207 242 0
-206 -207 -242 0
207 208 -209 0
207 -208 209 0
-207 -208 -209 0
-207 208 209 0
208 -162 -173 0
-208 162 0
-208 173 0
209 210 -225 0
209 -210 225 0
-209 -210 -225 0
-209 210 225 0
210 211 -212 0
210 -211 212 0
-210 -211 -212 0
-210 211 212 0
211 -1176 -1198 -164 0
-211 1176 0
-211 1198 0
-211 164 0
212 213 -216 0
212 -213 216 0
-212 -213 -216 0
-212 213 216 0
213 214 -215 0
213 -214 215 0
-213 -214 -215 0
-213 214 215 0
214 -1176 -1199 0
-214 1176 0
-214 1199 0
215 -1177 -1198 0
-215 1177 0
-215 1198 0
216 -217 222 0
216 217 -222 0
-216 217 222 0
-216 -217 -222 0
217 218 -221 0
217 -218 221 0
-217 -218 -221 0
-217 218 221 0
218 219 -220 0
218 -219 220 0
-218 -219 -220 0
-218 219 220 0
219 -1178 -1197 0
-219 1178 0
-219 1197 0
220 -1179 -1196 0
-220 1179 0
-220 1196 0
221 -1180 -1195 0
-221 1180 0
-221 1195 0
-222 223 224 0
222 -223 0
222 -224 0
223 -1177 -1178 -1196 -1197 0
-223 1197 0
-223 1177 0
-223 1196 0
-223 1178 0
224 -1179 -1195 -166 0
-224 1179 0
-224 1195 0
-224 166 0
225 -226 239 0
225 226 -239 0
-225 226 239 0
-225 -226 -239 0
226 227 -228 0
226 -227 228 0
-226 -227 -228 0
-226 227 228 0
227 -165 -170 0
-227 165 0
-227 170 0
228 229 -238 0
228 -229 238 0
-228 -229 -238 0
-228 229 238 0
229 -230 235 0
229 230 -235 0
-229 230 235 0
-229 -230 -235 0
230 231 -234 0
230 -231 234 0
-230 -231 -234 0
-230 231 234 0
231 232 -233 0
231 -232 233 0
-231 -232 -233 0
-231 232 233 0
232 -1181 -1194 0
-232 1181 0
-232 1194 0
233 -1182 -1193 0
-233 1182 0
-233 1193 0
234 -1183 -1192 0
-234 1183 0
-234 1192 0
-235 236 237 0
235 -236 0
235 -237 0
236 -1180 -1181 -1193 -1194 0
-236 1194 0
-236 1180 0
-236 1193 0
-236 1181 0
237 -1182 -1192 -179 0
-237 1182 0
-237 1192 0
-237 179 0
238 -1184 -1191 0
-238 1184 0
-238 1191 0
-239 240 241 0
239 -240 0
239 -241 0
240 -178 -183 0
-240 178 0
-240 183 0
241 -1183 -1191 -177 0
-241 1183 0
-241 1191 0
-241 177 0
-242 243 244 0
242 -243 0
242 -244 0
243 -175 -176 0
-243 175 0
-243 176 0
244 -174 -187 0
-244 174 0
-244 187 0
-245 246 247 0
245 -246 0
245 -247 0
246 -160 -161 0
-246 160 0
-246 161 0
247 -158 -159 0
-247 158 0
-247 159 0
248 -1185 -1190 0
-248 1185 0
-248 1190 0
-249 250 251 0
249 -250 0
249 -251 0
250 -157 -190 0
-250 157 0
-250 190 0
251 -1184 -1190 -156 0
-251 1184 0
-251 1190 0
-251 156 0
-252 253 254 0
252 -253 0
252 -254 0
253 -155 -194 0
-253 155 0
-253 194 0
254 -154 -197 0
-254 154 0
-254 197 0
255 -256 311 0
255 256 -311 0
-255 256 311 0
-255 -256 -311 0
256 -257 308 0
256 257 -308 0
-256 257 308 0
-256 -257 -308 0
257 258 -307 0
257 -258 307 0
-257 -258 -307 0
-257 258 307 0
258 -259 304 0
258 259 -304 0
-258 259 304 0
-258 -259 -304 0
259 -260 301 0
259 260 -301 0
-259 260 301 0
-259 -260 -301 0
260 -261 298 0
260 261 -298 0
-260 261 298 0
-260 -261 -298 0
261 262 -281 0
261 -262 281 0
-261 -262 -281 0
-261 262 281 0
262 263 -264 0
262 -263 264 0
-262 -263 -264 0
-262 263 264 0
263 -213 -216 0
-263 213 0
-263 216 0
264 265 -270 0
264 -265 270 0
-264 -265 -270 0
-264 265 270 0
265 266 -269 0
265 -266 269 0
-265 -266 -269 0
-265 266 269 0
266 267 -268 0
266 -267 268 0
-266 -267 -268 0
-266 267 268 0
267 -1176 -1200 0
-267 1176 0
-267 1200 0
268 -1177 -1199 0
-268 1177 0
-268 1199 0
269 -1178 -1198 0
-269 1178 0
-269 1198 0
270 -271 278 0
270 271 -278 0
-270 271 278 0
-270 -271 -278 0
271 272 -273 0
271 -272 273 0
-271 -272 -273 0
-271 272 273 0
272 -1176 -1177 -1198 -1199 0
-272 1199 0
-272 1176 0
-272 1198 0
-272 1177 0
273 274 -277 0
273 -274 277 0
-273 -274 -277 0
-273 274 277 0
274 275 -276 0
274 -275 276 0
-274 -275 -276 0
-274 275 276 0
275 -1179 -1197 0
-275 1179 0
-275 1197 0
276 -1180 -1196 0
-276 1180 0
-276 1196 0
277 -1181 -1195 0
-277 1181 0
-277 1195 0
-278 279 280 0
278 -279 0
278 -280 0
279 -1178 -1179 -1196 -1197 0
-279 1197 0
-279 1178 0
-279 1196 0
-279 1179 0
280 -1180 -1195 -218 0
-280 1180 0
-280 1195 0
-280 218 0
281 -282 295 0
281 282 -295 0
-281 282 295 0
-281 -282 -295 0
282 283 -284 0
282 -283 284 0
-282 -283 -284 0
-282 283 284 0
283 -217 -222 0
-283 217 0
-283 222 0
284 285 -294 0
284 -285 294 0
-284 -285 -294 0
-284 285 294 0
285 -286 291 0
285 286 -291 0
-285 286 291 0
-285 -286 -291 0
286 287 -290 0
286 -287 290 0
-286 -287 -290 0
-286 287 290 0
287 288 -289 0
287 -288 289 0
-287 -288 -289 0
-287 288 289 0
288 -1182 -1194 0
-288 1182 0
-288 1194 0
289 -1183 -1193 0
-289 1183 0
-289 1193 0
290 -1184 -1192 0
-290 1184 0
-290 1192 0
-291 292 293 0
291 -292 0
291 -293 0
292 -1181 -1182 -1193 -1194 0
-292 1194 0
-292 1181 0
-292 1193 0
-292 1182 0
293 -1183 -1192 -231 0
-293 1183 0
-293 1192 0
-293 231 0
294 -1185 -1191 0
-294 1185 0
-294 1191 0
-295 296 297 0
295 -296 0
295 -297 0
296 -230 -235 0
-296 230 0
-296 235 0
297 -1184 -1191 -229 0
-297 1184 0
-297 1191 0
-297 229 0
-298 299 300 0
298 -299 0
298 -300 0
299 -211 -212 0
-299 211 0
-299 212 0
300 -210 -225 0
-300 210 0
-300 225 0
-301 302 303 0
301 -302 0
301 -303 0
302 -227 -228 0
-302 227 0
-302 228 0
303 -226 -239 0
-303 226 0
-303 239 0
-304 305 306 0
304 -305 0
304 -306 0
305 -208 -209 0
-305 208 0
-305 209 0
306 -207 -242 0
-306 207 0
-306 242 0
307 -1186 -1190 0
-307 1186 0
-307 1190 0
-308 309 310 0
308 -309 0
308 -310 0
309 -206 -245 0
-309 206 0
-309 245 0
310 -1185 -1190 -205 0
-310 1185 0
-310 1190 0
-310 205 0
-311 197 312 0
-311 312 314 0
311 -312 0
311 -197 -314 0
-312 313 203 0
-312 253 313 0
312 -313 0
312 -253 -203 0
313 -204 -249 0
-313 204 0
-313 249 0
314 -154 -203 0
-314 154 0
-314 203 0
315 -316 377 0
315 316 -377 0
-315 316 377 0
-315 -316 -377 0
316 -317 374 0
316 317 -374 0
-316 317 374 0
-316 -317 -374 0
317 318 -373 0
317 -318 373 0
-317 -318 -373 0
-317 318 373 0
318 -319 370 0
318 319 -370 0
-318 319 370 0
-318 -319 -370 0
319 -320 367 0
319 320 -367 0
-319 320 367 0
-319 -320 -367 0
320 -321 364 0
320 321 -364 0
-320 321 364 0
-320 -321 -364 0
321 322 -345 0
321 -322 345 0
-321 -322 -345 0
-321 322 345 0
322 323 -324 0
322 -323 324 0
-322 -323 -324 0
-322 323 324 0
323 -265 -270 0
-323 265 0
-323 270 0
324 325 -332 0
324 -325 332 0
-324 -325 -332 0
-324 325 332 0
325 326 -327 0
325 -326 327 0
-325 -326 -327 0
-325 326 327 0
326 -1176 -1201 0
-326 1176 0
-326 1201 0
327 328 -331 0
327 -328 331 0
-327 -328 -331 0
-327 328 331 0
328 329 -330 0
328 -329 330 0
-328 -329 -330 0
-328 329 330 0
329 -1177 -1200 0
-329 1177 0
-329 1200 0
330 -1178 -1199 0
-330 1178 0
-330 1199 0
331 -1179 -1198 0
-331 1179 0
-331 1198 0
332 -333 342 0
332 333 -342 0
-332 333 342 0
-332 -333 -342 0
333 334 -337 0
333 -334 337 0
-333 -334 -337 0
-333 334 337 0
-334 335 336 0
334 -335 0
334 -336 0
335 -1176 -1177 -1199 -1200 0
-335 1200 0
-335 1176 0
-335 1199 0
-335 1177 0
336 -1178 -1198 -266 0
-336 1178 0
-336 1198 0
-336 266 0
337 338 -341 0
337 -338 341 0
-337 -338 -341 0
-337 338 341 0
338 339 -340 0
338 -339 340 0
-338 -339 -340 0
-338 339 340 0
339 -1180 -1197 0
-339 1180 0
-339 1197 0
340 -1181 -1196 0
-340 1181 0
-340 1196 0
341 -1182 -1195 0
-341 1182 0
-341 1195 0
-342 343 344 0
342 -343 0
342 -344 0
343 -1179 -1180 -1196 -1197 0
-343 1197 0
-343 1179 0
-343 1196 0
-343 1180 0
344 -1181 -1195 -274 0
-344 1181 0
-344 1195 0
-344 274 0
345 -346 361 0
345 346 -361 0
-345 346 361 0
-345 -346 -361 0
346 347 -350 0
346 -347 350 0
-346 -347 -350 0
-346 347 350 0
-347 348 349 0
347 -348 0
347 -349 0
348 -272 -273 0
-348 272 0
-348 273 0
349 -271 -278 0
-349 271 0
-349 278 0
350 351 -360 0
350 -351 360 0
-350 -351 -360 0
-350 351 360 0
351 -352 357 0
351 352 -357 0
-351 352 357 0
-351 -352 -357 0
352 353 -356 0
352 -353 356 0
-352 -353 -356 0
-352 353 356 0
353 354 -355 0
353 -354 355 0
-353 -354 -355 0
-353 354 355 0
354 -1183 -1194 0
-354 1183 0
-354 1194 0
355 -1184 -1193 0
-355 1184 0
-355 1193 0
356 -1185 -1192 0
-356 1185 0
-356 1192 0
-357 358 359 0
357 -358 0
357 -359 0
358 -1182 -1183 -1193 -1194 0
-358 1194 0
-358 1182 0
-358 1193 0
-358 1183 0
359 -1184 -1192 -287 0
-359 1184 0
-359 1192 0
-359 287 0
360 -1186 -1191 0
-360 1186 0
-360 1191 0
-361 362 363 0
361 -362 0
361 -363 0
362 -286 -291 0
-362 286 0
-362 291 0
363 -1185 -1191 -285 0
-363 1185 0
-363 1191 0
-363 285 0
-364 365 366 0
364 -365 0
364 -366 0
365 -263 -264 0
-365 263 0
-365 264 0
366 -262 -281 0
-366 262 0
-366 281 0
-367 368 369 0
367 -368 0
367 -369 0
368 -283 -284 0
-368 283 0
-368 284 0
369 -282 -295 0
-369 282 0
-369 295 0
-370 371 372 0
370 -371 0
370 -372 0
371 -261 -298 0
-371 261 0
-371 298 0
372 -260 -301 0
-372 260 0
-372 301 0
373 -1187 -1190 0
-373 1187 0
-373 1190 0
-374 375 376 0
374 -375 0
374 -376 0
375 -259 -304 0
-375 259 0
-375 304 0
376 -1186 -1190 -258 0
-376 1186 0
-376 1190 0
-376 258 0
-377 378 379 0
377 -378 0
377 -379 0
378 -257 -308 0
-378 257 0
-378 308 0
379 -256 -311 0
-379 256 0
-379 311 0
380 -381 446 0
380 381 -446 0
-380 381 446 0
-380 -381 -446 0
381 -382 443 0
381 382 -443 0
-381 382 443 0
-381 -382 -443 0
382 383 -442 0
382 -383 442 0
-382 -383 -442 0
-382 383 442 0
383 -384 439 0
383 384 -439 0
-383 384 439 0
-383 -384 -439 0
384 -385 436 0
384 385 -436 0
-384 385 436 0
-384 -385 -436 0
385 -386 433 0
385 386 -433 0
-385 386 433 0
-385 -386 -433 0
386 387 -414 0
386 -387 414 0
-386 -387 -414 0
-386 387 414 0
387 388 -389 0
387 -388 389 0
-387 -388 -389 0
-387 388 389 0
388 -325 -332 0
-388 325 0
-388 332 0
389 390 -401 0
389 -390 401 0
-389 -390 -401 0
-389 390 401 0
390 391 -392 0
390 -391 392 0
-390 -391 -392 0
-390 391 392 0
391 -1176 -1201 -327 0
-391 1176 0
-391 1201 0
-391 327 0
392 393 -396 0
392 -393 396 0
-392 -393 -396 0
-392 393 396 0
393 394 -395 0
393 -394 395 0
-393 -394 -395 0
-393 394 395 0
394 -1176 -1202 0
-394 1176 0
-394 1202 0
395 -1177 -1201 0
-395 1177 0
-395 1201 0
396 397 -400 0
396 -397 400 0
-396 -397 -400 0
-396 397 400 0
397 398 -399 0
397 -398 399 0
-397 -398 -399 0
-397 398 399 0
398 -1178 -1200 0
-398 1178 0
-398 1200 0
399 -1179 -1199 0
-399 1179 0
-399 1199 0
400 -1180 -1198 0
-400 1180 0
-400 1198 0
401 -402 411 0
401 402 -411 0
-401 402 411 0
-401 -402 -411 0
402 403 -406 0
402 -403 406 0
-402 -403 -406 0
-402 403 406 0
-403 404 405 0
403 -404 0
403 -405 0
404 -1177 -1178 -1199 -1200 0
-404 1200 0
-404 1177 0
-404 1199 0
-404 1178 0
405 -1179 -1198 -328 0
-405 1179 0
-405 1198 0
-405 328 0
406 407 -410 0
406 -407 410 0
-406 -407 -410 0
-406 407 410 0
407 408 -409 0
407 -408 409 0
-407 -408 -409 0
-407 408 409 0
408 -1181 -1197 0
-408 1181 0
-408 1197 0
409 -1182 -1196 0
-409 1182 0
-409 1196 0
410 -1183 -1195 0
-410 1183 0
-410 1195 0
-411 412 413 0
411 -412 0
411 -413 0
412 -1180 -1181 -1196 -1197 0
-412 1197 0
-412 1180 0
-412 1196 0
-412 1181 0
413 -1182 -1195 -338 0
-413 1182 0
-413 1195 0
-413 338 0
414 -415 430 0
414 415 -430 0
-414 415 430 0
-414 -415 -430 0
415 416 -419 0
415 -416 419 0
-415 -416 -419 0
-415 416 419 0
-416 417 418 0
416 -417 0
416 -418 0
417 -334 -337 0
-417 334 0
-417 337 0
418 -333 -342 0
-418 333 0
-418 342 0
419 420 -429 0
419 -420 429 0
-419 -420 -429 0
-419 420 429 0
420 -421 426 0
420 421 -426 0
-420 421 426 0
-420 -421 -426 0
421 422 -425 0
421 -422 425 0
-421 -422 -425 0
-421 422 425 0
422 423 -424 0
422 -423 424 0
-422 -423 -424 0
-422 423 424 0
423 -1184 -1194 0
-423 1184 0
-423 1194 0
424 -1185 -1193 0
-424 1185 0
-424 1193 0
425 -1186 -1192 0
-425 1186 0
-425 1192 0
-426 427 428 0
426 -427 0
426 -428 0
427 -1183 -1184 -1193 -1194 0
-427 1194 0
-427 1183 0
-427 1193 0
-427 1184 0
428 -1185 -1192 -353 0
-428 1185 0
-428 1192 0
-428 353 0
429 -1187 -1191 0
-429 1187 0
-429 1191 0
-430 431 432 0
430 -431 0
430 -432 0
431 -352 -357 0
-431 352 0
-431 357 0
432 -1186 -1191 -351 0
-432 1186 0
-432 1191 0
-432 351 0
-433 434 435 0
433 -434 0
433 -435 0
434 -323 -324 0
-434 323 0
-434 324 0
435 -322 -345 0
-435 322 0
-435 345 0
-436 437 438 0
436 -437 0
436 -438 0
437 -347 -350 0
-437 347 0
-437 350 0
438 -346 -361 0
-438 346 0
-438 361 0
-439 440 441 0
439 -440 0
439 -441 0
440 -321 -364 0
-440 321 0
-440 364 0
441 -320 -367 0
-441 320 0
-441 367 0
442 -1188 -1190 0
-442 1188 0
-442 1190 0
-443 444 445 0
443 -444 0
443 -445 0
444 -319 -370 0
-444 319 0
-444 370 0
445 -1187 -1190 -318 0
-445 1187 0
-445 1190 0
-445 318 0
-446 197 447 0
-446 447 451 0
446 -447 0
446 -197 -451 0
-447 378 448 449 0
-447 448 316 449 0
447 -449 0
447 -448 0
447 -378 -316 0
448 -317 -374 0
-448 317 0
-448 374 0
449 -312 -450 0
-449 312 0
-449 450 0
450 -256 -316 0
-450 256 0
-450 316 0
451 -314 -450 0
-451 314 0
-451 450 0
452 -453 524 0
452 453 -524 0
-452 453 524 0
-452 -453 -524 0
453 -454 521 0
453 454 -521 0
-453 454 521 0
-453 -454 -521 0
454 455 -520 0
454 -455 520 0
-454 -455 -520 0
-454 455 520 0
455 -456 517 0
455 456 -517 0
-455 456 517 0
-455 -456 -517 0
456 -457 514 0
456 457 -514 0
-456 457 514 0
-456 -457 -514 0
457 -458 511 0
457 458 -511 0
-457 458 511 0
-457 -458 -511 0
458 459 -492 0
458 -459 492 0
-458 -459 -492 0
-458 459 492 0
459 -460 489 0
459 460 -489 0
-459 460 489 0
-459 -460 -489 0
460 461 -476 0
460 -461 476 0
-460 -461 -476 0
-460 461 476 0
461 462 -463 0
461 -462 463 0
-461 -462 -463 0
-461 462 463 0
462 -393 -396 0
-462 393 0
-462 396 0
463 464 -471 0
463 -464 471 0
-463 -464 -471 0
-463 464 471 0
464 465 -466 0
464 -465 466 0
-464 -465 -466 0
-464 465 466 0
465 -1176 -1177 -1201 -1202 0
-465 1202 0
-465 1176 0
-465 1201 0
-465 1177 0
466 467 -470 0
466 -467 470 0
-466 -467 -470 0
-466 467 470 0
467 468 -469 0
467 -468 469 0
-467 -468 -469 0
-467 468 469 0
468 -1176 -1203 0
-468 1176 0
-468 1203 0
469 -1177 -1202 0
-469 1177 0
-469 1202 0
470 -1178 -1201 0
-470 1178 0
-470 1201 0
471 472 -475 0
471 -472 475 0
-471 -472 -475 0
-471 472 475 0
472 473 -474 0
472 -473 474 0
-472 -473 -474 0
-472 473 474 0
473 -1179 -1200 0
-473 1179 0
-473 1200 0
474 -1180 -1199 0
-474 1180 0
-474 1199 0
475 -1181 -1198 0
-475 1181 0
-475 1198 0
476 -477 486 0
476 477 -486 0
-476 477 486 0
-476 -477 -486 0
477 478 -481 0
477 -478 481 0
-477 -478 -481 0
-477 478 481 0
-478 479 480 0
478 -479 0
478 -480 0
479 -1178 -1179 -1199 -1200 0
-479 1200 0
-479 1178 0
-479 1199 0
-479 1179 0
480 -1180 -1198 -397 0
-480 1180 0
-480 1198 0
-480 397 0
481 482 -485 0
481 -482 485 0
-481 -482 -485 0
-481 482 485 0
482 483 -484 0
482 -483 484 0
-482 -483 -484 0
-482 483 484 0
483 -1182 -1197 0
-483 1182 0
-483 1197 0
484 -1183 -1196 0
-484 1183 0
-484 1196 0
485 -1184 -1195 0
-485 1184 0
-485 1195 0
-486 487 488 0
486 -487 0
486 -488 0
487 -1181 -1182 -1196 -1197 0
-487 1197 0
-487 1181 0
-487 1196 0
-487 1182 0
488 -1183 -1195 -407 0
-488 1183 0
-488 1195 0
-488 407 0
-489 490 491 0
489 -490 0
489 -491 0
490 -391 -392 0
-490 391 0
-490 392 0
491 -390 -401 0
-491 390 0
-491 401 0
492 -493 508 0
492 493 -508 0
-492 493 508 0
-492 -493 -508 0
493 494 -497 0
493 -494 497 0
-493 -494 -497 0
-493 494 497 0
-494 495 496 0
494 -495 0
494 -496 0
495 -403 -406 0
-495 403 0
-495 406 0
496 -402 -411 0
-496 402 0
-496 411 0
497 498 -507 0
497 -498 507 0
-497 -498 -507 0
-497 498 507 0
498 -499 504 0
498 499 -504 0
-498 499 504 0
-498 -499 -504 0
499 500 -503 0
499 -500 503 0
-499 -500 -503 0
-499 500 503 0
500 501 -502 0
500 -501 502 0
-500 -501 -502 0
-500 501 502 0
501 -1185 -1194 0
-501 1185 0
-501 1194 0
502 -1186 -1193 0
-502 1186 0
-502 1193 0
503 -1187 -1192 0
-503 1187 0
-503 1192 0
-504 505 506 0
504 -505 0
504 -506 0
505 -1184 -1185 -1193 -1194 0
-505 1194 0
-505 1184 0
-505 1193 0
-505 1185 0
506 -1186 -1192 -422 0
-506 1186 0
-506 1192 0
-506 422 0
507 -1188 -1191 0
-507 1188 0
-507 1191 0
-508 509 510 0
508 -509 0
508 -510 0
509 -421 -426 0
-509 421 0
-509 426 0
510 -1187 -1191 -420 0
-510 1187 0
-510 1191 0
-510 420 0
-511 512 513 0
511 -512 0
511 -513 0
512 -388 -389 0
-512 388 0
-512 389 0
513 -387 -414 0
-513 387 0
-513 414 0
-514 515 516 0
514 -515 0
514 -516 0
515 -416 -419 0
-515 416 0
-515 419 0
516 -415 -430 0
-516 415 0
-516 430 0
-517 518 519 0
517 -518 0
517 -519 0
518 -386 -433 0
-518 386 0
-518 433 0
519 -385 -436 0
-519 385 0
-519 436 0
520 -1189 -1190 0
-520 1189 0
-520 1190 0
-521 522 523 0
521 -522 0
521 -523 0
522 -384 -439 0
-522 384 0
-522 439 0
523 -1188 -1190 -383 0
-523 1188 0
-523 1190 0
-523 383 0
-524 525 526 0
524 -525 0
524 -526 0
525 -382 -443 0
-525 382 0
-525 443 0
526 -381 -446 0
-526 381 0
-526 446 0
527 -528 601 0
527 528 -601 0
-527 528 601 0
-527 -528 -601 0
528 -529 598 0
528 529 -598 0
-528 529 598 0
-528 -529 -598 0
529 -530 595 0
529 530 -595 0
-529 530 595 0
-529 -530 -595 0
530 -531 592 0
530 531 -592 0
-530 531 592 0
-530 -531 -592 0
531 -532 589 0
531 532 -589 0
-531 532 589 0
-531 -532 -589 0
532 533 -570 0
532 -533 570 0
-532 -533 -570 0
-532 533 570 0
533 -534 567 0
533 534 -567 0
-533 534 567 0
-533 -534 -567 0
534 535 -554 0
534 -535 554 0
-534 -535 -554 0
-534 535 554 0
535 -536 551 0
535 536 -551 0
-535 536 551 0
-535 -536 -551 0
536 537 -546 0
536 -537 546 0
-536 -537 -546 0
-536 537 546 0
537 -538 543 0
537 538 -543 0
-537 538 543 0
-537 -538 -543 0
538 539 -542 0
538 -539 542 0
-538 -539 -542 0
-538 539 542 0
539 540 -541 0
539 -540 541 0
-539 -540 -541 0
-539 540 541 0
540 -1177 -1203 0
-540 1177 0
-540 1203 0
541 -1178 -1202 0
-541 1178 0
-541 1202 0
542 -1179 -1201 0
-542 1179 0
-542 1201 0
-543 544 545 0
543 -544 0
543 -545 0
544 -1176 -1177 -1202 -1203 0
-544 1203 0
-544 1176 0
-544 1202 0
-544 1177 0
545 -1178 -1201 -467 0
-545 1178 0
-545 1201 0
-545 467 0
546 547 -550 0
546 -547 550 0
-546 -547 -550 0
-546 547 550 0
547 548 -549 0
547 -548 549 0
-547 -548 -549 0
-547 548 549 0
548 -1180 -1200 0
-548 1180 0
-548 1200 0
549 -1181 -1199 0
-549 1181 0
-549 1199 0
550 -1182 -1198 0
-550 1182 0
-550 1198 0
-551 552 553 0
551 -552 0
551 -553 0
552 -465 -466 0
-552 465 0
-552 466 0
553 -464 -471 0
-553 464 0
-553 471 0
554 -555 564 0
554 555 -564 0
-554 555 564 0
-554 -555 -564 0
555 556 -559 0
555 -556 559 0
-555 -556 -559 0
-555 556 559 0
-556 557 558 0
556 -557 0
556 -558 0
557 -1179 -1180 -1199 -1200 0
-557 1200 0
-557 1179 0
-557 1199 0
-557 1180 0
558 -1181 -1198 -472 0
-558 1181 0
-558 1198 0
-558 472 0
559 560 -563 0
559 -560 563 0
-559 -560 -563 0
-559 560 563 0
560 561 -562 0
560 -561 562 0
-560 -561 -562 0
-560 561 562 0
561 -1183 -1197 0
-561 1183 0
-561 1197 0
562 -1184 -1196 0
-562 1184 0
-562 1196 0
563 -1185 -1195 0
-563 1185 0
-563 1195 0
-564 565 566 0
564 -565 0
564 -566 0
565 -1182 -1183 -1196 -1197 0
-565 1197 0
-565 1182 0
-565 1196 0
-565 1183 0
566 -1184 -1195 -482 0
-566 1184 0
-566 1195 0
-566 482 0
-567 568 569 0
567 -568 0
567 -569 0
568 -462 -463 0
-568 462 0
-568 463 0
569 -461 -476 0
-569 461 0
-569 476 0
570 -571 586 0
570 571 -586 0
-570 571 586 0
-570 -571 -586 0
571 572 -575 0
571 -572 575 0
-571 -572 -575 0
-571 572 575 0
-572 573 574 0
572 -573 0
572 -574 0
573 -478 -481 0
-573 478 0
-573 481 0
574 -477 -486 0
-574 477 0
-574 486 0
575 576 -585 0
575 -576 585 0
-575 -576 -585 0
-575 576 585 0
576 -577 582 0
576 577 -582 0
-576 577 582 0
-576 -577 -582 0
577 578 -581 0
577 -578 581 0
-577 -578 -581 0
-577 578 581 0
578 579 -580 0
578 -579 580 0
-578 -579 -580 0
-578 579 580 0
579 -1186 -1194 0
-579 1186 0
-579 1194 0
580 -1187 -1193 0
-580 1187 0
-580 1193 0
581 -1188 -1192 0
-581 1188 0
-581 1192 0
-582 583 584 0
582 -583 0
582 -584 0
583 -1185 -1186 -1193 -1194 0
-583 1194 0
-583 1185 0
-583 1193 0
-583 1186 0
584 -1187 -1192 -500 0
-584 1187 0
-584 1192 0
-584 500 0
585 -1189 -1191 0
-585 1189 0
-585 1191 0
-586 587 588 0
586 -587 0
586 -588 0
587 -499 -504 0
-587 499 0
-587 504 0
588 -1188 -1191 -498 0
-588 1188 0
-588 1191 0
-588 498 0
-589 590 591 0
589 -590 0
589 -591 0
590 -460 -489 0
-590 460 0
-590 489 0
591 -459 -492 0
-591 459 0
-591 492 0
-592 593 594 0
592 -593 0
592 -594 0
593 -494 -497 0
-593 494 0
-593 497 0
594 -493 -508 0
-594 493 0
-594 508 0
-595 596 597 0
595 -596 0
595 -597 0
596 -458 -511 0
-596 458 0
-596 511 0
597 -457 -514 0
-597 457 0
-597 514 0
-598 599 600 0
598 -599 0
598 -600 0
599 -456 -517 0
-599 456 0
-599 517 0
600 -1189 -1190 -455 0
-600 1189 0
-600 1190 0
-600 455 0
-601 446 602 0
-601 602 604 0
601 -602 0
601 -446 -604 0
-602 603 453 0
-602 525 603 0
602 -603 0
602 -525 -453 0
603 -454 -521 0
-603 454 0
-603 521 0
604 -381 -453 0
-604 381 0
-604 453 0
605 -606 675 0
605 606 -675 0
-605 606 675 0
-605 -606 -675 0
606 607 -608 0
606 -607 608 0
-606 -607 -608 0
-606 607 608 0
607 -530 -595 0
-607 530 0
-607 595 0
608 -609 672 0
608 609 -672 0
-608 609 672 0
-608 -609 -672 0
609 -610 669 0
609 610 -669 0
-609 610 669 0
-609 -610 -669 0
610 -611 666 0
610 611 -666 0
-610 611 666 0
-610 -611 -666 0
611 612 -649 0
611 -612 649 0
-611 -612 -649 0
-611 612 649 0
612 -613 646 0
612 613 -646 0
-612 613 646 0
-612 -613 -646 0
613 614 -633 0
613 -614 633 0
-613 -614 -633 0
-613 614 633 0
614 -615 630 0
614 615 -630 0
-614 615 630 0
-614 -615 -630 0
615 616 -625 0
615 -616 625 0
-615 -616 -625 0
-615 616 625 0
616 -617 622 0
616 617 -622 0
-616 617 622 0
-616 -617 -622 0
617 618 -621 0
617 -618 621 0
-617 -618 -621 0
-617 618 621 0
618 619 -620 0
618 -619 620 0
-618 -619 -620 0
-618 619 620 0
619 -1178 -1203 0
-619 1178 0
-619 1203 0
620 -1179 -1202 0
-620 1179 0
-620 1202 0
621 -1180 -1201 0
-621 1180 0
-621 1201 0
-622 623 624 0
622 -623 0
622 -624 0
623 -1177 -1178 -1202 -1203 0
-623 1203 0
-623 1177 0
-623 1202 0
-623 1178 0
624 -1179 -1201 -539 0
-624 1179 0
-624 1201 0
-624 539 0
625 626 -629 0
625 -626 629 0
-625 -626 -629 0
-625 626 629 0
626 627 -628 0
626 -627 628 0
-626 -627 -628 0
-626 627 628 0
627 -1181 -1200 0
-627 1181 0
-627 1200 0
628 -1182 -1199 0
-628 1182 0
-628 1199 0
629 -1183 -1198 0
-629 1183 0
-629 1198 0
-630 631 632 0
630 -631 0
630 -632 0
631 -538 -543 0
-631 538 0
-631 543 0
632 -537 -546 0
-632 537 0
-632 546 0
633 -634 643 0
633 634 -643 0
-633 634 643 0
-633 -634 -643 0
634 635 -638 0
634 -635 638 0
-634 -635 -638 0
-634 635 638 0
-635 636 637 0
635 -636 0
635 -637 0
636 -1180 -1181 -1199 -1200 0
-636 1200 0
-636 1180 0
-636 1199 0
-636 1181 0
637 -1182 -1198 -547 0
-637 1182 0
-637 1198 0
-637 547 0
638 639 -642 0
638 -639 642 0
-638 -639 -642 0
-638 639 642 0
639 640 -641 0
639 -640 641 0
-639 -640 -641 0
-639 640 641 0
640 -1184 -1197 0
-640 1184 0
-640 1197 0
641 -1185 -1196 0
-641 1185 0
-641 1196 0
642 -1186 -1195 0
-642 1186 0
-642 1195 0
-643 644 645 0
643 -644 0
643 -645 0
644 -1183 -1184 -1196 -1197 0
-644 1197 0
-644 1183 0
-644 1196 0
-644 1184 0
645 -1185 -1195 -560 0
-645 1185 0
-645 1195 0
-645 560 0
-646 647 648 0
646 -647 0
646 -648 0
647 -536 -551 0
-647 536 0
-647 551 0
648 -535 -554 0
-648 535 0
-648 554 0
649 -650 663 0
649 650 -663 0
-649 650 663 0
-649 -650 -663 0
650 651 -654 0
650 -651 654 0
-650 -651 -654 0
-650 651 654 0
-651 652 653 0
651 -652 0
651 -653 0
652 -556 -559 0
-652 556 0
-652 559 0
653 -555 -564 0
-653 555 0
-653 564 0
654 -655 660 0
654 655 -660 0
-654 655 660 0
-654 -655 -660 0
655 656 -659 0
655 -656 659 0
-655 -656 -659 0
-655 656 659 0
656 657 -658 0
656 -657 658 0
-656 -657 -658 0
-656 657 658 0
657 -1187 -1194 0
-657 1187 0
-657 1194 0
658 -1188 -1193 0
-658 1188 0
-658 1193 0
659 -1189 -1192 0
-659 1189 0
-659 1192 0
-660 661 662 0
660 -661 0
660 -662 0
661 -1186 -1187 -1193 -1194 0
-661 1194 0
-661 1186 0
-661 1193 0
-661 1187 0
662 -1188 -1192 -578 0
-662 1188 0
-662 1192 0
-662 578 0
-663 664 665 0
663 -664 0
663 -665 0
664 -577 -582 0
-664 577 0
-664 582 0
665 -1189 -1191 -576 0
-665 1189 0
-665 1191 0
-665 576 0
-666 667 668 0
666 -667 0
666 -668 0
667 -534 -567 0
-667 534 0
-667 567 0
668 -533 -570 0
-668 533 0
-668 570 0
-669 670 671 0
669 -670 0
669 -671 0
670 -572 -575 0
-670 572 0
-670 575 0
671 -571 -586 0
-671 571 0
-671 586 0
-672 673 674 0
672 -673 0
672 -674 0
673 -532 -589 0
-673 532 0
-673 589 0
674 -531 -592 0
-674 531 0
-674 592 0
-675 676 677 0
675 -676 0
675 -677 0
676 -529 -598 0
-676 529 0
-676 598 0
677 -528 -601 0
-677 528 0
-677 601 0
678 -679 744 0
678 679 -744 0
-678 679 744 0
-678 -679 -744 0
679 680 -681 0
679 -680 681 0
-679 -680 -681 0
-679 680 681 0
680 -609 -672 0
-680 609 0
-680 672 0
681 -682 741 0
681 682 -741 0
-681 682 741 0
-681 -682 -741 0
682 -683 738 0
682 683 -738 0
-682 683 738 0
-682 -683 -738 0
683 -684 735 0
683 684 -735 0
-683 684 735 0
-683 -684 -735 0
684 685 -722 0
684 -685 722 0
-684 -685 -722 0
-684 685 722 0
685 -686 719 0
685 686 -719 0
-685 686 719 0
-685 -686 -719 0
686 687 -706 0
686 -687 706 0
-686 -687 -706 0
-686 687 706 0
687 -688 703 0
687 688 -703 0
-687 688 703 0
-687 -688 -703 0
688 689 -698 0
688 -689 698 0
-688 -689 -698 0
-688 689 698 0
689 -690 695 0
689 690 -695 0
-689 690 695 0
-689 -690 -695 0
690 691 -694 0
690 -691 694 0
-690 -691 -694 0
-690 691 694 0
691 692 -693 0
691 -692 693 0
-691 -692 -693 0
-691 692 693 0
692 -1179 -1203 0
-692 1179 0
-692 1203 0
693 -1180 -1202 0
-693 1180 0
-693 1202 0
694 -1181 -1201 0
-694 1181 0
-694 1201 0
-695 696 697 0
695 -696 0
695 -697 0
696 -1178 -1179 -1202 -1203 0
-696 1203 0
-696 1178 0
-696 1202 0
-696 1179 0
697 -1180 -1201 -618 0
-697 1180 0
-697 1201 0
-697 618 0
698 699 -702 0
698 -699 702 0
-698 -699 -702 0
-698 699 702 0
699 700 -701 0
699 -700 701 0
-699 -700 -701 0
-699 700 701 0
700 -1182 -1200 0
-700 1182 0
-700 1200 0
701 -1183 -1199 0
-701 1183 0
-701 1199 0
702 -1184 -1198 0
-702 1184 0
-702 1198 0
-703 704 705 0
703 -704 0
703 -705 0
704 -617 -622 0
-704 617 0
-704 622 0
705 -616 -625 0
-705 616 0
-705 625 0
706 -707 716 0
706 707 -716 0
-706 707 716 0
-706 -707 -716 0
707 708 -711 0
707 -708 711 0
-707 -708 -711 0
-707 708 711 0
-708 709 710 0
708 -709 0
708 -710 0
709 -1181 -1182 -1199 -1200 0
-709 1200 0
-709 1181 0
-709 1199 0
-709 1182 0
710 -1183 -1198 -626 0
-710 1183 0
-710 1198 0
-710 626 0
711 712 -715 0
711 -712 715 0
-711 -712 -715 0
-711 712 715 0
712 713 -714 0
712 -713 714 0
-712 -713 -714 0
-712 713 714 0
713 -1185 -1197 0
-713 1185 0
-713 1197 0
714 -1186 -1196 0
-714 1186 0
-714 1196 0
715 -1187 -1195 0
-715 1187 0
-715 1195 0
-716 717 718 0
716 -717 0
716 -718 0
717 -1184 -1185 -1196 -1197 0
-717 1197 0
-717 1184 0
-717 1196 0
-717 1185 0
718 -1186 -1195 -639 0
-718 1186 0
-718 1195 0
-718 639 0
-719 720 721 0
719 -720 0
719 -721 0
720 -615 -630 0
-720 615 0
-720 630 0
721 -614 -633 0
-721 614 0
-721 633 0
722 723 -724 0
722 -723 724 0
-722 -723 -724 0
-722 723 724 0
723 -655 -660 0
-723 655 0
-723 660 0
724 725 -728 0
724 -725 728 0
-724 -725 -728 0
-724 725 728 0
-725 726 727 0
725 -726 0
725 -727 0
726 -635 -638 0
-726 635 0
-726 638 0
727 -634 -643 0
-727 634 0
-727 643 0
728 -729 732 0
728 729 -732 0
-728 729 732 0
-728 -729 -732 0
729 730 -731 0
729 -730 731 0
-729 -730 -731 0
-729 730 731 0
730 -1188 -1194 0
-730 1188 0
-730 1194 0
731 -1189 -1193 0
-731 1189 0
-731 1193 0
-732 733 734 0
732 -733 0
732 -734 0
733 -1187 -1188 -1193 -1194 0
-733 1194 0
-733 1187 0
-733 1193 0
-733 1188 0
734 -1189 -1192 -656 0
-734 1189 0
-734 1192 0
-734 656 0
-735 736 737 0
735 -736 0
735 -737 0
736 -613 -646 0
-736 613 0
-736 646 0
737 -612 -649 0
-737 612 0
-737 649 0
-738 739 740 0
738 -739 0
738 -740 0
739 -651 -654 0
-739 651 0
-739 654 0
740 -650 -663 0
-740 650 0
-740 663 0
-741 742 743 0
741 -742 0
741 -743 0
742 -611 -666 0
-742 611 0
-742 666 0
743 -610 -669 0
-743 610 0
-743 669 0
-744 451 747 0
-744 745 747 0
-744 197 747 0
744 -747 0
744 -197 -451 -745 0
745 -604 -746 0
-745 604 0
-745 746 0
746 -528 -606 0
-746 528 0
-746 606 0
-747 447 748 750 0
-747 748 750 745 0
747 -748 0
747 -750 0
747 -447 -745 0
-748 749 606 0
-748 676 749 0
748 -749 0
748 -676 -606 0
749 -607 -608 0
-749 607 0
-749 608 0
750 -602 -746 0
-750 602 0
-750 746 0
751 -752 811 0
751 752 -811 0
-751 752 811 0
-751 -752 -811 0
752 753 -754 0
752 -753 754 0
-752 -753 -754 0
-752 753 754 0
753 -682 -741 0
-753 682 0
-753 741 0
754 -755 808 0
754 755 -808 0
-754 755 808 0
-754 -755 -808 0
755 -756 805 0
755 756 -805 0
-755 756 805 0
-755 -756 -805 0
756 -757 802 0
756 757 -802 0
-756 757 802 0
-756 -757 -802 0
757 758 -795 0
757 -758 795 0
-757 -758 -795 0
-757 758 795 0
758 -759 792 0
758 759 -792 0
-758 759 792 0
-758 -759 -792 0
759 760 -779 0
759 -760 779 0
-759 -760 -779 0
-759 760 779 0
760 -761 776 0
760 761 -776 0
-760 761 776 0
-760 -761 -776 0
761 762 -771 0
761 -762 771 0
-761 -762 -771 0
-761 762 771 0
762 -763 768 0
762 763 -768 0
-762 763 768 0
-762 -763 -768 0
763 764 -767 0
763 -764 767 0
-763 -764 -767 0
-763 764 767 0
764 765 -766 0
764 -765 766 0
-764 -765 -766 0
-764 765 766 0
765 -1180 -1203 0
-765 1180 0
-765 1203 0
766 -1181 -1202 0
-766 1181 0
-766 1202 0
767 -1182 -1201 0
-767 1182 0
-767 1201 0
-768 769 770 0
768 -769 0
768 -770 0
769 -1179 -1180 -1202 -1203 0
-769 1203 0
-769 1179 0
-769 1202 0
-769 1180 0
770 -1181 -1201 -691 0
-770 1181 0
-770 1201 0
-770 691 0
771 772 -775 0
771 -772 775 0
-771 -772 -775 0
-771 772 775 0
772 773 -774 0
772 -773 774 0
-772 -773 -774 0
-772 773 774 0
773 -1183 -1200 0
-773 1183 0
-773 1200 0
774 -1184 -1199 0
-774 1184 0
-774 1199 0
775 -1185 -1198 0
-775 1185 0
-775 1198 0
-776 777 778 0
776 -777 0
776 -778 0
777 -690 -695 0
-777 690 0
-777 695 0
778 -689 -698 0
-778 689 0
-778 698 0
779 -780 789 0
779 780 -789 0
-779 780 789 0
-779 -780 -789 0
780 781 -784 0
780 -781 784 0
-780 -781 -784 0
-780 781 784 0
-781 782 783 0
781 -782 0
781 -783 0
782 -1182 -1183 -1199 -1200 0
-782 1200 0
-782 1182 0
-782 1199 0
-782 1183 0
783 -1184 -1198 -699 0
-783 1184 0
-783 1198 0
-783 699 0
784 785 -788 0
784 -785 788 0
-784 -785 -788 0
-784 785 788 0
785 786 -787 0
785 -786 787 0
-785 -786 -787 0
-785 786 787 0
786 -1186 -1197 0
-786 1186 0
-786 1197 0
787 -1187 -1196 0
-787 1187 0
-787 1196 0
788 -1188 -1195 0
-788 1188 0
-788 1195 0
-789 790 791 0
789 -790 0
789 -791 0
790 -1185 -1186 -1196 -1197 0
-790 1197 0
-790 1185 0
-790 1196 0
-790 1186 0
791 -1187 -1195 -712 0
-791 1187 0
-791 1195 0
-791 712 0
-792 793 794 0
792 -793 0
792 -794 0
793 -688 -703 0
-793 688 0
-793 703 0
794 -687 -706 0
-794 687 0
-794 706 0
795 796 -797 0
795 -796 797 0
-795 -796 -797 0
-795 796 797 0
796 -729 -732 0
-796 729 0
-796 732 0
797 798 -801 0
797 -798 801 0
-797 -798 -801 0
-797 798 801 0
-798 799 800 0
798 -799 0
798 -800 0
799 -708 -711 0
-799 708 0
-799 711 0
800 -707 -716 0
-800 707 0
-800 716 0
801 1188 -1189 -1194 0
801 -1189 1193 -1194 0
-801 1194 0
-801 1189 0
-801 -1188 -1193 0
-802 803 804 0
802 -803 0
802 -804 0
803 -686 -719 0
-803 686 0
-803 719 0
804 -685 -722 0
-804 685 0
-804 722 0
-805 806 807 0
805 -806 0
805 -807 0
806 -725 -728 0
-806 725 0
-806 728 0
807 -723 -724 0
-807 723 0
-807 724 0
-808 809 810 0
808 -809 0
808 -810 0
809 -684 -735 0
-809 684 0
-809 735 0
810 -683 -738 0
-810 683 0
-810 738 0
-811 812 813 0
811 -812 0
811 -813 0
812 -680 -681 0
-812 680 0
-812 681 0
813 -679 -744 0
-813 679 0
-813 744 0
814 -815 872 0
814 815 -872 0
-814 815 872 0
-814 -815 -872 0
815 816 -817 0
815 -816 817 0
-815 -816 -817 0
-815 816 817 0
816 -755 -808 0
-816 755 0
-816 808 0
817 -818 869 0
817 818 -869 0
-817 818 869 0
-817 -818 -869 0
818 -819 866 0
818 819 -866 0
-818 819 866 0
-818 -819 -866 0
819 -820 863 0
819 820 -863 0
-819 820 863 0
-819 -820 -863 0
820 821 -858 0
820 -821 858 0
-820 -821 -858 0
-820 821 858 0
821 -822 855 0
821 822 -855 0
-821 822 855 0
-821 -822 -855 0
822 823 -842 0
822 -823 842 0
-822 -823 -842 0
-822 823 842 0
823 -824 839 0
823 824 -839 0
-823 824 839 0
-823 -824 -839 0
824 825 -834 0
824 -825 834 0
-824 -825 -834 0
-824 825 834 0
825 -826 831 0
825 826 -831 0
-825 826 831 0
-825 -826 -831 0
826 827 -830 0
826 -827 830 0
-826 -827 -830 0
-826 827 830 0
827 828 -829 0
827 -828 829 0
-827 -828 -829 0
-827 828 829 0
828 -1181 -1203 0
-828 1181 0
-828 1203 0
829 -1182 -1202 0
-829 1182 0
-829 1202 0
830 -1183 -1201 0
-830 1183 0
-830 1201 0
-831 832 833 0
831 -832 0
831 -833 0
832 -1180 -1181 -1202 -1203 0
-832 1203 0
-832 1180 0
-832 1202 0
-832 1181 0
833 -1182 -1201 -764 0
-833 1182 0
-833 1201 0
-833 764 0
834 835 -838 0
834 -835 838 0
-834 -835 -838 0
-834 835 838 0
835 836 -837 0
835 -836 837 0
-835 -836 -837 0
-835 836 837 0
836 -1184 -1200 0
-836 1184 0
-836 1200 0
837 -1185 -1199 0
-837 1185 0
-837 1199 0
838 -1186 -1198 0
-838 1186 0
-838 1198 0
-839 840 841 0
839 -840 0
839 -841 0
840 -763 -768 0
-840 763 0
-840 768 0
841 -762 -771 0
-841 762 0
-841 771 0
842 -843 852 0
842 843 -852 0
-842 843 852 0
-842 -843 -852 0
843 844 -847 0
843 -844 847 0
-843 -844 -847 0
-843 844 847 0
-844 845 846 0
844 -845 0
844 -846 0
845 -1183 -1184 -1199 -1200 0
-845 1200 0
-845 1183 0
-845 1199 0
-845 1184 0
846 -1185 -1198 -772 0
-846 1185 0
-846 1198 0
-846 772 0
847 848 -851 0
847 -848 851 0
-847 -848 -851 0
-847 848 851 0
848 849 -850 0
848 -849 850 0
-848 -849 -850 0
-848 849 850 0
849 -1187 -1197 0
-849 1187 0
-849 1197 0
850 -1188 -1196 0
-850 1188 0
-850 1196 0
851 -1189 -1195 0
-851 1189 0
-851 1195 0
-852 853 854 0
852 -853 0
852 -854 0
853 -1186 -1187 -1196 -1197 0
-853 1197 0
-853 1186 0
-853 1196 0
-853 1187 0
854 -1188 -1195 -785 0
-854 1188 0
-854 1195 0
-854 785 0
-855 856 857 0
855 -856 0
855 -857 0
856 -761 -776 0
-856 761 0
-856 776 0
857 -760 -779 0
-857 760 0
-857 779 0
858 -859 860 0
858 859 -860 0
-858 859 860 0
-858 -859 -860 0
859 -1188 -1189 -1193 -1194 0
-859 1194 0
-859 1188 0
-859 1193 0
-859 1189 0
-860 861 862 0
860 -861 0
860 -862 0
861 -781 -784 0
-861 781 0
-861 784 0
862 -780 -789 0
-862 780 0
-862 789 0
-863 864 865 0
863 -864 0
863 -865 0
864 -759 -792 0
-864 759 0
-864 792 0
865 -758 -795 0
-865 758 0
-865 795 0
-866 867 868 0
866 -867 0
866 -868 0
867 -798 -801 0
-867 798 0
-867 801 0
868 -796 -797 0
-868 796 0
-868 797 0
-869 870 871 0
869 -870 0
869 -871 0
870 -757 -802 0
-870 757 0
-870 802 0
871 -756 -805 0
-871 756 0
-871 805 0
-872 744 873 0
-872 873 875 0
872 -873 0
872 -744 -875 0
-873 874 752 0
-873 812 874 0
873 -874 0
873 -812 -752 0
874 -753 -754 0
-874 753 0
-874 754 0
875 -679 -752 0
-875 679 0
-875 752 0
876 -877 928 0
876 877 -928 0
-876 877 928 0
-876 -877 -928 0
877 878 -879 0
877 -878 879 0
-877 -878 -879 0
-877 878 879 0
878 -818 -869 0
-878 818 0
-878 869 0
879 -880 925 0
879 880 -925 0
-879 880 925 0
-879 -880 -925 0
880 881 -882 0
880 -881 882 0
-880 -881 -882 0
-880 881 882 0
881 -859 -860 0
-881 859 0
-881 860 0
882 -883 922 0
882 883 -922 0
-882 883 922 0
-882 -883 -922 0
883 -884 919 0
883 884 -919 0
-883 884 919 0
-883 -884 -919 0
884 -885 916 0
884 885 -916 0
-884 885 916 0
-884 -885 -916 0
885 886 -905 0
885 -886 905 0
-885 -886 -905 0
-885 886 905 0
886 -887 902 0
886 887 -902 0
-886 887 902 0
-886 -887 -902 0
887 888 -897 0
887 -888 897 0
-887 -888 -897 0
-887 888 897 0
888 -889 894 0
888 889 -894 0
-888 889 894 0
-888 -889 -894 0
889 890 -893 0
889 -890 893 0
-889 -890 -893 0
-889 890 893 0
890 891 -892 0
890 -891 892 0
-890 -891 -892 0
-890 891 892 0
891 -1182 -1203 0
-891 1182 0
-891 1203 0
892 -1183 -1202 0
-892 1183 0
-892 1202 0
893 -1184 -1201 0
-893 1184 0
-893 1201 0
-894 895 896 0
894 -895 0
894 -896 0
895 -1181 -1182 -1202 -1203 0
-895 1203 0
-895 1181 0
-895 1202 0
-895 1182 0
896 -1183 -1201 -827 0
-896 1183 0
-896 1201 0
-896 827 0
897 898 -901 0
897 -898 901 0
-897 -898 -901 0
-897 898 901 0
898 899 -900 0
898 -899 900 0
-898 -899 -900 0
-898 899 900 0
899 -1185 -1200 0
-899 1185 0
-899 1200 0
900 -1186 -1199 0
-900 1186 0
-900 1199 0
901 -1187 -1198 0
-901 1187 0
-901 1198 0
-902 903 904 0
902 -903 0
902 -904 0
903 -826 -831 0
-903 826 0
-903 831 0
904 -825 -834 0
-904 825 0
-904 834 0
905 -906 913 0
905 906 -913 0
-905 906 913 0
-905 -906 -913 0
906 907 -910 0
906 -907 910 0
-906 -907 -910 0
-906 907 910 0
-907 908 909 0
907 -908 0
907 -909 0
908 -1184 -1185 -1199 -1200 0
-908 1200 0
-908 1184 0
-908 1199 0
-908 1185 0
909 -1186 -1198 -835 0
-909 1186 0
-909 1198 0
-909 835 0
910 911 -912 0
910 -911 912 0
-910 -911 -912 0
-910 911 912 0
911 -1188 -1197 0
-911 1188 0
-911 1197 0
912 -1189 -1196 0
-912 1189 0
-912 1196 0
-913 914 915 0
913 -914 0
913 -915 0
914 -1187 -1188 -1196 -1197 0
-914 1197 0
-914 1187 0
-914 1196 0
-914 1188 0
915 -1189 -1195 -848 0
-915 1189 0
-915 1195 0
-915 848 0
-916 917 918 0
916 -917 0
916 -918 0
917 -824 -839 0
-917 824 0
-917 839 0
918 -823 -842 0
-918 823 0
-918 842 0
-919 920 921 0
919 -920 0
919 -921 0
920 -844 -847 0
-920 844 0
-920 847 0
921 -843 -852 0
-921 843 0
-921 852 0
-922 923 924 0
922 -923 0
922 -924 0
923 -822 -855 0
-923 822 0
-923 855 0
924 -821 -858 0
-924 821 0
-924 858 0
-925 926 927 0
925 -926 0
925 -927 0
926 -820 -863 0
-926 820 0
-926 863 0
927 -819 -866 0
-927 819 0
-927 866 0
-928 929 930 0
928 -929 0
928 -930 0
929 -816 -817 0
-929 816 0
-929 817 0
930 -815 -872 0
-930 815 0
-930 872 0
931 -932 977 0
931 932 -977 0
-931 932 977 0
-931 -932 -977 0
932 933 -934 0
932 -933 934 0
-932 -933 -934 0
-932 933 934 0
933 -880 -925 0
-933 880 0
-933 925 0
934 -935 974 0
934 935 -974 0
-934 935 974 0
-934 -935 -974 0
935 -936 971 0
935 936 -971 0
-935 936 971 0
-935 -936 -971 0
936 -937 968 0
936 937 -968 0
-936 937 968 0
-936 -937 -968 0
937 -938 965 0
937 938 -965 0
-937 938 965 0
-937 -938 -965 0
938 939 -958 0
938 -939 958 0
-938 -939 -958 0
-938 939 958 0
939 -940 955 0
939 940 -955 0
-939 940 955 0
-939 -940 -955 0
940 941 -950 0
940 -941 950 0
-940 -941 -950 0
-940 941 950 0
941 -942 947 0
941 942 -947 0
-941 942 947 0
-941 -942 -947 0
942 943 -946 0
942 -943 946 0
-942 -943 -946 0
-942 943 946 0
943 944 -945 0
943 -944 945 0
-943 -944 -945 0
-943 944 945 0
944 -1183 -1203 0
-944 1183 0
-944 1203 0
945 -1184 -1202 0
-945 1184 0
-945 1202 0
946 -1185 -1201 0
-946 1185 0
-946 1201 0
-947 948 949 0
947 -948 0
947 -949 0
948 -1182 -1183 -1202 -1203 0
-948 1203 0
-948 1182 0
-948 1202 0
-948 1183 0
949 -1184 -1201 -890 0
-949 1184 0
-949 1201 0
-949 890 0
950 951 -954 0
950 -951 954 0
-950 -951 -954 0
-950 951 954 0
951 952 -953 0
951 -952 953 0
-951 -952 -953 0
-951 952 953 0
952 -1186 -1200 0
-952 1186 0
-952 1200 0
953 -1187 -1199 0
-953 1187 0
-953 1199 0
954 -1188 -1198 0
-954 1188 0
-954 1198 0
-955 956 957 0
955 -956 0
955 -957 0
956 -889 -894 0
-956 889 0
-956 894 0
957 -888 -897 0
-957 888 0
-957 897 0
958 959 -960 0
958 -959 960 0
-958 -959 -960 0
-958 959 960 0
959 -1188 -1189 -1196 -1197 0
-959 1197 0
-959 1188 0
-959 1196 0
-959 1189 0
960 961 -964 0
960 -961 964 0
-960 -961 -964 0
-960 961 964 0
-961 962 963 0
961 -962 0
961 -963 0
962 -1185 -1186 -1199 -1200 0
-962 1200 0
-962 1185 0
-962 1199 0
-962 1186 0
963 -1187 -1198 -898 0
-963 1187 0
-963 1198 0
-963 898 0
964 -1189 -1197 0
-964 1189 0
-964 1197 0
-965 966 967 0
965 -966 0
965 -967 0
966 -887 -902 0
-966 887 0
-966 902 0
967 -886 -905 0
-967 886 0
-967 905 0
-968 969 970 0
968 -969 0
968 -970 0
969 -907 -910 0
-969 907 0
-969 910 0
970 -906 -913 0
-970 906 0
-970 913 0
-971 972 973 0
971 -972 0
971 -973 0
972 -885 -916 0
-972 885 0
-972 916 0
973 -884 -919 0
-973 884 0
-973 919 0
-974 975 976 0
974 -975 0
974 -976 0
975 -883 -922 0
-975 883 0
-975 922 0
976 -881 -882 0
-976 881 0
-976 882 0
-977 744 978 0
-977 978 982 0
977 -978 0
977 -744 -982 0
-978 929 979 980 0
-978 979 877 980 0
978 -980 0
978 -979 0
978 -929 -877 0
979 -878 -879 0
-979 878 0
-979 879 0
980 -873 -981 0
-980 873 0
-980 981 0
981 -815 -877 0
-981 815 0
-981 877 0
982 -875 -981 0
-982 875 0
-982 981 0
983 -984 1023 0
983 984 -1023 0
-983 984 1023 0
-983 -984 -1023 0
984 985 -986 0
984 -985 986 0
-984 -985 -986 0
-984 985 986 0
985 -935 -974 0
-985 935 0
-985 974 0
986 987 -988 0
986 -987 988 0
-986 -987 -988 0
-986 987 988 0
987 -936 -971 0
-987 936 0
-987 971 0
988 -989 1020 0
988 989 -1020 0
-988 989 1020 0
-988 -989 -1020 0
989 -990 1017 0
989 990 -1017 0
-989 990 1017 0
-989 -990 -1017 0
990 -991 1014 0
990 991 -1014 0
-990 991 1014 0
-990 -991 -1014 0
991 -992 1011 0
991 992 -1011 0
-991 992 1011 0
-991 -992 -1011 0
992 -993 1008 0
992 993 -1008 0
-992 993 1008 0
-992 -993 -1008 0
993 994 -1003 0
993 -994 1003 0
-993 -994 -1003 0
-993 994 1003 0
994 -995 1000 0
994 995 -1000 0
-994 995 1000 0
-994 -995 -1000 0
995 996 -999 0
995 -996 999 0
-995 -996 -999 0
-995 996 999 0
996 997 -998 0
996 -997 998 0
-996 -997 -998 0
-996 997 998 0
997 -1184 -1203 0
-997 1184 0
-997 1203 0
998 -1185 -1202 0
-998 1185 0
-998 1202 0
999 -1186 -1201 0
-999 1186 0
-999 1201 0
-1000 1001 1002 0
1000 -1001 0
1000 -1002 0
1001 -1183 -1184 -1202 -1203 0
-1001 1203 0
-1001 1183 0
-1001 1202 0
-1001 1184 0
1002 -1185 -1201 -943 0
-1002 1185 0
-1002 1201 0
-1002 943 0
1003 1004 -1007 0
1003 -1004 1007 0
-1003 -1004 -1007 0
-1003 1004 1007 0
1004 1005 -1006 0
1004 -1005 1006 0
-1004 -1005 -1006 0
-1004 1005 1006 0
1005 -1187 -1200 0
-1005 1187 0
-1005 1200 0
1006 -1188 -1199 0
-1006 1188 0
-1006 1199 0
1007 -1189 -1198 0
-1007 1189 0
-1007 1198 0
-1008 1009 1010 0
1008 -1009 0
1008 -1010 0
1009 -942 -947 0
-1009 942 0
-1009 947 0
1010 -941 -950 0
-1010 941 0
-1010 950 0
-1011 1012 1013 0
1011 -1012 0
1011 -1013 0
1012 -1186 -1187 -1199 -1200 0
-1012 1200 0
-1012 1186 0
-1012 1199 0
-1012 1187 0
1013 -1188 -1198 -951 0
-1013 1188 0
-1013 1198 0
-1013 951 0
-1014 1015 1016 0
1014 -1015 0
1014 -1016 0
1015 -940 -955 0
-1015 940 0
-1015 955 0
1016 -939 -958 0
-1016 939 0
-1016 958 0
-1017 1018 1019 0
1017 -1018 0
1017 -1019 0
1018 -1189 -1197 -961 0
-1018 1189 0
-1018 1197 0
-1018 961 0
1019 -959 -960 0
-1019 959 0
-1019 960 0
-1020 1021 1022 0
1020 -1021 0
1020 -1022 0
1021 -938 -965 0
-1021 938 0
-1021 965 0
1022 -937 -968 0
-1022 937 0
-1022 968 0
-1023 1024 1025 0
1023 -1024 0
1023 -1025 0
1024 -933 -934 0
-1024 933 0
-1024 934 0
1025 -932 -977 0
-1025 932 0
-1025 977 0
1026 -1027 1060 0
1026 1027 -1060 0
-1026 1027 1060 0
-1026 -1027 -1060 0
1027 1028 -1029 0
1027 -1028 1029 0
-1027 -1028 -1029 0
-1027 1028 1029 0
1028 -987 -988 0
-1028 987 0
-1028 988 0
1029 1030 -1031 0
1029 -1030 1031 0
-1029 -1030 -1031 0
-1029 1030 1031 0
1030 -989 -1020 0
-1030 989 0
-1030 1020 0
1031 -1032 1057 0
1031 1032 -1057 0
-1031 1032 1057 0
-1031 -1032 -1057 0
1032 -1033 1054 0
1032 1033 -1054 0
-1032 1033 1054 0
-1032 -1033 -1054 0
1033 -1034 1051 0
1033 1034 -1051 0
-1033 1034 1051 0
-1033 -1034 -1051 0
1034 -1035 1048 0
1034 1035 -1048 0
-1034 1035 1048 0
-1034 -1035 -1048 0
1035 1036 -1045 0
1035 -1036 1045 0
-1035 -1036 -1045 0
-1035 1036 1045 0
1036 -1037 1042 0
1036 1037 -1042 0
-1036 1037 1042 0
-1036 -1037 -1042 0
1037 1038 -1041 0
1037 -1038 1041 0
-1037 -1038 -1041 0
-1037 1038 1041 0
1038 1039 -1040 0
1038 -1039 1040 0
-1038 -1039 -1040 0
-1038 1039 1040 0
1039 -1185 -1203 0
-1039 1185 0
-1039 1203 0
1040 -1186 -1202 0
-1040 1186 0
-1040 1202 0
1041 -1187 -1201 0
-1041 1187 0
-1041 1201 0
-1042 1043 1044 0
1042 -1043 0
1042 -1044 0
1043 -1184 -1185 -1202 -1203 0
-1043 1203 0
-1043 1184 0
-1043 1202 0
-1043 1185 0
1044 -1186 -1201 -996 0
-1044 1186 0
-1044 1201 0
-1044 996 0
1045 1046 -1047 0
1045 -1046 1047 0
-1045 -1046 -1047 0
-1045 1046 1047 0
1046 -1188 -1200 0
-1046 1188 0
-1046 1200 0
1047 -1189 -1199 0
-1047 1189 0
-1047 1199 0
-1048 1049 1050 0
1048 -1049 0
1048 -1050 0
1049 -995 -1000 0
-1049 995 0
-1049 1000 0
1050 -994 -1003 0
-1050 994 0
-1050 1003 0
-1051 1052 1053 0
1051 -1052 0
1051 -1053 0
1052 -1187 -1188 -1199 -1200 0
-1052 1200 0
-1052 1187 0
-1052 1199 0
-1052 1188 0
1053 -1189 -1198 -1004 0
-1053 1189 0
-1053 1198 0
-1053 1004 0
-1054 1055 1056 0
1054 -1055 0
1054 -1056 0
1055 -993 -1008 0
-1055 993 0
-1055 1008 0
1056 -992 -1011 0
-1056 992 0
-1056 1011 0
-1057 1058 1059 0
1057 -1058 0
1057 -1059 0
1058 -991 -1014 0
-1058 991 0
-1058 1014 0
1059 -990 -1017 0
-1059 990 0
-1059 1017 0
-1060 977 1061 0
-1060 1061 1063 0
1060 -1061 0
1060 -977 -1063 0
-1061 1062 984 0
-1061 1024 1062 0
1061 -1062 0
1061 -1024 -984 0
1062 -985 -986 0
-1062 985 0
-1062 986 0
1063 -932 -984 0
-1063 932 0
-1063 984 0
1064 -1065 1092 0
1064 1065 -1092 0
-1064 1065 1092 0
-1064 -1065 -1092 0
1065 1066 -1067 0
1065 -1066 1067 0
-1065 -1066 -1067 0
-1065 1066 1067 0
1066 -1030 -1031 0
-1066 1030 0
-1066 1031 0
1067 1068 -1069 0
1067 -1068 1069 0
-1067 -1068 -1069 0
-1067 1068 1069 0
1068 -1032 -1057 0
-1068 1032 0
-1068 1057 0
1069 1070 -1071 0
1069 -1070 1071 0
-1069 -1070 -1071 0
-1069 1070 1071 0
1070 -1033 -1054 0
-1070 1033 0
-1070 1054 0
1071 -1072 1089 0
1071 1072 -1089 0
-1071 1072 1089 0
-1071 -1072 -1089 0
1072 1073 -1074 0
1072 -1073 1074 0
-1072 -1073 -1074 0
-1072 1073 1074 0
1073 -1188 -1189 -1199 -1200 0
-1073 1200 0
-1073 1188 0
-1073 1199 0
-1073 1189 0
1074 -1075 1086 0
1074 1075 -1086 0
-1074 1075 1086 0
-1074 -1075 -1086 0
1075 1076 -1085 0
1075 -1076 1085 0
-1075 -1076 -1085 0
-1075 1076 1085 0
1076 -1077 1082 0
1076 1077 -1082 0
-1076 1077 1082 0
-1076 -1077 -1082 0
1077 1078 -1081 0
1077 -1078 1081 0
-1077 -1078 -1081 0
-1077 1078 1081 0
1078 1079 -1080 0
1078 -1079 1080 0
-1078 -1079 -1080 0
-1078 1079 1080 0
1079 -1186 -1203 0
-1079 1186 0
-1079 1203 0
1080 -1187 -1202 0
-1080 1187 0
-1080 1202 0
1081 -1188 -1201 0
-1081 1188 0
-1081 1201 0
-1082 1083 1084 0
1082 -1083 0
1082 -1084 0
1083 -1185 -1186 -1202 -1203 0
-1083 1203 0
-1083 1185 0
-1083 1202 0
-1083 1186 0
1084 -1187 -1201 -1038 0
-1084 1187 0
-1084 1201 0
-1084 1038 0
1085 -1189 -1200 0
-1085 1189 0
-1085 1200 0
-1086 1087 1088 0
1086 -1087 0
1086 -1088 0
1087 -1037 -1042 0
-1087 1037 0
-1087 1042 0
1088 -1036 -1045 0
-1088 1036 0
-1088 1045 0
-1089 1090 1091 0
1089 -1090 0
1089 -1091 0
1090 -1035 -1048 0
-1090 1035 0
-1090 1048 0
1091 -1034 -1051 0
-1091 1034 0
-1091 1051 0
-1092 1093 1094 0
1092 -1093 0
1092 -1094 0
1093 -1028 -1029 0
-1093 1028 0
-1093 1029 0
1094 -1027 -1060 0
-1094 1027 0
-1094 1060 0
1095 -1096 1119 0
1095 1096 -1119 0
-1095 1096 1119 0
-1095 -1096 -1119 0
1096 1097 -1098 0
1096 -1097 1098 0
-1096 -1097 -1098 0
-1096 1097 1098 0
1097 -1068 -1069 0
-1097 1068 0
-1097 1069 0
1098 1099 -1100 0
1098 -1099 1100 0
-1098 -1099 -1100 0
-1098 1099 1100 0
1099 -1070 -1071 0
-1099 1070 0
-1099 1071 0
1100 1101 -1102 0
1100 -1101 1102 0
-1100 -1101 -1102 0
-1100 1101 1102 0
1101 -1072 -1089 0
-1101 1072 0
-1101 1089 0
1102 -1103 1116 0
1102 1103 -1116 0
-1102 1103 1116 0
-1102 -1103 -1116 0
1103 -1104 1113 0
1103 1104 -1113 0
-1103 1104 1113 0
-1103 -1104 -1113 0
1104 -1105 1110 0
1104 1105 -1110 0
-1104 1105 1110 0
-1104 -1105 -1110 0
1105 1106 -1109 0
1105 -1106 1109 0
-1105 -1106 -1109 0
-1105 1106 1109 0
1106 1107 -1108 0
1106 -1107 1108 0
-1106 -1107 -1108 0
-1106 1107 1108 0
1107 -1187 -1203 0
-1107 1187 0
-1107 1203 0
1108 -1188 -1202 0
-1108 1188 0
-1108 1202 0
1109 -1189 -1201 0
-1109 1189 0
-1109 1201 0
-1110 1111 1112 0
1110 -1111 0
1110 -1112 0
1111 -1186 -1187 -1202 -1203 0
-1111 1203 0
-1111 1186 0
-1111 1202 0
-1111 1187 0
1112 -1188 -1201 -1078 0
-1112 1188 0
-1112 1201 0
-1112 1078 0
-1113 1114 1115 0
1113 -1114 0
1113 -1115 0
1114 -1077 -1082 0
-1114 1077 0
-1114 1082 0
1115 -1189 -1200 -1076 0
-1115 1189 0
-1115 1200 0
-1115 1076 0
-1116 1117 1118 0
1116 -1117 0
1116 -1118 0
1117 -1075 -1086 0
-1117 1075 0
-1117 1086 0
1118 -1073 -1074 0
-1118 1073 0
-1118 1074 0
-1119 982 1122 0
-1119 1120 1122 0
-1119 744 1122 0
1119 -1122 0
1119 -744 -982 -1120 0
1120 -1063 -1121 0
-1120 1063 0
-1120 1121 0
1121 -1027 -1065 0
-1121 1027 0
-1121 1065 0
-1122 978 1123 1125 0
-1122 1123 1125 1120 0
1122 -1123 0
1122 -1125 0
1122 -978 -1120 0
-1123 1124 1065 0
-1123 1093 1124 0
1123 -1124 0
1123 -1093 -1065 0
1124 -1066 -1067 0
-1124 1066 0
-1124 1067 0
1125 -1061 -1121 0
-1125 1061 0
-1125 1121 0
1126 -1127 1144 0
1126 1127 -1144 0
-1126 1127 1144 0
-1126 -1127 -1144 0
1127 1128 -1129 0
1127 -1128 1129 0
-1127 -1128 -1129 0
-1127 1128 1129 0
1128 -1099 -1100 0
-1128 1099 0
-1128 1100 0
1129 1130 -1131 0
1129 -1130 1131 0
-1129 -1130 -1131 0
-1129 1130 1131 0
1130 -1101 -1102 0
-1130 1101 0
-1130 1102 0
1131 1132 -1133 0
1131 -1132 1133 0
-1131 -1132 -1133 0
-1131 1132 1133 0
1132 -1103 -1116 0
-1132 1103 0
-1132 1116 0
1133 1134 -1135 0
1133 -1134 1135 0
-1133 -1134 -1135 0
-1133 1134 1135 0
1134 -1104 -1113 0
-1134 1104 0
-1134 1113 0
1135 1136 -1137 0
1135 -1136 1137 0
-1135 -1136 -1137 0
-1135 1136 1137 0
1136 -1105 -1110 0
-1136 1105 0
-1136 1110 0
1137 -1138 1141 0
1137 1138 -1141 0
-1137 1138 1141 0
-1137 -1138 -1141 0
1138 1139 -1140 0
1138 -1139 1140 0
-1138 -1139 -1140 0
-1138 1139 1140 0
1139 -1188 -1203 0
-1139 1188 0
-1139 1203 0
1140 -1189 -1202 0
-1140 1189 0
-1140 1202 0
-1141 1142 1143 0
1141 -1142 0
1141 -1143 0
1142 -1187 -1188 -1202 -1203 0
-1142 1203 0
-1142 1187 0
-1142 1202 0
-1142 1188 0
1143 -1189 -1201 -1106 0
-1143 1189 0
-1143 1201 0
-1143 1106 0
-1144 1145 1146 0
1144 -1145 0
1144 -1146 0
1145 -1097 -1098 0
-1145 1097 0
-1145 1098 0
1146 -1096 -1119 0
-1146 1096 0
-1146 1119 0
1147 -1148 1159 0
1147 1148 -1159 0
-1147 1148 1159 0
-1147 -1148 -1159 0
1148 1149 -1150 0
1148 -1149 1150 0
-1148 -1149 -1150 0
-1148 1149 1150 0
1149 -1130 -1131 0
-1149 1130 0
-1149 1131 0
1150 1151 -1152 0
1150 -1151 1152 0
-1150 -1151 -1152 0
-1150 1151 1152 0
1151 -1132 -1133 0
-1151 1132 0
-1151 1133 0
1152 1153 -1154 0
1152 -1153 1154 0
-1152 -1153 -1154 0
-1152 1153 1154 0
1153 -1134 -1135 0
-1153 1134 0
-1153 1135 0
1154 1155 -1156 0
1154 -1155 1156 0
-1154 -1155 -1156 0
-1154 1155 1156 0
1155 -1136 -1137 0
-1155 1136 0
-1155 1137 0
1156 1157 -1158 0
1156 -1157 1158 0
-1156 -1157 -1158 0
-1156 1157 1158 0
1157 -1138 -1141 0
-1157 1138 0
-1157 1141 0
1158 1188 -1189 -1203 0
1158 -1189 1202 -1203 0
-1158 1203 0
-1158 1189 0
-1158 -1188 -1202 0
-1159 1096 1160 0
-1159 1119 1160 0
-1159 1127 1160 0
1159 -1160 0
1159 -1096 -1119 -1127 0
-1160 1161 1127 0
-1160 1145 1161 0
1160 -1161 0
1160 -1145 -1127 0
1161 -1128 -1129 0
-1161 1128 0
-1161 1129 0
1162 -1163 1173 0
1162 1163 -1173 0
-1162 1163 1173 0
-1162 -1163 -1173 0
1163 1164 -1165 0
1163 -1164 1165 0
-1163 -1164 -1165 0
-1163 1164 1165 0
1164 -1151 -1152 0
-1164 1151 0
-1164 1152 0
1165 1166 -1167 0
1165 -1166 1167 0
-1165 -1166 -1167 0
-1165 1166 1167 0
1166 -1153 -1154 0
-1166 1153 0
-1166 1154 0
1167 1168 -1169 0
1167 -1168 1169 0
-1167 -1168 -1169 0
-1167 1168 1169 0
1168 -1155 -1156 0
-1168 1155 0
-1168 1156 0
1169 -1170 0
-1169 1170 0
-1170 1171 1172 0
1170 -1171 0
1170 -1172 0
1171 -1188 -1189 -1202 -1203 0
-1171 1203 0
-1171 1188 0
-1171 1202 0
-1171 1189 0
1172 -1157 -1158 0
-1172 1157 0
-1172 1158 0
-1173 1174 1175 0
1173 -1174 0
1173 -1175 0
1174 -1149 -1150 0
-1174 1149 0
-1174 1150 0
1175 -1148 -1159 0
-1175 1148 0
-1175 1159 0
-1204 0
2 0
3 0
6 0
13 0
26 0
47 0
76 0
112 0
153 0
202 0
255 0
315 0
380 0
452 0
527 0
605 0
678 0
751 0
814 0
876 0
931 0
983 0
1026 0
1064 0
1095 0
1126 0
1147 0
1162 0

