c Result of efficient AIG-to-CNF conversion using package CNF
p cnf 21 51
2 13 -17 0
2 -13 17 0
-2 -13 -17 0
-2 13 17 0
3 4 -5 0
3 -4 5 0
-3 -4 -5 0
-3 4 5 0
4 -13 -17 0
-4 13 0
-4 17 0
5 14 -18 0
5 -14 18 0
-5 -14 -18 0
-5 14 18 0
6 -7 8 0
6 7 -8 0
-6 7 8 0
-6 -7 -8 0
7 15 -19 0
7 -15 19 0
-7 -15 -19 0
-7 15 19 0
-8 14 4 0
-8 18 4 0
-8 14 18 0
8 -14 -18 0
8 -18 -4 0
8 -14 -4 0
9 -10 11 0
9 10 -11 0
-9 10 11 0
-9 -10 -11 0
10 16 -20 0
10 -16 20 0
-10 -16 -20 0
-10 16 20 0
-11 15 12 0
-11 19 12 0
11 -12 0
11 -15 -19 0
12 15 -19 -8 0
12 -15 19 -8 0
-12 8 0
-12 15 19 0
-12 -15 -19 0
-21 0
2 0
3 0
6 0
9 0

