c Result of efficient AIG-to-CNF conversion using package CNF
p cnf 28 72
2 18 -23 0
2 -18 23 0
-2 -18 -23 0
-2 18 23 0
3 4 -5 0
3 -4 5 0
-3 -4 -5 0
-3 4 5 0
4 -18 -23 0
-4 18 0
-4 23 0
5 19 -24 0
5 -19 24 0
-5 -19 -24 0
-5 19 24 0
6 -7 8 0
6 7 -8 0
-6 7 8 0
-6 -7 -8 0
7 20 -25 0
7 -20 25 0
-7 -20 -25 0
-7 20 25 0
-8 19 4 0
-8 24 4 0
-8 19 24 0
8 -19 -24 0
8 -24 -4 0
8 -19 -4 0
9 -10 11 0
9 10 -11 0
-9 10 11 0
-9 -10 -11 0
10 21 -26 0
10 -21 26 0
-10 -21 -26 0
-10 21 26 0
-11 20 12 0
-11 25 12 0
11 -12 0
11 -20 -25 0
12 -7 -8 0
-12 7 0
-12 8 0
13 -14 15 0
13 14 -15 0
-13 14 15 0
-13 -14 -15 0
14 22 -27 0
14 -22 27 0
-14 -22 -27 0
-14 22 27 0
-15 7 16 0
-15 8 16 0
-15 10 16 0
15 -16 0
15 -7 -8 -10 0
-16 21 17 0
-16 26 17 0
-16 21 26 0
16 -21 -26 0
16 -26 -17 0
16 -21 -17 0
17 -20 -25 0
-17 20 0
-17 25 0
-28 0
2 0
3 0
6 0
9 0
13 0

