c Result of efficient AIG-to-CNF conversion using package CNF
p cnf 34 90
2 22 -28 0
2 -22 28 0
-2 -22 -28 0
-2 22 28 0
3 4 -5 0
3 -4 5 0
-3 -4 -5 0
-3 4 5 0
4 -22 -28 0
-4 22 0
-4 28 0
5 23 -29 0
5 -23 29 0
-5 -23 -29 0
-5 23 29 0
6 -7 8 0
6 7 -8 0
-6 7 8 0
-6 -7 -8 0
7 24 -30 0
7 -24 30 0
-7 -24 -30 0
-7 24 30 0
-8 23 4 0
-8 29 4 0
-8 23 29 0
8 -23 -29 0
8 -29 -4 0
8 -23 -4 0
9 -10 11 0
9 10 -11 0
-9 10 11 0
-9 -10 -11 0
10 25 -31 0
10 -25 31 0
-10 -25 -31 0
-10 25 31 0
-11 24 12 0
-11 30 12 0
11 -12 0
11 -24 -30 0
12 -7 -8 0
-12 7 0
-12 8 0
13 -14 15 0
13 14 -15 0
-13 14 15 0
-13 -14 -15 0
14 26 -32 0
14 -26 32 0
-14 -26 -32 0
-14 26 32 0
-15 7 16 0
-15 8 16 0
-15 10 16 0
15 -16 0
15 -7 -8 -10 0
-16 25 17 0
-16 31 17 0
-16 25 31 0
16 -25 -31 0
16 -31 -17 0
16 -25 -17 0
17 -24 -30 0
-17 24 0
-17 30 0
18 -19 20 0
18 19 -20 0
-18 19 20 0
-18 -19 -20 0
19 27 -33 0
19 -27 33 0
-19 -27 -33 0
-19 27 33 0
-20 26 21 0
-20 32 21 0
20 -21 0
20 -26 -32 0
21 26 -32 -15 0
21 -26 32 -15 0
-21 15 0
-21 26 32 0
-21 -26 -32 0
-34 0
2 0
3 0
6 0
9 0
13 0
18 0

