c Result of efficient AIG-to-CNF conversion using package CNF
p cnf 281 959
2 -267 -274 0
-2 267 0
-2 274 0
3 4 -5 0
3 -4 5 0
-3 -4 -5 0
-3 4 5 0
4 -267 -275 0
-4 267 0
-4 275 0
5 -268 -274 0
-5 268 0
-5 274 0
6 7 -8 0
6 -7 8 0
-6 -7 -8 0
-6 7 8 0
7 -267 -268 -274 -275 0
-7 275 0
-7 267 0
-7 274 0
-7 268 0
8 9 -12 0
8 -9 12 0
-8 -9 -12 0
-8 9 12 0
9 10 -11 0
9 -10 11 0
-9 -10 -11 0
-9 10 11 0
10 -267 -276 0
-10 267 0
-10 276 0
11 -268 -275 0
-11 268 0
-11 275 0
12 -269 -274 0
-12 269 0
-12 274 0
13 14 -15 0
13 -14 15 0
-13 -14 -15 0
-13 14 15 0
14 -7 -8 0
-14 7 0
-14 8 0
15 16 -17 0
15 -16 17 0
-15 -16 -17 0
-15 16 17 0
16 -269 -274 -9 0
-16 269 0
-16 274 0
-16 9 0
17 18 -25 0
17 -18 25 0
-17 -18 -25 0
-17 18 25 0
18 19 -20 0
18 -19 20 0
-18 -19 -20 0
-18 19 20 0
19 -267 -268 -275 -276 0
-19 276 0
-19 267 0
-19 275 0
-19 268 0
20 21 -24 0
20 -21 24 0
-20 -21 -24 0
-20 21 24 0
21 22 -23 0
21 -22 23 0
-21 -22 -23 0
-21 22 23 0
22 -267 -277 0
-22 267 0
-22 277 0
23 -268 -276 0
-23 268 0
-23 276 0
24 -269 -275 0
-24 269 0
-24 275 0
25 -270 -274 0
-25 270 0
-25 274 0
26 -27 44 0
26 27 -44 0
-26 27 44 0
-26 -27 -44 0
27 28 -29 0
27 -28 29 0
-27 -28 -29 0
-27 28 29 0
28 -270 -274 -18 0
-28 270 0
-28 274 0
-28 18 0
29 30 -43 0
29 -30 43 0
-29 -30 -43 0
-29 30 43 0
30 31 -32 0
30 -31 32 0
-30 -31 -32 0
-30 31 32 0
31 -19 -20 0
-31 19 0
-31 20 0
32 -33 40 0
32 33 -40 0
-32 33 40 0
-32 -33 -40 0
33 34 -35 0
33 -34 35 0
-33 -34 -35 0
-33 34 35 0
34 -267 -278 0
-34 267 0
-34 278 0
35 36 -39 0
35 -36 39 0
-35 -36 -39 0
-35 36 39 0
36 37 -38 0
36 -37 38 0
-36 -37 -38 0
-36 37 38 0
37 -268 -277 0
-37 268 0
-37 277 0
38 -269 -276 0
-38 269 0
-38 276 0
39 -270 -275 0
-39 270 0
-39 275 0
-40 41 42 0
40 -41 0
40 -42 0
41 -267 -268 -276 -277 0
-41 277 0
-41 267 0
-41 276 0
-41 268 0
42 -269 -275 -21 0
-42 269 0
-42 275 0
-42 21 0
43 -271 -274 0
-43 271 0
-43 274 0
-44 45 46 0
44 -45 0
44 -46 0
45 -16 -17 0
-45 16 0
-45 17 0
46 -14 -15 0
-46 14 0
-46 15 0
47 -48 71 0
47 48 -71 0
-47 48 71 0
-47 -48 -71 0
48 -49 68 0
48 49 -68 0
-48 49 68 0
-48 -49 -68 0
49 50 -67 0
49 -50 67 0
-49 -50 -67 0
-49 50 67 0
50 51 -52 0
50 -51 52 0
-50 -51 -52 0
-50 51 52 0
51 -33 -40 0
-51 33 0
-51 40 0
52 -53 64 0
52 53 -64 0
-52 53 64 0
-52 -53 -64 0
53 54 -55 0
53 -54 55 0
-53 -54 -55 0
-53 54 55 0
54 -267 -278 -35 0
-54 267 0
-54 278 0
-54 35 0
55 56 -59 0
55 -56 59 0
-55 -56 -59 0
-55 56 59 0
56 57 -58 0
56 -57 58 0
-56 -57 -58 0
-56 57 58 0
57 -267 -279 0
-57 267 0
-57 279 0
58 -268 -278 0
-58 268 0
-58 278 0
59 60 -63 0
59 -60 63 0
-59 -60 -63 0
-59 60 63 0
60 61 -62 0
60 -61 62 0
-60 -61 -62 0
-60 61 62 0
61 -269 -277 0
-61 269 0
-61 277 0
62 -270 -276 0
-62 270 0
-62 276 0
63 -271 -275 0
-63 271 0
-63 275 0
-64 65 66 0
64 -65 0
64 -66 0
65 -268 -269 -276 -277 0
-65 277 0
-65 268 0
-65 276 0
-65 269 0
66 -270 -275 -36 0
-66 270 0
-66 275 0
-66 36 0
67 -272 -274 0
-67 272 0
-67 274 0
-68 69 70 0
68 -69 0
68 -70 0
69 -31 -32 0
-69 31 0
-69 32 0
70 -271 -274 -30 0
-70 271 0
-70 274 0
-70 30 0
-71 72 73 0
71 -72 0
71 -73 0
72 -28 -29 0
-72 28 0
-72 29 0
73 -27 -44 0
-73 27 0
-73 44 0
74 -75 104 0
74 75 -104 0
-74 75 104 0
-74 -75 -104 0
75 -76 101 0
75 76 -101 0
-75 76 101 0
-75 -76 -101 0
76 77 -100 0
76 -77 100 0
-76 -77 -100 0
-76 77 100 0
77 -78 97 0
77 78 -97 0
-77 78 97 0
-77 -78 -97 0
78 -79 94 0
78 79 -94 0
-78 79 94 0
-78 -79 -94 0
79 80 -81 0
79 -80 81 0
-79 -80 -81 0
-79 80 81 0
80 -56 -59 0
-80 56 0
-80 59 0
81 82 -89 0
81 -82 89 0
-81 -82 -89 0
-81 82 89 0
82 83 -84 0
82 -83 84 0
-82 -83 -84 0
-82 83 84 0
83 -267 -268 -278 -279 0
-83 279 0
-83 267 0
-83 278 0
-83 268 0
84 85 -88 0
84 -85 88 0
-84 -85 -88 0
-84 85 88 0
85 86 -87 0
85 -86 87 0
-85 -86 -87 0
-85 86 87 0
86 -267 -280 0
-86 267 0
-86 280 0
87 -268 -279 0
-87 268 0
-87 279 0
88 -269 -278 0
-88 269 0
-88 278 0
89 90 -93 0
89 -90 93 0
-89 -90 -93 0
-89 90 93 0
90 91 -92 0
90 -91 92 0
-90 -91 -92 0
-90 91 92 0
91 -270 -277 0
-91 270 0
-91 277 0
92 -271 -276 0
-92 271 0
-92 276 0
93 -272 -275 0
-93 272 0
-93 275 0
-94 95 96 0
94 -95 0
94 -96 0
95 -269 -270 -276 -277 0
-95 277 0
-95 269 0
-95 276 0
-95 270 0
96 -271 -275 -60 0
-96 271 0
-96 275 0
-96 60 0
-97 98 99 0
97 -98 0
97 -99 0
98 -54 -55 0
-98 54 0
-98 55 0
99 -53 -64 0
-99 53 0
-99 64 0
100 -273 -274 0
-100 273 0
-100 274 0
-101 102 103 0
101 -102 0
101 -103 0
102 -51 -52 0
-102 51 0
-102 52 0
103 -272 -274 -50 0
-103 272 0
-103 274 0
-103 50 0
-104 44 105 0
-104 105 107 0
104 -105 0
104 -44 -107 0
-105 106 48 0
-105 72 106 0
105 -106 0
105 -72 -48 0
106 -49 -68 0
-106 49 0
-106 68 0
107 -27 -48 0
-107 27 0
-107 48 0
108 -109 140 0
108 109 -140 0
-108 109 140 0
-108 -109 -140 0
109 -110 137 0
109 110 -137 0
-109 110 137 0
-109 -110 -137 0
110 -111 134 0
110 111 -134 0
-110 111 134 0
-110 -111 -134 0
111 -112 131 0
111 112 -131 0
-111 112 131 0
-111 -112 -131 0
112 -113 128 0
112 113 -128 0
-112 113 128 0
-112 -113 -128 0
113 114 -123 0
113 -114 123 0
-113 -114 -123 0
-113 114 123 0
114 -115 120 0
114 115 -120 0
-114 115 120 0
-114 -115 -120 0
115 116 -119 0
115 -116 119 0
-115 -116 -119 0
-115 116 119 0
116 117 -118 0
116 -117 118 0
-116 -117 -118 0
-116 117 118 0
117 -268 -280 0
-117 268 0
-117 280 0
118 -269 -279 0
-118 269 0
-118 279 0
119 -270 -278 0
-119 270 0
-119 278 0
-120 121 122 0
120 -121 0
120 -122 0
121 -267 -268 -279 -280 0
-121 280 0
-121 267 0
-121 279 0
-121 268 0
122 -269 -278 -85 0
-122 269 0
-122 278 0
-122 85 0
123 124 -127 0
123 -124 127 0
-123 -124 -127 0
-123 124 127 0
124 125 -126 0
124 -125 126 0
-124 -125 -126 0
-124 125 126 0
125 -271 -277 0
-125 271 0
-125 277 0
126 -272 -276 0
-126 272 0
-126 276 0
127 -273 -275 0
-127 273 0
-127 275 0
-128 129 130 0
128 -129 0
128 -130 0
129 -83 -84 0
-129 83 0
-129 84 0
130 -82 -89 0
-130 82 0
-130 89 0
-131 132 133 0
131 -132 0
131 -133 0
132 -270 -271 -276 -277 0
-132 277 0
-132 270 0
-132 276 0
-132 271 0
133 -272 -275 -90 0
-133 272 0
-133 275 0
-133 90 0
-134 135 136 0
134 -135 0
134 -136 0
135 -80 -81 0
-135 80 0
-135 81 0
136 -79 -94 0
-136 79 0
-136 94 0
-137 138 139 0
137 -138 0
137 -139 0
138 -78 -97 0
-138 78 0
-138 97 0
139 -273 -274 -77 0
-139 273 0
-139 274 0
-139 77 0
-140 141 142 0
140 -141 0
140 -142 0
141 -76 -101 0
-141 76 0
-141 101 0
142 -75 -104 0
-142 75 0
-142 104 0
143 -144 171 0
143 144 -171 0
-143 144 171 0
-143 -144 -171 0
144 145 -146 0
144 -145 146 0
-144 -145 -146 0
-144 145 146 0
145 -111 -134 0
-145 111 0
-145 134 0
146 -147 168 0
146 147 -168 0
-146 147 168 0
-146 -147 -168 0
147 -148 165 0
147 148 -165 0
-147 148 165 0
-147 -148 -165 0
148 -149 162 0
148 149 -162 0
-148 149 162 0
-148 -149 -162 0
149 150 -159 0
149 -150 159 0
-149 -150 -159 0
-149 150 159 0
150 -151 156 0
150 151 -156 0
-150 151 156 0
-150 -151 -156 0
151 152 -155 0
151 -152 155 0
-151 -152 -155 0
-151 152 155 0
152 153 -154 0
152 -153 154 0
-152 -153 -154 0
-152 153 154 0
153 -269 -280 0
-153 269 0
-153 280 0
154 -270 -279 0
-154 270 0
-154 279 0
155 -271 -278 0
-155 271 0
-155 278 0
-156 157 158 0
156 -157 0
156 -158 0
157 -268 -269 -279 -280 0
-157 280 0
-157 268 0
-157 279 0
-157 269 0
158 -270 -278 -116 0
-158 270 0
-158 278 0
-158 116 0
159 160 -161 0
159 -160 161 0
-159 -160 -161 0
-159 160 161 0
160 -272 -277 0
-160 272 0
-160 277 0
161 -273 -276 0
-161 273 0
-161 276 0
-162 163 164 0
162 -163 0
162 -164 0
163 -115 -120 0
-163 115 0
-163 120 0
164 -114 -123 0
-164 114 0
-164 123 0
-165 166 167 0
165 -166 0
165 -167 0
166 -271 -272 -276 -277 0
-166 277 0
-166 271 0
-166 276 0
-166 272 0
167 -273 -275 -124 0
-167 273 0
-167 275 0
-167 124 0
-168 169 170 0
168 -169 0
168 -170 0
169 -113 -128 0
-169 113 0
-169 128 0
170 -112 -131 0
-170 112 0
-170 131 0
-171 107 173 0
-171 172 173 0
-171 44 173 0
171 -173 0
171 -44 -107 -172 0
172 -75 -109 0
-172 75 0
-172 109 0
-173 141 174 175 0
-173 174 109 175 0
173 -175 0
173 -174 0
173 -141 -109 0
174 -110 -137 0
-174 110 0
-174 137 0
175 -105 -172 0
-175 105 0
-175 172 0
176 -177 200 0
176 177 -200 0
-176 177 200 0
-176 -177 -200 0
177 178 -179 0
177 -178 179 0
-177 -178 -179 0
-177 178 179 0
178 -147 -168 0
-178 147 0
-178 168 0
179 -180 197 0
179 180 -197 0
-179 180 197 0
-179 -180 -197 0
180 181 -182 0
180 -181 182 0
-180 -181 -182 0
-180 181 182 0
181 -272 -273 -276 -277 0
-181 277 0
-181 272 0
-181 276 0
-181 273 0
182 -183 194 0
182 183 -194 0
-182 183 194 0
-182 -183 -194 0
183 184 -193 0
183 -184 193 0
-183 -184 -193 0
-183 184 193 0
184 -185 190 0
184 185 -190 0
-184 185 190 0
-184 -185 -190 0
185 186 -189 0
185 -186 189 0
-185 -186 -189 0
-185 186 189 0
186 187 -188 0
186 -187 188 0
-186 -187 -188 0
-186 187 188 0
187 -270 -280 0
-187 270 0
-187 280 0
188 -271 -279 0
-188 271 0
-188 279 0
189 -272 -278 0
-189 272 0
-189 278 0
-190 191 192 0
190 -191 0
190 -192 0
191 -269 -270 -279 -280 0
-191 280 0
-191 269 0
-191 279 0
-191 270 0
192 -271 -278 -152 0
-192 271 0
-192 278 0
-192 152 0
193 -273 -277 0
-193 273 0
-193 277 0
-194 195 196 0
194 -195 0
194 -196 0
195 -151 -156 0
-195 151 0
-195 156 0
196 -150 -159 0
-196 150 0
-196 159 0
-197 198 199 0
197 -198 0
197 -199 0
198 -149 -162 0
-198 149 0
-198 162 0
199 -148 -165 0
-199 148 0
-199 165 0
-200 201 202 0
200 -201 0
200 -202 0
201 -145 -146 0
-201 145 0
-201 146 0
202 -144 -171 0
-202 144 0
-202 171 0
203 -204 223 0
203 204 -223 0
-203 204 223 0
-203 -204 -223 0
204 205 -206 0
204 -205 206 0
-204 -205 -206 0
-204 205 206 0
205 -180 -197 0
-205 180 0
-205 197 0
206 -207 220 0
206 207 -220 0
-206 207 220 0
-206 -207 -220 0
207 -208 217 0
207 208 -217 0
-207 208 217 0
-207 -208 -217 0
208 -209 214 0
208 209 -214 0
-208 209 214 0
-208 -209 -214 0
209 210 -213 0
209 -210 213 0
-209 -210 -213 0
-209 210 213 0
210 211 -212 0
210 -211 212 0
-210 -211 -212 0
-210 211 212 0
211 -271 -280 0
-211 271 0
-211 280 0
212 -272 -279 0
-212 272 0
-212 279 0
213 -273 -278 0
-213 273 0
-213 278 0
-214 215 216 0
214 -215 0
214 -216 0
215 -270 -271 -279 -280 0
-215 280 0
-215 270 0
-215 279 0
-215 271 0
216 -272 -278 -186 0
-216 272 0
-216 278 0
-216 186 0
-217 218 219 0
217 -218 0
217 -219 0
218 -185 -190 0
-218 185 0
-218 190 0
219 -273 -277 -184 0
-219 273 0
-219 277 0
-219 184 0
-220 221 222 0
220 -221 0
220 -222 0
221 -183 -194 0
-221 183 0
-221 194 0
222 -181 -182 0
-222 181 0
-222 182 0
-223 171 224 0
-223 224 226 0
223 -224 0
223 -171 -226 0
-224 225 177 0
-224 201 225 0
224 -225 0
224 -201 -177 0
225 -178 -179 0
-225 178 0
-225 179 0
226 -144 -177 0
-226 144 0
-226 177 0
227 -228 241 0
227 228 -241 0
-227 228 241 0
-227 -228 -241 0
228 229 -230 0
228 -229 230 0
-228 -229 -230 0
-228 229 230 0
229 -207 -220 0
-229 207 0
-229 220 0
230 231 -232 0
230 -231 232 0
-230 -231 -232 0
-230 231 232 0
231 -208 -217 0
-231 208 0
-231 217 0
232 233 -234 0
232 -233 234 0
-232 -233 -234 0
-232 233 234 0
233 -209 -214 0
-233 209 0
-233 214 0
234 -235 238 0
234 235 -238 0
-234 235 238 0
-234 -235 -238 0
235 236 -237 0
235 -236 237 0
-235 -236 -237 0
-235 236 237 0
236 -272 -280 0
-236 272 0
-236 280 0
237 -273 -279 0
-237 273 0
-237 279 0
-238 239 240 0
238 -239 0
238 -240 0
239 -271 -272 -279 -280 0
-239 280 0
-239 271 0
-239 279 0
-239 272 0
240 -273 -278 -210 0
-240 273 0
-240 278 0
-240 210 0
-241 242 243 0
241 -242 0
241 -243 0
242 -205 -206 0
-242 205 0
-242 206 0
243 -204 -223 0
-243 204 0
-243 223 0
244 -245 252 0
244 245 -252 0
-244 245 252 0
-244 -245 -252 0
245 246 -247 0
245 -246 247 0
-245 -246 -247 0
-245 246 247 0
246 -231 -232 0
-246 231 0
-246 232 0
247 248 -249 0
247 -248 249 0
-247 -248 -249 0
-247 248 249 0
248 -233 -234 0
-248 233 0
-248 234 0
249 250 -251 0
249 -250 251 0
-249 -250 -251 0
-249 250 251 0
250 -235 -238 0
-250 235 0
-250 238 0
251 272 -273 -280 0
251 -273 279 -280 0
-251 280 0
-251 273 0
-251 -272 -279 0
-252 226 254 0
-252 253 254 0
-252 171 254 0
252 -254 0
252 -171 -226 -253 0
253 -204 -228 0
-253 204 0
-253 228 0
-254 242 255 256 0
-254 255 228 256 0
254 -256 0
254 -255 0
254 -242 -228 0
255 -229 -230 0
-255 229 0
-255 230 0
256 -224 -253 0
-256 224 0
-256 253 0
257 -258 264 0
257 258 -264 0
-257 258 264 0
-257 -258 -264 0
258 259 -260 0
258 -259 260 0
-258 -259 -260 0
-258 259 260 0
259 -248 -249 0
-259 248 0
-259 249 0
260 -261 0
-260 261 0
-261 262 263 0
261 -262 0
261 -263 0
262 -272 -273 -279 -280 0
-262 280 0
-262 272 0
-262 279 0
-262 273 0
263 -250 -251 0
-263 250 0
-263 251 0
-264 265 266 0
264 -265 0
264 -266 0
265 -246 -247 0
-265 246 0
-265 247 0
266 -245 -252 0
-266 245 0
-266 252 0
-281 0
2 0
3 0
6 0
13 0
26 0
47 0
74 0
108 0
143 0
176 0
203 0
227 0
244 0
257 0

