c Result of efficient AIG-to-CNF conversion using package CNF
p cnf 47 129
2 31 -39 0
2 -31 39 0
-2 -31 -39 0
-2 31 39 0
3 4 -5 0
3 -4 5 0
-3 -4 -5 0
-3 4 5 0
4 -31 -39 0
-4 31 0
-4 39 0
5 32 -40 0
5 -32 40 0
-5 -32 -40 0
-5 32 40 0
6 -7 8 0
6 7 -8 0
-6 7 8 0
-6 -7 -8 0
7 33 -41 0
7 -33 41 0
-7 -33 -41 0
-7 33 41 0
-8 32 4 0
-8 40 4 0
-8 32 40 0
8 -32 -40 0
8 -40 -4 0
8 -32 -4 0
9 -10 11 0
9 10 -11 0
-9 10 11 0
-9 -10 -11 0
10 34 -42 0
10 -34 42 0
-10 -34 -42 0
-10 34 42 0
-11 33 12 0
-11 41 12 0
11 -12 0
11 -33 -41 0
12 -7 -8 0
-12 7 0
-12 8 0
13 -14 15 0
13 14 -15 0
-13 14 15 0
-13 -14 -15 0
14 35 -43 0
14 -35 43 0
-14 -35 -43 0
-14 35 43 0
-15 7 16 0
-15 8 16 0
-15 10 16 0
15 -16 0
15 -7 -8 -10 0
-16 34 17 0
-16 42 17 0
-16 34 42 0
16 -34 -42 0
16 -42 -17 0
16 -34 -17 0
17 -33 -41 0
-17 33 0
-17 41 0
18 -19 20 0
18 19 -20 0
-18 19 20 0
-18 -19 -20 0
19 36 -44 0
19 -36 44 0
-19 -36 -44 0
-19 36 44 0
-20 35 21 0
-20 43 21 0
20 -21 0
20 -35 -43 0
21 -14 -15 0
-21 14 0
-21 15 0
22 -23 24 0
22 23 -24 0
-22 23 24 0
-22 -23 -24 0
23 37 -45 0
23 -37 45 0
-23 -37 -45 0
-23 37 45 0
-24 14 25 0
-24 15 25 0
-24 19 25 0
24 -25 0
24 -14 -15 -19 0
-25 36 26 0
-25 44 26 0
-25 36 44 0
25 -36 -44 0
25 -44 -26 0
25 -36 -26 0
26 -35 -43 0
-26 35 0
-26 43 0
27 -28 29 0
27 28 -29 0
-27 28 29 0
-27 -28 -29 0
28 38 -46 0
28 -38 46 0
-28 -38 -46 0
-28 38 46 0
-29 37 30 0
-29 45 30 0
29 -30 0
29 -37 -45 0
30 37 -45 -24 0
30 -37 45 -24 0
-30 24 0
-30 37 45 0
-30 -37 -45 0
-47 0
2 0
3 0
6 0
9 0
13 0
18 0
22 0
27 0

