c Result of efficient AIG-to-CNF conversion using package CNF
p cnf 728 2516
2 -706 -717 0
-2 706 0
-2 717 0
3 4 -5 0
3 -4 5 0
-3 -4 -5 0
-3 4 5 0
4 -706 -718 0
-4 706 0
-4 718 0
5 -707 -717 0
-5 707 0
-5 717 0
6 7 -8 0
6 -7 8 0
-6 -7 -8 0
-6 7 8 0
7 -706 -707 -717 -718 0
-7 718 0
-7 706 0
-7 717 0
-7 707 0
8 9 -10 0
8 -9 10 0
-8 -9 -10 0
-8 9 10 0
9 -706 -719 0
-9 706 0
-9 719 0
10 11 -12 0
10 -11 12 0
-10 -11 -12 0
-10 11 12 0
11 -707 -718 0
-11 707 0
-11 718 0
12 -708 -717 0
-12 708 0
-12 717 0
13 14 -15 0
13 -14 15 0
-13 -14 -15 0
-13 14 15 0
14 -7 -8 0
-14 7 0
-14 8 0
15 16 -17 0
15 -16 17 0
-15 -16 -17 0
-15 16 17 0
16 -707 -708 -717 -718 0
-16 718 0
-16 707 0
-16 717 0
-16 708 0
17 18 -19 0
17 -18 19 0
-17 -18 -19 0
-17 18 19 0
18 -706 -719 -10 0
-18 706 0
-18 719 0
-18 10 0
19 20 -23 0
19 -20 23 0
-19 -20 -23 0
-19 20 23 0
20 21 -22 0
20 -21 22 0
-20 -21 -22 0
-20 21 22 0
21 -706 -720 0
-21 706 0
-21 720 0
22 -707 -719 0
-22 707 0
-22 719 0
23 24 -25 0
23 -24 25 0
-23 -24 -25 0
-23 24 25 0
24 -708 -718 0
-24 708 0
-24 718 0
25 -709 -717 0
-25 709 0
-25 717 0
26 27 -28 0
26 -27 28 0
-26 -27 -28 0
-26 27 28 0
27 -14 -15 0
-27 14 0
-27 15 0
28 -29 44 0
28 29 -44 0
-28 29 44 0
-28 -29 -44 0
29 30 -31 0
29 -30 31 0
-29 -30 -31 0
-29 30 31 0
30 -708 -709 -717 -718 0
-30 718 0
-30 708 0
-30 717 0
-30 709 0
31 32 -33 0
31 -32 33 0
-31 -32 -33 0
-31 32 33 0
32 -20 -23 0
-32 20 0
-32 23 0
33 34 -41 0
33 -34 41 0
-33 -34 -41 0
-33 34 41 0
34 35 -36 0
34 -35 36 0
-34 -35 -36 0
-34 35 36 0
35 -706 -707 -719 -720 0
-35 720 0
-35 706 0
-35 719 0
-35 707 0
36 37 -40 0
36 -37 40 0
-36 -37 -40 0
-36 37 40 0
37 38 -39 0
37 -38 39 0
-37 -38 -39 0
-37 38 39 0
38 -706 -721 0
-38 706 0
-38 721 0
39 -707 -720 0
-39 707 0
-39 720 0
40 -708 -719 0
-40 708 0
-40 719 0
41 42 -43 0
41 -42 43 0
-41 -42 -43 0
-41 42 43 0
42 -709 -718 0
-42 709 0
-42 718 0
43 -710 -717 0
-43 710 0
-43 717 0
-44 45 46 0
44 -45 0
44 -46 0
45 -18 -19 0
-45 18 0
-45 19 0
46 -16 -19 0
-46 16 0
-46 19 0
47 -48 73 0
47 48 -73 0
-47 48 73 0
-47 -48 -73 0
48 -49 70 0
48 49 -70 0
-48 49 70 0
-48 -49 -70 0
49 50 -51 0
49 -50 51 0
-49 -50 -51 0
-49 50 51 0
50 -709 -710 -717 -718 0
-50 718 0
-50 709 0
-50 717 0
-50 710 0
51 52 -53 0
51 -52 53 0
-51 -52 -53 0
-51 52 53 0
52 -34 -41 0
-52 34 0
-52 41 0
53 54 -65 0
53 -54 65 0
-53 -54 -65 0
-53 54 65 0
54 55 -56 0
54 -55 56 0
-54 -55 -56 0
-54 55 56 0
55 -706 -722 0
-55 706 0
-55 722 0
56 -57 62 0
56 57 -62 0
-56 57 62 0
-56 -57 -62 0
57 58 -61 0
57 -58 61 0
-57 -58 -61 0
-57 58 61 0
58 59 -60 0
58 -59 60 0
-58 -59 -60 0
-58 59 60 0
59 -707 -721 0
-59 707 0
-59 721 0
60 -708 -720 0
-60 708 0
-60 720 0
61 -709 -719 0
-61 709 0
-61 719 0
-62 63 64 0
62 -63 0
62 -64 0
63 -706 -707 -720 -721 0
-63 721 0
-63 706 0
-63 720 0
-63 707 0
64 -708 -719 -37 0
-64 708 0
-64 719 0
-64 37 0
65 66 -69 0
65 -66 69 0
-65 -66 -69 0
-65 66 69 0
66 67 -68 0
66 -67 68 0
-66 -67 -68 0
-66 67 68 0
67 -35 -36 0
-67 35 0
-67 36 0
68 -710 -718 0
-68 710 0
-68 718 0
69 -711 -717 0
-69 711 0
-69 717 0
-70 71 72 0
70 -71 0
70 -72 0
71 -32 -33 0
-71 32 0
-71 33 0
72 -30 -31 0
-72 30 0
-72 31 0
-73 74 75 0
73 -74 0
73 -75 0
74 -29 -44 0
-74 29 0
-74 44 0
75 -27 -28 0
-75 27 0
-75 28 0
76 -77 108 0
76 77 -108 0
-76 77 108 0
-76 -77 -108 0
77 -78 105 0
77 78 -105 0
-77 78 105 0
-77 -78 -105 0
78 -79 102 0
78 79 -102 0
-78 79 102 0
-78 -79 -102 0
79 80 -81 0
79 -80 81 0
-79 -80 -81 0
-79 80 81 0
80 -54 -65 0
-80 54 0
-80 65 0
81 82 -97 0
81 -82 97 0
-81 -82 -97 0
-81 82 97 0
82 83 -84 0
82 -83 84 0
-82 -83 -84 0
-82 83 84 0
83 -706 -722 -56 0
-83 706 0
-83 722 0
-83 56 0
84 85 -88 0
84 -85 88 0
-84 -85 -88 0
-84 85 88 0
85 86 -87 0
85 -86 87 0
-85 -86 -87 0
-85 86 87 0
86 -706 -723 0
-86 706 0
-86 723 0
87 -707 -722 0
-87 707 0
-87 722 0
88 -89 94 0
88 89 -94 0
-88 89 94 0
-88 -89 -94 0
89 90 -93 0
89 -90 93 0
-89 -90 -93 0
-89 90 93 0
90 91 -92 0
90 -91 92 0
-90 -91 -92 0
-90 91 92 0
91 -708 -721 0
-91 708 0
-91 721 0
92 -709 -720 0
-92 709 0
-92 720 0
93 -710 -719 0
-93 710 0
-93 719 0
-94 95 96 0
94 -95 0
94 -96 0
95 -707 -708 -720 -721 0
-95 721 0
-95 707 0
-95 720 0
-95 708 0
96 -709 -719 -58 0
-96 709 0
-96 719 0
-96 58 0
97 98 -101 0
97 -98 101 0
-97 -98 -101 0
-97 98 101 0
98 99 -100 0
98 -99 100 0
-98 -99 -100 0
-98 99 100 0
99 -57 -62 0
-99 57 0
-99 62 0
100 -711 -718 0
-100 711 0
-100 718 0
101 -712 -717 0
-101 712 0
-101 717 0
-102 103 104 0
102 -103 0
102 -104 0
103 -710 -718 -67 0
-103 710 0
-103 718 0
-103 67 0
104 -711 -717 -66 0
-104 711 0
-104 717 0
-104 66 0
-105 106 107 0
105 -106 0
105 -107 0
106 -52 -53 0
-106 52 0
-106 53 0
107 -50 -51 0
-107 50 0
-107 51 0
-108 27 109 0
-108 109 111 0
108 -109 0
108 -27 -111 0
-109 110 48 0
-109 74 110 0
109 -110 0
109 -74 -48 0
110 -49 -70 0
-110 49 0
-110 70 0
111 -28 -48 0
-111 28 0
-111 48 0
112 -113 150 0
112 113 -150 0
-112 113 150 0
-112 -113 -150 0
113 -114 147 0
113 114 -147 0
-113 114 147 0
-113 -114 -147 0
114 -115 144 0
114 115 -144 0
-114 115 144 0
-114 -115 -144 0
115 -116 141 0
115 116 -141 0
-115 116 141 0
-115 -116 -141 0
116 117 -136 0
116 -117 136 0
-116 -117 -136 0
-116 117 136 0
117 118 -119 0
117 -118 119 0
-117 -118 -119 0
-117 118 119 0
118 -85 -88 0
-118 85 0
-118 88 0
119 120 -125 0
119 -120 125 0
-119 -120 -125 0
-119 120 125 0
120 121 -124 0
120 -121 124 0
-120 -121 -124 0
-120 121 124 0
121 122 -123 0
121 -122 123 0
-121 -122 -123 0
-121 122 123 0
122 -706 -724 0
-122 706 0
-122 724 0
123 -707 -723 0
-123 707 0
-123 723 0
124 -708 -722 0
-124 708 0
-124 722 0
125 -126 133 0
125 126 -133 0
-125 126 133 0
-125 -126 -133 0
126 127 -128 0
126 -127 128 0
-126 -127 -128 0
-126 127 128 0
127 -706 -707 -722 -723 0
-127 723 0
-127 706 0
-127 722 0
-127 707 0
128 129 -132 0
128 -129 132 0
-128 -129 -132 0
-128 129 132 0
129 130 -131 0
129 -130 131 0
-129 -130 -131 0
-129 130 131 0
130 -709 -721 0
-130 709 0
-130 721 0
131 -710 -720 0
-131 710 0
-131 720 0
132 -711 -719 0
-132 711 0
-132 719 0
-133 134 135 0
133 -134 0
133 -135 0
134 -708 -709 -720 -721 0
-134 721 0
-134 708 0
-134 720 0
-134 709 0
135 -710 -719 -90 0
-135 710 0
-135 719 0
-135 90 0
136 137 -140 0
136 -137 140 0
-136 -137 -140 0
-136 137 140 0
137 138 -139 0
137 -138 139 0
-137 -138 -139 0
-137 138 139 0
138 -89 -94 0
-138 89 0
-138 94 0
139 -712 -718 0
-139 712 0
-139 718 0
140 -713 -717 0
-140 713 0
-140 717 0
-141 142 143 0
141 -142 0
141 -143 0
142 -83 -84 0
-142 83 0
-142 84 0
143 -82 -97 0
-143 82 0
-143 97 0
-144 145 146 0
144 -145 0
144 -146 0
145 -711 -718 -99 0
-145 711 0
-145 718 0
-145 99 0
146 -712 -717 -98 0
-146 712 0
-146 717 0
-146 98 0
-147 148 149 0
147 -148 0
147 -149 0
148 -80 -81 0
-148 80 0
-148 81 0
149 -79 -102 0
-149 79 0
-149 102 0
-150 151 152 0
150 -151 0
150 -152 0
151 -78 -105 0
-151 78 0
-151 105 0
152 -77 -108 0
-152 77 0
-152 108 0
153 -154 197 0
153 154 -197 0
-153 154 197 0
-153 -154 -197 0
154 -155 194 0
154 155 -194 0
-154 155 194 0
-154 -155 -194 0
155 -156 191 0
155 156 -191 0
-155 156 191 0
-155 -156 -191 0
156 -157 188 0
156 157 -188 0
-156 157 188 0
-156 -157 -188 0
157 158 -181 0
157 -158 181 0
-157 -158 -181 0
-157 158 181 0
158 159 -160 0
158 -159 160 0
-158 -159 -160 0
-158 159 160 0
159 -120 -125 0
-159 120 0
-159 125 0
160 161 -168 0
160 -161 168 0
-160 -161 -168 0
-160 161 168 0
161 162 -163 0
161 -162 163 0
-161 -162 -163 0
-161 162 163 0
162 -706 -725 0
-162 706 0
-162 725 0
163 164 -167 0
163 -164 167 0
-163 -164 -167 0
-163 164 167 0
164 165 -166 0
164 -165 166 0
-164 -165 -166 0
-164 165 166 0
165 -707 -724 0
-165 707 0
-165 724 0
166 -708 -723 0
-166 708 0
-166 723 0
167 -709 -722 0
-167 709 0
-167 722 0
168 -169 178 0
168 169 -178 0
-168 169 178 0
-168 -169 -178 0
169 170 -173 0
169 -170 173 0
-169 -170 -173 0
-169 170 173 0
-170 171 172 0
170 -171 0
170 -172 0
171 -706 -707 -723 -724 0
-171 724 0
-171 706 0
-171 723 0
-171 707 0
172 -708 -722 -121 0
-172 708 0
-172 722 0
-172 121 0
173 174 -177 0
173 -174 177 0
-173 -174 -177 0
-173 174 177 0
174 175 -176 0
174 -175 176 0
-174 -175 -176 0
-174 175 176 0
175 -710 -721 0
-175 710 0
-175 721 0
176 -711 -720 0
-176 711 0
-176 720 0
177 -712 -719 0
-177 712 0
-177 719 0
-178 179 180 0
178 -179 0
178 -180 0
179 -709 -710 -720 -721 0
-179 721 0
-179 709 0
-179 720 0
-179 710 0
180 -711 -719 -129 0
-180 711 0
-180 719 0
-180 129 0
181 182 -187 0
181 -182 187 0
-181 -182 -187 0
-181 182 187 0
182 183 -186 0
182 -183 186 0
-182 -183 -186 0
-182 183 186 0
-183 184 185 0
183 -184 0
183 -185 0
184 -127 -128 0
-184 127 0
-184 128 0
185 -126 -133 0
-185 126 0
-185 133 0
186 -713 -718 0
-186 713 0
-186 718 0
187 -714 -717 0
-187 714 0
-187 717 0
-188 189 190 0
188 -189 0
188 -190 0
189 -118 -119 0
-189 118 0
-189 119 0
190 -117 -136 0
-190 117 0
-190 136 0
-191 192 193 0
191 -192 0
191 -193 0
192 -712 -718 -138 0
-192 712 0
-192 718 0
-192 138 0
193 -713 -717 -137 0
-193 713 0
-193 717 0
-193 137 0
-194 195 196 0
194 -195 0
194 -196 0
195 -116 -141 0
-195 116 0
-195 141 0
196 -115 -144 0
-196 115 0
-196 144 0
-197 111 199 0
-197 27 199 0
-197 198 199 0
197 -199 0
197 -27 -111 -198 0
198 -77 -113 0
-198 77 0
-198 113 0
-199 151 200 201 0
-199 200 113 201 0
199 -201 0
199 -200 0
199 -151 -113 0
200 -114 -147 0
-200 114 0
-200 147 0
201 -109 -198 0
-201 109 0
-201 198 0
202 -203 250 0
202 203 -250 0
-202 203 250 0
-202 -203 -250 0
203 -204 247 0
203 204 -247 0
-203 204 247 0
-203 -204 -247 0
204 -205 244 0
204 205 -244 0
-204 205 244 0
-204 -205 -244 0
205 -206 241 0
205 206 -241 0
-205 206 241 0
-205 -206 -241 0
206 207 -234 0
206 -207 234 0
-206 -207 -234 0
-206 207 234 0
207 208 -209 0
207 -208 209 0
-207 -208 -209 0
-207 208 209 0
208 -161 -168 0
-208 161 0
-208 168 0
209 210 -221 0
209 -210 221 0
-209 -210 -221 0
-209 210 221 0
210 211 -212 0
210 -211 212 0
-210 -211 -212 0
-210 211 212 0
211 -706 -725 -163 0
-211 706 0
-211 725 0
-211 163 0
212 213 -216 0
212 -213 216 0
-212 -213 -216 0
-212 213 216 0
213 214 -215 0
213 -214 215 0
-213 -214 -215 0
-213 214 215 0
214 -706 -726 0
-214 706 0
-214 726 0
215 -707 -725 0
-215 707 0
-215 725 0
216 217 -220 0
216 -217 220 0
-216 -217 -220 0
-216 217 220 0
217 218 -219 0
217 -218 219 0
-217 -218 -219 0
-217 218 219 0
218 -708 -724 0
-218 708 0
-218 724 0
219 -709 -723 0
-219 709 0
-219 723 0
220 -710 -722 0
-220 710 0
-220 722 0
221 -222 231 0
221 222 -231 0
-221 222 231 0
-221 -222 -231 0
222 223 -226 0
222 -223 226 0
-222 -223 -226 0
-222 223 226 0
-223 224 225 0
223 -224 0
223 -225 0
224 -707 -708 -723 -724 0
-224 724 0
-224 707 0
-224 723 0
-224 708 0
225 -709 -722 -164 0
-225 709 0
-225 722 0
-225 164 0
226 227 -230 0
226 -227 230 0
-226 -227 -230 0
-226 227 230 0
227 228 -229 0
227 -228 229 0
-227 -228 -229 0
-227 228 229 0
228 -711 -721 0
-228 711 0
-228 721 0
229 -712 -720 0
-229 712 0
-229 720 0
230 -713 -719 0
-230 713 0
-230 719 0
-231 232 233 0
231 -232 0
231 -233 0
232 -710 -711 -720 -721 0
-232 721 0
-232 710 0
-232 720 0
-232 711 0
233 -712 -719 -174 0
-233 712 0
-233 719 0
-233 174 0
234 235 -240 0
234 -235 240 0
-234 -235 -240 0
-234 235 240 0
235 236 -239 0
235 -236 239 0
-235 -236 -239 0
-235 236 239 0
-236 237 238 0
236 -237 0
236 -238 0
237 -170 -173 0
-237 170 0
-237 173 0
238 -169 -178 0
-238 169 0
-238 178 0
239 -714 -718 0
-239 714 0
-239 718 0
240 -715 -717 0
-240 715 0
-240 717 0
-241 242 243 0
241 -242 0
241 -243 0
242 -159 -160 0
-242 159 0
-242 160 0
243 -158 -181 0
-243 158 0
-243 181 0
-244 245 246 0
244 -245 0
244 -246 0
245 -713 -718 -183 0
-245 713 0
-245 718 0
-245 183 0
246 -714 -717 -182 0
-246 714 0
-246 717 0
-246 182 0
-247 248 249 0
247 -248 0
247 -249 0
248 -157 -188 0
-248 157 0
-248 188 0
249 -156 -191 0
-249 156 0
-249 191 0
-250 251 252 0
250 -251 0
250 -252 0
251 -155 -194 0
-251 155 0
-251 194 0
252 -154 -197 0
-252 154 0
-252 197 0
253 -254 307 0
253 254 -307 0
-253 254 307 0
-253 -254 -307 0
254 -255 304 0
254 255 -304 0
-254 255 304 0
-254 -255 -304 0
255 -256 301 0
255 256 -301 0
-255 256 301 0
-255 -256 -301 0
256 -257 298 0
256 257 -298 0
-256 257 298 0
-256 -257 -298 0
257 258 -291 0
257 -258 291 0
-257 -258 -291 0
-257 258 291 0
258 -259 288 0
258 259 -288 0
-258 259 288 0
-258 -259 -288 0
259 260 -275 0
259 -260 275 0
-259 -260 -275 0
-259 260 275 0
260 261 -262 0
260 -261 262 0
-260 -261 -262 0
-260 261 262 0
261 -213 -216 0
-261 213 0
-261 216 0
262 263 -270 0
262 -263 270 0
-262 -263 -270 0
-262 263 270 0
263 264 -265 0
263 -264 265 0
-263 -264 -265 0
-263 264 265 0
264 -706 -707 -725 -726 0
-264 726 0
-264 706 0
-264 725 0
-264 707 0
265 266 -269 0
265 -266 269 0
-265 -266 -269 0
-265 266 269 0
266 267 -268 0
266 -267 268 0
-266 -267 -268 0
-266 267 268 0
267 -706 -727 0
-267 706 0
-267 727 0
268 -707 -726 0
-268 707 0
-268 726 0
269 -708 -725 0
-269 708 0
-269 725 0
270 271 -274 0
270 -271 274 0
-270 -271 -274 0
-270 271 274 0
271 272 -273 0
271 -272 273 0
-271 -272 -273 0
-271 272 273 0
272 -709 -724 0
-272 709 0
-272 724 0
273 -710 -723 0
-273 710 0
-273 723 0
274 -711 -722 0
-274 711 0
-274 722 0
275 -276 285 0
275 276 -285 0
-275 276 285 0
-275 -276 -285 0
276 277 -280 0
276 -277 280 0
-276 -277 -280 0
-276 277 280 0
-277 278 279 0
277 -278 0
277 -279 0
278 -708 -709 -723 -724 0
-278 724 0
-278 708 0
-278 723 0
-278 709 0
279 -710 -722 -217 0
-279 710 0
-279 722 0
-279 217 0
280 281 -284 0
280 -281 284 0
-280 -281 -284 0
-280 281 284 0
281 282 -283 0
281 -282 283 0
-281 -282 -283 0
-281 282 283 0
282 -712 -721 0
-282 712 0
-282 721 0
283 -713 -720 0
-283 713 0
-283 720 0
284 -714 -719 0
-284 714 0
-284 719 0
-285 286 287 0
285 -286 0
285 -287 0
286 -711 -712 -720 -721 0
-286 721 0
-286 711 0
-286 720 0
-286 712 0
287 -713 -719 -227 0
-287 713 0
-287 719 0
-287 227 0
-288 289 290 0
288 -289 0
288 -290 0
289 -211 -212 0
-289 211 0
-289 212 0
290 -210 -221 0
-290 210 0
-290 221 0
291 292 -297 0
291 -292 297 0
-291 -292 -297 0
-291 292 297 0
292 293 -296 0
292 -293 296 0
-292 -293 -296 0
-292 293 296 0
-293 294 295 0
293 -294 0
293 -295 0
294 -223 -226 0
-294 223 0
-294 226 0
295 -222 -231 0
-295 222 0
-295 231 0
296 -715 -718 0
-296 715 0
-296 718 0
297 -716 -717 0
-297 716 0
-297 717 0
-298 299 300 0
298 -299 0
298 -300 0
299 -208 -209 0
-299 208 0
-299 209 0
300 -207 -234 0
-300 207 0
-300 234 0
-301 302 303 0
301 -302 0
301 -303 0
302 -714 -718 -236 0
-302 714 0
-302 718 0
-302 236 0
303 -715 -717 -235 0
-303 715 0
-303 717 0
-303 235 0
-304 305 306 0
304 -305 0
304 -306 0
305 -206 -241 0
-305 206 0
-305 241 0
306 -205 -244 0
-306 205 0
-306 244 0
-307 197 308 0
-307 308 310 0
307 -308 0
307 -197 -310 0
-308 309 203 0
-308 251 309 0
308 -309 0
308 -251 -203 0
309 -204 -247 0
-309 204 0
-309 247 0
310 -154 -203 0
-310 154 0
-310 203 0
311 -312 367 0
311 312 -367 0
-311 312 367 0
-311 -312 -367 0
312 -313 364 0
312 313 -364 0
-312 313 364 0
-312 -313 -364 0
313 -314 361 0
313 314 -361 0
-313 314 361 0
-313 -314 -361 0
314 -315 358 0
314 315 -358 0
-314 315 358 0
-314 -315 -358 0
315 316 -353 0
315 -316 353 0
-315 -316 -353 0
-315 316 353 0
316 -317 350 0
316 317 -350 0
-316 317 350 0
-316 -317 -350 0
317 318 -337 0
317 -318 337 0
-317 -318 -337 0
-317 318 337 0
318 -319 334 0
318 319 -334 0
-318 319 334 0
-318 -319 -334 0
319 320 -329 0
319 -320 329 0
-319 -320 -329 0
-319 320 329 0
320 -321 326 0
320 321 -326 0
-320 321 326 0
-320 -321 -326 0
321 322 -325 0
321 -322 325 0
-321 -322 -325 0
-321 322 325 0
322 323 -324 0
322 -323 324 0
-322 -323 -324 0
-322 323 324 0
323 -707 -727 0
-323 707 0
-323 727 0
324 -708 -726 0
-324 708 0
-324 726 0
325 -709 -725 0
-325 709 0
-325 725 0
-326 327 328 0
326 -327 0
326 -328 0
327 -706 -707 -726 -727 0
-327 727 0
-327 706 0
-327 726 0
-327 707 0
328 -708 -725 -266 0
-328 708 0
-328 725 0
-328 266 0
329 330 -333 0
329 -330 333 0
-329 -330 -333 0
-329 330 333 0
330 331 -332 0
330 -331 332 0
-330 -331 -332 0
-330 331 332 0
331 -710 -724 0
-331 710 0
-331 724 0
332 -711 -723 0
-332 711 0
-332 723 0
333 -712 -722 0
-333 712 0
-333 722 0
-334 335 336 0
334 -335 0
334 -336 0
335 -264 -265 0
-335 264 0
-335 265 0
336 -263 -270 0
-336 263 0
-336 270 0
337 -338 347 0
337 338 -347 0
-337 338 347 0
-337 -338 -347 0
338 339 -342 0
338 -339 342 0
-338 -339 -342 0
-338 339 342 0
-339 340 341 0
339 -340 0
339 -341 0
340 -709 -710 -723 -724 0
-340 724 0
-340 709 0
-340 723 0
-340 710 0
341 -711 -722 -271 0
-341 711 0
-341 722 0
-341 271 0
342 343 -346 0
342 -343 346 0
-342 -343 -346 0
-342 343 346 0
343 344 -345 0
343 -344 345 0
-343 -344 -345 0
-343 344 345 0
344 -713 -721 0
-344 713 0
-344 721 0
345 -714 -720 0
-345 714 0
-345 720 0
346 -715 -719 0
-346 715 0
-346 719 0
-347 348 349 0
347 -348 0
347 -349 0
348 -712 -713 -720 -721 0
-348 721 0
-348 712 0
-348 720 0
-348 713 0
349 -714 -719 -281 0
-349 714 0
-349 719 0
-349 281 0
-350 351 352 0
350 -351 0
350 -352 0
351 -261 -262 0
-351 261 0
-351 262 0
352 -260 -275 0
-352 260 0
-352 275 0
353 354 -357 0
353 -354 357 0
-353 -354 -357 0
-353 354 357 0
-354 355 356 0
354 -355 0
354 -356 0
355 -277 -280 0
-355 277 0
-355 280 0
356 -276 -285 0
-356 276 0
-356 285 0
357 -716 -718 0
-357 716 0
-357 718 0
-358 359 360 0
358 -359 0
358 -360 0
359 -259 -288 0
-359 259 0
-359 288 0
360 -258 -291 0
-360 258 0
-360 291 0
-361 362 363 0
361 -362 0
361 -363 0
362 -715 -718 -293 0
-362 715 0
-362 718 0
-362 293 0
363 -716 -717 -292 0
-363 716 0
-363 717 0
-363 292 0
-364 365 366 0
364 -365 0
364 -366 0
365 -257 -298 0
-365 257 0
-365 298 0
366 -256 -301 0
-366 256 0
-366 301 0
-367 368 369 0
367 -368 0
367 -369 0
368 -255 -304 0
-368 255 0
-368 304 0
369 -254 -307 0
-369 254 0
-369 307 0
370 -371 422 0
370 371 -422 0
-370 371 422 0
-370 -371 -422 0
371 -372 419 0
371 372 -419 0
-371 372 419 0
-371 -372 -419 0
372 373 -374 0
372 -373 374 0
-372 -373 -374 0
-372 373 374 0
373 -716 -718 -354 0
-373 716 0
-373 718 0
-373 354 0
374 -375 416 0
374 375 -416 0
-374 375 416 0
-374 -375 -416 0
375 -376 413 0
375 376 -413 0
-375 376 413 0
-375 -376 -413 0
376 -377 410 0
376 377 -410 0
-376 377 410 0
-376 -377 -410 0
377 378 -397 0
377 -378 397 0
-377 -378 -397 0
-377 378 397 0
378 -379 394 0
378 379 -394 0
-378 379 394 0
-378 -379 -394 0
379 380 -389 0
379 -380 389 0
-379 -380 -389 0
-379 380 389 0
380 -381 386 0
380 381 -386 0
-380 381 386 0
-380 -381 -386 0
381 382 -385 0
381 -382 385 0
-381 -382 -385 0
-381 382 385 0
382 383 -384 0
382 -383 384 0
-382 -383 -384 0
-382 383 384 0
383 -708 -727 0
-383 708 0
-383 727 0
384 -709 -726 0
-384 709 0
-384 726 0
385 -710 -725 0
-385 710 0
-385 725 0
-386 387 388 0
386 -387 0
386 -388 0
387 -707 -708 -726 -727 0
-387 727 0
-387 707 0
-387 726 0
-387 708 0
388 -709 -725 -322 0
-388 709 0
-388 725 0
-388 322 0
389 390 -393 0
389 -390 393 0
-389 -390 -393 0
-389 390 393 0
390 391 -392 0
390 -391 392 0
-390 -391 -392 0
-390 391 392 0
391 -711 -724 0
-391 711 0
-391 724 0
392 -712 -723 0
-392 712 0
-392 723 0
393 -713 -722 0
-393 713 0
-393 722 0
-394 395 396 0
394 -395 0
394 -396 0
395 -321 -326 0
-395 321 0
-395 326 0
396 -320 -329 0
-396 320 0
-396 329 0
397 -398 407 0
397 398 -407 0
-397 398 407 0
-397 -398 -407 0
398 399 -402 0
398 -399 402 0
-398 -399 -402 0
-398 399 402 0
-399 400 401 0
399 -400 0
399 -401 0
400 -710 -711 -723 -724 0
-400 724 0
-400 710 0
-400 723 0
-400 711 0
401 -712 -722 -330 0
-401 712 0
-401 722 0
-401 330 0
402 403 -406 0
402 -403 406 0
-402 -403 -406 0
-402 403 406 0
403 404 -405 0
403 -404 405 0
-403 -404 -405 0
-403 404 405 0
404 -714 -721 0
-404 714 0
-404 721 0
405 -715 -720 0
-405 715 0
-405 720 0
406 -716 -719 0
-406 716 0
-406 719 0
-407 408 409 0
407 -408 0
407 -409 0
408 -713 -714 -720 -721 0
-408 721 0
-408 713 0
-408 720 0
-408 714 0
409 -715 -719 -343 0
-409 715 0
-409 719 0
-409 343 0
-410 411 412 0
410 -411 0
410 -412 0
411 -319 -334 0
-411 319 0
-411 334 0
412 -318 -337 0
-412 318 0
-412 337 0
-413 414 415 0
413 -414 0
413 -415 0
414 -339 -342 0
-414 339 0
-414 342 0
415 -338 -347 0
-415 338 0
-415 347 0
-416 417 418 0
416 -417 0
416 -418 0
417 -317 -350 0
-417 317 0
-417 350 0
418 -316 -353 0
-418 316 0
-418 353 0
-419 420 421 0
419 -420 0
419 -421 0
420 -315 -358 0
-420 315 0
-420 358 0
421 -314 -361 0
-421 314 0
-421 361 0
-422 197 423 0
-422 423 427 0
422 -423 0
422 -197 -427 0
-423 368 424 425 0
-423 424 312 425 0
423 -425 0
423 -424 0
423 -368 -312 0
424 -313 -364 0
-424 313 0
-424 364 0
425 -308 -426 0
-425 308 0
-425 426 0
426 -254 -312 0
-426 254 0
-426 312 0
427 -310 -426 0
-427 310 0
-427 426 0
428 -429 476 0
428 429 -476 0
-428 429 476 0
-428 -429 -476 0
429 -430 473 0
429 430 -473 0
-429 430 473 0
-429 -430 -473 0
430 -431 470 0
430 431 -470 0
-430 431 470 0
-430 -431 -470 0
431 -432 467 0
431 432 -467 0
-431 432 467 0
-431 -432 -467 0
432 -433 464 0
432 433 -464 0
-432 433 464 0
-432 -433 -464 0
433 434 -453 0
433 -434 453 0
-433 -434 -453 0
-433 434 453 0
434 -435 450 0
434 435 -450 0
-434 435 450 0
-434 -435 -450 0
435 436 -445 0
435 -436 445 0
-435 -436 -445 0
-435 436 445 0
436 -437 442 0
436 437 -442 0
-436 437 442 0
-436 -437 -442 0
437 438 -441 0
437 -438 441 0
-437 -438 -441 0
-437 438 441 0
438 439 -440 0
438 -439 440 0
-438 -439 -440 0
-438 439 440 0
439 -709 -727 0
-439 709 0
-439 727 0
440 -710 -726 0
-440 710 0
-440 726 0
441 -711 -725 0
-441 711 0
-441 725 0
-442 443 444 0
442 -443 0
442 -444 0
443 -708 -709 -726 -727 0
-443 727 0
-443 708 0
-443 726 0
-443 709 0
444 -710 -725 -382 0
-444 710 0
-444 725 0
-444 382 0
445 446 -449 0
445 -446 449 0
-445 -446 -449 0
-445 446 449 0
446 447 -448 0
446 -447 448 0
-446 -447 -448 0
-446 447 448 0
447 -712 -724 0
-447 712 0
-447 724 0
448 -713 -723 0
-448 713 0
-448 723 0
449 -714 -722 0
-449 714 0
-449 722 0
-450 451 452 0
450 -451 0
450 -452 0
451 -381 -386 0
-451 381 0
-451 386 0
452 -380 -389 0
-452 380 0
-452 389 0
453 -454 461 0
453 454 -461 0
-453 454 461 0
-453 -454 -461 0
454 455 -458 0
454 -455 458 0
-454 -455 -458 0
-454 455 458 0
-455 456 457 0
455 -456 0
455 -457 0
456 -711 -712 -723 -724 0
-456 724 0
-456 711 0
-456 723 0
-456 712 0
457 -713 -722 -390 0
-457 713 0
-457 722 0
-457 390 0
458 459 -460 0
458 -459 460 0
-458 -459 -460 0
-458 459 460 0
459 -715 -721 0
-459 715 0
-459 721 0
460 -716 -720 0
-460 716 0
-460 720 0
-461 462 463 0
461 -462 0
461 -463 0
462 -714 -715 -720 -721 0
-462 721 0
-462 714 0
-462 720 0
-462 715 0
463 -716 -719 -403 0
-463 716 0
-463 719 0
-463 403 0
-464 465 466 0
464 -465 0
464 -466 0
465 -379 -394 0
-465 379 0
-465 394 0
466 -378 -397 0
-466 378 0
-466 397 0
-467 468 469 0
467 -468 0
467 -469 0
468 -399 -402 0
-468 399 0
-468 402 0
469 -398 -407 0
-469 398 0
-469 407 0
-470 471 472 0
470 -471 0
470 -472 0
471 -377 -410 0
-471 377 0
-471 410 0
472 -376 -413 0
-472 376 0
-472 413 0
-473 474 475 0
473 -474 0
473 -475 0
474 -375 -416 0
-474 375 0
-474 416 0
475 -373 -374 0
-475 373 0
-475 374 0
-476 477 478 0
476 -477 0
476 -478 0
477 -372 -419 0
-477 372 0
-477 419 0
478 -371 -422 0
-478 371 0
-478 422 0
479 -480 521 0
479 480 -521 0
-479 480 521 0
-479 -480 -521 0
480 481 -482 0
480 -481 482 0
-480 -481 -482 0
-480 481 482 0
481 -431 -470 0
-481 431 0
-481 470 0
482 -483 518 0
482 483 -518 0
-482 483 518 0
-482 -483 -518 0
483 -484 515 0
483 484 -515 0
-483 484 515 0
-483 -484 -515 0
484 -485 512 0
484 485 -512 0
-484 485 512 0
-484 -485 -512 0
485 486 -505 0
485 -486 505 0
-485 -486 -505 0
-485 486 505 0
486 -487 502 0
486 487 -502 0
-486 487 502 0
-486 -487 -502 0
487 488 -497 0
487 -488 497 0
-487 -488 -497 0
-487 488 497 0
488 -489 494 0
488 489 -494 0
-488 489 494 0
-488 -489 -494 0
489 490 -493 0
489 -490 493 0
-489 -490 -493 0
-489 490 493 0
490 491 -492 0
490 -491 492 0
-490 -491 -492 0
-490 491 492 0
491 -710 -727 0
-491 710 0
-491 727 0
492 -711 -726 0
-492 711 0
-492 726 0
493 -712 -725 0
-493 712 0
-493 725 0
-494 495 496 0
494 -495 0
494 -496 0
495 -709 -710 -726 -727 0
-495 727 0
-495 709 0
-495 726 0
-495 710 0
496 -711 -725 -438 0
-496 711 0
-496 725 0
-496 438 0
497 498 -501 0
497 -498 501 0
-497 -498 -501 0
-497 498 501 0
498 499 -500 0
498 -499 500 0
-498 -499 -500 0
-498 499 500 0
499 -713 -724 0
-499 713 0
-499 724 0
500 -714 -723 0
-500 714 0
-500 723 0
501 -715 -722 0
-501 715 0
-501 722 0
-502 503 504 0
502 -503 0
502 -504 0
503 -437 -442 0
-503 437 0
-503 442 0
504 -436 -445 0
-504 436 0
-504 445 0
505 506 -507 0
505 -506 507 0
-505 -506 -507 0
-505 506 507 0
506 -715 -716 -720 -721 0
-506 721 0
-506 715 0
-506 720 0
-506 716 0
507 508 -511 0
507 -508 511 0
-507 -508 -511 0
-507 508 511 0
-508 509 510 0
508 -509 0
508 -510 0
509 -712 -713 -723 -724 0
-509 724 0
-509 712 0
-509 723 0
-509 713 0
510 -714 -722 -446 0
-510 714 0
-510 722 0
-510 446 0
511 -716 -721 0
-511 716 0
-511 721 0
-512 513 514 0
512 -513 0
512 -514 0
513 -435 -450 0
-513 435 0
-513 450 0
514 -434 -453 0
-514 434 0
-514 453 0
-515 516 517 0
515 -516 0
515 -517 0
516 -455 -458 0
-516 455 0
-516 458 0
517 -454 -461 0
-517 454 0
-517 461 0
-518 519 520 0
518 -519 0
518 -520 0
519 -433 -464 0
-519 433 0
-519 464 0
520 -432 -467 0
-520 432 0
-520 467 0
-521 422 522 0
-521 522 524 0
521 -522 0
521 -422 -524 0
-522 523 429 0
-522 477 523 0
522 -523 0
522 -477 -429 0
523 -430 -473 0
-523 430 0
-523 473 0
524 -371 -429 0
-524 371 0
-524 429 0
525 -526 563 0
525 526 -563 0
-525 526 563 0
-525 -526 -563 0
526 527 -528 0
526 -527 528 0
-526 -527 -528 0
-526 527 528 0
527 -483 -518 0
-527 483 0
-527 518 0
528 -529 560 0
528 529 -560 0
-528 529 560 0
-528 -529 -560 0
529 -530 557 0
529 530 -557 0
-529 530 557 0
-529 -530 -557 0
530 -531 554 0
530 531 -554 0
-530 531 554 0
-530 -531 -554 0
531 -532 551 0
531 532 -551 0
-531 532 551 0
-531 -532 -551 0
532 -533 548 0
532 533 -548 0
-532 533 548 0
-532 -533 -548 0
533 534 -543 0
533 -534 543 0
-533 -534 -543 0
-533 534 543 0
534 -535 540 0
534 535 -540 0
-534 535 540 0
-534 -535 -540 0
535 536 -539 0
535 -536 539 0
-535 -536 -539 0
-535 536 539 0
536 537 -538 0
536 -537 538 0
-536 -537 -538 0
-536 537 538 0
537 -711 -727 0
-537 711 0
-537 727 0
538 -712 -726 0
-538 712 0
-538 726 0
539 -713 -725 0
-539 713 0
-539 725 0
-540 541 542 0
540 -541 0
540 -542 0
541 -710 -711 -726 -727 0
-541 727 0
-541 710 0
-541 726 0
-541 711 0
542 -712 -725 -490 0
-542 712 0
-542 725 0
-542 490 0
543 544 -547 0
543 -544 547 0
-543 -544 -547 0
-543 544 547 0
544 545 -546 0
544 -545 546 0
-544 -545 -546 0
-544 545 546 0
545 -714 -724 0
-545 714 0
-545 724 0
546 -715 -723 0
-546 715 0
-546 723 0
547 -716 -722 0
-547 716 0
-547 722 0
-548 549 550 0
548 -549 0
548 -550 0
549 -489 -494 0
-549 489 0
-549 494 0
550 -488 -497 0
-550 488 0
-550 497 0
-551 552 553 0
551 -552 0
551 -553 0
552 -713 -714 -723 -724 0
-552 724 0
-552 713 0
-552 723 0
-552 714 0
553 -715 -722 -498 0
-553 715 0
-553 722 0
-553 498 0
-554 555 556 0
554 -555 0
554 -556 0
555 -487 -502 0
-555 487 0
-555 502 0
556 -486 -505 0
-556 486 0
-556 505 0
-557 558 559 0
557 -558 0
557 -559 0
558 -716 -721 -508 0
-558 716 0
-558 721 0
-558 508 0
559 -506 -507 0
-559 506 0
-559 507 0
-560 561 562 0
560 -561 0
560 -562 0
561 -485 -512 0
-561 485 0
-561 512 0
562 -484 -515 0
-562 484 0
-562 515 0
-563 564 565 0
563 -564 0
563 -565 0
564 -481 -482 0
-564 481 0
-564 482 0
565 -480 -521 0
-565 480 0
-565 521 0
566 -567 598 0
566 567 -598 0
-566 567 598 0
-566 -567 -598 0
567 568 -569 0
567 -568 569 0
-567 -568 -569 0
-567 568 569 0
568 -529 -560 0
-568 529 0
-568 560 0
569 -570 595 0
569 570 -595 0
-569 570 595 0
-569 -570 -595 0
570 -571 592 0
570 571 -592 0
-570 571 592 0
-570 -571 -592 0
571 -572 589 0
571 572 -589 0
-571 572 589 0
-571 -572 -589 0
572 -573 586 0
572 573 -586 0
-572 573 586 0
-572 -573 -586 0
573 574 -583 0
573 -574 583 0
-573 -574 -583 0
-573 574 583 0
574 -575 580 0
574 575 -580 0
-574 575 580 0
-574 -575 -580 0
575 576 -579 0
575 -576 579 0
-575 -576 -579 0
-575 576 579 0
576 577 -578 0
576 -577 578 0
-576 -577 -578 0
-576 577 578 0
577 -712 -727 0
-577 712 0
-577 727 0
578 -713 -726 0
-578 713 0
-578 726 0
579 -714 -725 0
-579 714 0
-579 725 0
-580 581 582 0
580 -581 0
580 -582 0
581 -711 -712 -726 -727 0
-581 727 0
-581 711 0
-581 726 0
-581 712 0
582 -713 -725 -536 0
-582 713 0
-582 725 0
-582 536 0
583 584 -585 0
583 -584 585 0
-583 -584 -585 0
-583 584 585 0
584 -715 -724 0
-584 715 0
-584 724 0
585 -716 -723 0
-585 716 0
-585 723 0
-586 587 588 0
586 -587 0
586 -588 0
587 -535 -540 0
-587 535 0
-587 540 0
588 -534 -543 0
-588 534 0
-588 543 0
-589 590 591 0
589 -590 0
589 -591 0
590 -714 -715 -723 -724 0
-590 724 0
-590 714 0
-590 723 0
-590 715 0
591 -716 -722 -544 0
-591 716 0
-591 722 0
-591 544 0
-592 593 594 0
592 -593 0
592 -594 0
593 -533 -548 0
-593 533 0
-593 548 0
594 -532 -551 0
-594 532 0
-594 551 0
-595 596 597 0
595 -596 0
595 -597 0
596 -531 -554 0
-596 531 0
-596 554 0
597 -530 -557 0
-597 530 0
-597 557 0
-598 427 601 0
-598 599 601 0
-598 197 601 0
598 -601 0
598 -197 -427 -599 0
599 -524 -600 0
-599 524 0
-599 600 0
600 -480 -526 0
-600 480 0
-600 526 0
-601 423 602 604 0
-601 602 604 599 0
601 -602 0
601 -604 0
601 -423 -599 0
-602 603 526 0
-602 564 603 0
602 -603 0
602 -564 -526 0
603 -527 -528 0
-603 527 0
-603 528 0
604 -522 -600 0
-604 522 0
-604 600 0
605 -606 631 0
605 606 -631 0
-605 606 631 0
-605 -606 -631 0
606 607 -608 0
606 -607 608 0
-606 -607 -608 0
-606 607 608 0
607 -570 -595 0
-607 570 0
-607 595 0
608 609 -610 0
608 -609 610 0
-608 -609 -610 0
-608 609 610 0
609 -571 -592 0
-609 571 0
-609 592 0
610 -611 628 0
610 611 -628 0
-610 611 628 0
-610 -611 -628 0
611 612 -613 0
611 -612 613 0
-611 -612 -613 0
-611 612 613 0
612 -715 -716 -723 -724 0
-612 724 0
-612 715 0
-612 723 0
-612 716 0
613 -614 625 0
613 614 -625 0
-613 614 625 0
-613 -614 -625 0
614 615 -624 0
614 -615 624 0
-614 -615 -624 0
-614 615 624 0
615 -616 621 0
615 616 -621 0
-615 616 621 0
-615 -616 -621 0
616 617 -620 0
616 -617 620 0
-616 -617 -620 0
-616 617 620 0
617 618 -619 0
617 -618 619 0
-617 -618 -619 0
-617 618 619 0
618 -713 -727 0
-618 713 0
-618 727 0
619 -714 -726 0
-619 714 0
-619 726 0
620 -715 -725 0
-620 715 0
-620 725 0
-621 622 623 0
621 -622 0
621 -623 0
622 -712 -713 -726 -727 0
-622 727 0
-622 712 0
-622 726 0
-622 713 0
623 -714 -725 -576 0
-623 714 0
-623 725 0
-623 576 0
624 -716 -724 0
-624 716 0
-624 724 0
-625 626 627 0
625 -626 0
625 -627 0
626 -575 -580 0
-626 575 0
-626 580 0
627 -574 -583 0
-627 574 0
-627 583 0
-628 629 630 0
628 -629 0
628 -630 0
629 -573 -586 0
-629 573 0
-629 586 0
630 -572 -589 0
-630 572 0
-630 589 0
-631 632 633 0
631 -632 0
631 -633 0
632 -568 -569 0
-632 568 0
-632 569 0
633 -567 -598 0
-633 567 0
-633 598 0
634 -635 656 0
634 635 -656 0
-634 635 656 0
-634 -635 -656 0
635 636 -637 0
635 -636 637 0
-635 -636 -637 0
-635 636 637 0
636 -609 -610 0
-636 609 0
-636 610 0
637 638 -639 0
637 -638 639 0
-637 -638 -639 0
-637 638 639 0
638 -611 -628 0
-638 611 0
-638 628 0
639 -640 653 0
639 640 -653 0
-639 640 653 0
-639 -640 -653 0
640 -641 650 0
640 641 -650 0
-640 641 650 0
-640 -641 -650 0
641 -642 647 0
641 642 -647 0
-641 642 647 0
-641 -642 -647 0
642 643 -646 0
642 -643 646 0
-642 -643 -646 0
-642 643 646 0
643 644 -645 0
643 -644 645 0
-643 -644 -645 0
-643 644 645 0
644 -714 -727 0
-644 714 0
-644 727 0
645 -715 -726 0
-645 715 0
-645 726 0
646 -716 -725 0
-646 716 0
-646 725 0
-647 648 649 0
647 -648 0
647 -649 0
648 -713 -714 -726 -727 0
-648 727 0
-648 713 0
-648 726 0
-648 714 0
649 -715 -725 -617 0
-649 715 0
-649 725 0
-649 617 0
-650 651 652 0
650 -651 0
650 -652 0
651 -616 -621 0
-651 616 0
-651 621 0
652 -716 -724 -615 0
-652 716 0
-652 724 0
-652 615 0
-653 654 655 0
653 -654 0
653 -655 0
654 -614 -625 0
-654 614 0
-654 625 0
655 -612 -613 0
-655 612 0
-655 613 0
-656 598 657 0
-656 657 659 0
656 -657 0
656 -598 -659 0
-657 658 606 0
-657 632 658 0
657 -658 0
657 -632 -606 0
658 -607 -608 0
-658 607 0
-658 608 0
659 -567 -606 0
-659 567 0
-659 606 0
660 -661 676 0
660 661 -676 0
-660 661 676 0
-660 -661 -676 0
661 662 -663 0
661 -662 663 0
-661 -662 -663 0
-661 662 663 0
662 -638 -639 0
-662 638 0
-662 639 0
663 664 -665 0
663 -664 665 0
-663 -664 -665 0
-663 664 665 0
664 -640 -653 0
-664 640 0
-664 653 0
665 666 -667 0
665 -666 667 0
-665 -666 -667 0
-665 666 667 0
666 -641 -650 0
-666 641 0
-666 650 0
667 668 -669 0
667 -668 669 0
-667 -668 -669 0
-667 668 669 0
668 -642 -647 0
-668 642 0
-668 647 0
669 -670 673 0
669 670 -673 0
-669 670 673 0
-669 -670 -673 0
670 671 -672 0
670 -671 672 0
-670 -671 -672 0
-670 671 672 0
671 -715 -727 0
-671 715 0
-671 727 0
672 -716 -726 0
-672 716 0
-672 726 0
-673 674 675 0
673 -674 0
673 -675 0
674 -714 -715 -726 -727 0
-674 727 0
-674 714 0
-674 726 0
-674 715 0
675 -716 -725 -643 0
-675 716 0
-675 725 0
-675 643 0
-676 677 678 0
676 -677 0
676 -678 0
677 -636 -637 0
-677 636 0
-677 637 0
678 -635 -656 0
-678 635 0
-678 656 0
679 -680 689 0
679 680 -689 0
-679 680 689 0
-679 -680 -689 0
680 681 -682 0
680 -681 682 0
-680 -681 -682 0
-680 681 682 0
681 -664 -665 0
-681 664 0
-681 665 0
682 683 -684 0
682 -683 684 0
-682 -683 -684 0
-682 683 684 0
683 -666 -667 0
-683 666 0
-683 667 0
684 685 -686 0
684 -685 686 0
-684 -685 -686 0
-684 685 686 0
685 -668 -669 0
-685 668 0
-685 669 0
686 687 -688 0
686 -687 688 0
-686 -687 -688 0
-686 687 688 0
687 -670 -673 0
-687 670 0
-687 673 0
688 715 -716 -727 0
688 -716 726 -727 0
-688 727 0
-688 716 0
-688 -715 -726 0
-689 659 691 0
-689 690 691 0
-689 598 691 0
689 -691 0
689 -598 -659 -690 0
690 -635 -661 0
-690 635 0
-690 661 0
-691 677 692 693 0
-691 692 661 693 0
691 -693 0
691 -692 0
691 -677 -661 0
692 -662 -663 0
-692 662 0
-692 663 0
693 -657 -690 0
-693 657 0
-693 690 0
694 -695 703 0
694 695 -703 0
-694 695 703 0
-694 -695 -703 0
695 696 -697 0
695 -696 697 0
-695 -696 -697 0
-695 696 697 0
696 -683 -684 0
-696 683 0
-696 684 0
697 698 -699 0
697 -698 699 0
-697 -698 -699 0
-697 698 699 0
698 -685 -686 0
-698 685 0
-698 686 0
699 -700 0
-699 700 0
-700 701 702 0
700 -701 0
700 -702 0
701 -715 -716 -726 -727 0
-701 727 0
-701 715 0
-701 726 0
-701 716 0
702 -687 -688 0
-702 687 0
-702 688 0
-703 704 705 0
703 -704 0
703 -705 0
704 -681 -682 0
-704 681 0
-704 682 0
705 -680 -689 0
-705 680 0
-705 689 0
-728 0
2 0
3 0
6 0
13 0
26 0
47 0
76 0
112 0
153 0
202 0
253 0
311 0
370 0
428 0
479 0
525 0
566 0
605 0
634 0
660 0
679 0
694 0

