c Result of efficient AIG-to-CNF conversion using package CNF
p cnf 857 2965
2 -833 -845 0
-2 833 0
-2 845 0
3 4 -5 0
3 -4 5 0
-3 -4 -5 0
-3 4 5 0
4 -833 -846 0
-4 833 0
-4 846 0
5 -834 -845 0
-5 834 0
-5 845 0
6 7 -8 0
6 -7 8 0
-6 -7 -8 0
-6 7 8 0
7 -833 -834 -845 -846 0
-7 846 0
-7 833 0
-7 845 0
-7 834 0
8 9 -12 0
8 -9 12 0
-8 -9 -12 0
-8 9 12 0
9 10 -11 0
9 -10 11 0
-9 -10 -11 0
-9 10 11 0
10 -833 -847 0
-10 833 0
-10 847 0
11 -834 -846 0
-11 834 0
-11 846 0
12 -835 -845 0
-12 835 0
-12 845 0
13 14 -15 0
13 -14 15 0
-13 -14 -15 0
-13 14 15 0
14 -7 -8 0
-14 7 0
-14 8 0
15 16 -17 0
15 -16 17 0
-15 -16 -17 0
-15 16 17 0
16 -833 -848 0
-16 833 0
-16 848 0
17 -18 23 0
17 18 -23 0
-17 18 23 0
-17 -18 -23 0
18 19 -22 0
18 -19 22 0
-18 -19 -22 0
-18 19 22 0
19 20 -21 0
19 -20 21 0
-19 -20 -21 0
-19 20 21 0
20 -834 -847 0
-20 834 0
-20 847 0
21 -835 -846 0
-21 835 0
-21 846 0
22 -836 -845 0
-22 836 0
-22 845 0
-23 24 25 0
23 -24 0
23 -25 0
24 -833 -834 -846 -847 0
-24 847 0
-24 833 0
-24 846 0
-24 834 0
25 -835 -845 -9 0
-25 835 0
-25 845 0
-25 9 0
26 27 -28 0
26 -27 28 0
-26 -27 -28 0
-26 27 28 0
27 -14 -15 0
-27 14 0
-27 15 0
28 29 -30 0
28 -29 30 0
-28 -29 -30 0
-28 29 30 0
29 -18 -23 0
-29 18 0
-29 23 0
30 31 -32 0
30 -31 32 0
-30 -31 -32 0
-30 31 32 0
31 -833 -848 -17 0
-31 833 0
-31 848 0
-31 17 0
32 33 -36 0
32 -33 36 0
-32 -33 -36 0
-32 33 36 0
33 34 -35 0
33 -34 35 0
-33 -34 -35 0
-33 34 35 0
34 -833 -849 0
-34 833 0
-34 849 0
35 -834 -848 0
-35 834 0
-35 848 0
36 -37 42 0
36 37 -42 0
-36 37 42 0
-36 -37 -42 0
37 38 -41 0
37 -38 41 0
-37 -38 -41 0
-37 38 41 0
38 39 -40 0
38 -39 40 0
-38 -39 -40 0
-38 39 40 0
39 -835 -847 0
-39 835 0
-39 847 0
40 -836 -846 0
-40 836 0
-40 846 0
41 -837 -845 0
-41 837 0
-41 845 0
-42 43 44 0
42 -43 0
42 -44 0
43 -834 -835 -846 -847 0
-43 847 0
-43 834 0
-43 846 0
-43 835 0
44 -836 -845 -19 0
-44 836 0
-44 845 0
-44 19 0
45 46 -47 0
45 -46 47 0
-45 -46 -47 0
-45 46 47 0
46 -27 -28 0
-46 27 0
-46 28 0
47 -48 69 0
47 48 -69 0
-47 48 69 0
-47 -48 -69 0
48 49 -50 0
48 -49 50 0
-48 -49 -50 0
-48 49 50 0
49 -37 -42 0
-49 37 0
-49 42 0
50 51 -52 0
50 -51 52 0
-50 -51 -52 0
-50 51 52 0
51 -33 -36 0
-51 33 0
-51 36 0
52 53 -60 0
52 -53 60 0
-52 -53 -60 0
-52 53 60 0
53 54 -55 0
53 -54 55 0
-53 -54 -55 0
-53 54 55 0
54 -833 -834 -848 -849 0
-54 849 0
-54 833 0
-54 848 0
-54 834 0
55 56 -59 0
55 -56 59 0
-55 -56 -59 0
-55 56 59 0
56 57 -58 0
56 -57 58 0
-56 -57 -58 0
-56 57 58 0
57 -833 -850 0
-57 833 0
-57 850 0
58 -834 -849 0
-58 834 0
-58 849 0
59 -835 -848 0
-59 835 0
-59 848 0
60 -61 66 0
60 61 -66 0
-60 61 66 0
-60 -61 -66 0
61 62 -65 0
61 -62 65 0
-61 -62 -65 0
-61 62 65 0
62 63 -64 0
62 -63 64 0
-62 -63 -64 0
-62 63 64 0
63 -836 -847 0
-63 836 0
-63 847 0
64 -837 -846 0
-64 837 0
-64 846 0
65 -838 -845 0
-65 838 0
-65 845 0
-66 67 68 0
66 -67 0
66 -68 0
67 -835 -836 -846 -847 0
-67 847 0
-67 835 0
-67 846 0
-67 836 0
68 -837 -845 -38 0
-68 837 0
-68 845 0
-68 38 0
-69 70 71 0
69 -70 0
69 -71 0
70 -31 -32 0
-70 31 0
-70 32 0
71 -29 -32 0
-71 29 0
-71 32 0
72 -73 104 0
72 73 -104 0
-72 73 104 0
-72 -73 -104 0
73 -74 101 0
73 74 -101 0
-73 74 101 0
-73 -74 -101 0
74 75 -76 0
74 -75 76 0
-74 -75 -76 0
-74 75 76 0
75 -61 -66 0
-75 61 0
-75 66 0
76 77 -78 0
76 -77 78 0
-76 -77 -78 0
-76 77 78 0
77 -53 -60 0
-77 53 0
-77 60 0
78 79 -90 0
78 -79 90 0
-78 -79 -90 0
-78 79 90 0
79 80 -81 0
79 -80 81 0
-79 -80 -81 0
-79 80 81 0
80 -833 -851 0
-80 833 0
-80 851 0
81 -82 87 0
81 82 -87 0
-81 82 87 0
-81 -82 -87 0
82 83 -86 0
82 -83 86 0
-82 -83 -86 0
-82 83 86 0
83 84 -85 0
83 -84 85 0
-83 -84 -85 0
-83 84 85 0
84 -834 -850 0
-84 834 0
-84 850 0
85 -835 -849 0
-85 835 0
-85 849 0
86 -836 -848 0
-86 836 0
-86 848 0
-87 88 89 0
87 -88 0
87 -89 0
88 -833 -834 -849 -850 0
-88 850 0
-88 833 0
-88 849 0
-88 834 0
89 -835 -848 -56 0
-89 835 0
-89 848 0
-89 56 0
90 -91 98 0
90 91 -98 0
-90 91 98 0
-90 -91 -98 0
91 92 -93 0
91 -92 93 0
-91 -92 -93 0
-91 92 93 0
92 -54 -55 0
-92 54 0
-92 55 0
93 94 -97 0
93 -94 97 0
-93 -94 -97 0
-93 94 97 0
94 95 -96 0
94 -95 96 0
-94 -95 -96 0
-94 95 96 0
95 -837 -847 0
-95 837 0
-95 847 0
96 -838 -846 0
-96 838 0
-96 846 0
97 -839 -845 0
-97 839 0
-97 845 0
-98 99 100 0
98 -99 0
98 -100 0
99 -836 -837 -846 -847 0
-99 847 0
-99 836 0
-99 846 0
-99 837 0
100 -838 -845 -62 0
-100 838 0
-100 845 0
-100 62 0
-101 102 103 0
101 -102 0
101 -103 0
102 -51 -52 0
-102 51 0
-102 52 0
103 -49 -50 0
-103 49 0
-103 50 0
-104 105 106 0
104 -105 0
104 -106 0
105 -48 -69 0
-105 48 0
-105 69 0
106 -46 -47 0
-106 46 0
-106 47 0
107 -108 145 0
107 108 -145 0
-107 108 145 0
-107 -108 -145 0
108 -109 142 0
108 109 -142 0
-108 109 142 0
-108 -109 -142 0
109 -110 139 0
109 110 -139 0
-109 110 139 0
-109 -110 -139 0
110 111 -112 0
110 -111 112 0
-110 -111 -112 0
-110 111 112 0
111 -79 -90 0
-111 79 0
-111 90 0
112 113 -128 0
112 -113 128 0
-112 -113 -128 0
-112 113 128 0
113 114 -115 0
113 -114 115 0
-113 -114 -115 0
-113 114 115 0
114 -833 -851 -81 0
-114 833 0
-114 851 0
-114 81 0
115 116 -119 0
115 -116 119 0
-115 -116 -119 0
-115 116 119 0
116 117 -118 0
116 -117 118 0
-116 -117 -118 0
-116 117 118 0
117 -833 -852 0
-117 833 0
-117 852 0
118 -834 -851 0
-118 834 0
-118 851 0
119 -120 125 0
119 120 -125 0
-119 120 125 0
-119 -120 -125 0
120 121 -124 0
120 -121 124 0
-120 -121 -124 0
-120 121 124 0
121 122 -123 0
121 -122 123 0
-121 -122 -123 0
-121 122 123 0
122 -835 -850 0
-122 835 0
-122 850 0
123 -836 -849 0
-123 836 0
-123 849 0
124 -837 -848 0
-124 837 0
-124 848 0
-125 126 127 0
125 -126 0
125 -127 0
126 -834 -835 -849 -850 0
-126 850 0
-126 834 0
-126 849 0
-126 835 0
127 -836 -848 -83 0
-127 836 0
-127 848 0
-127 83 0
128 -129 136 0
128 129 -136 0
-128 129 136 0
-128 -129 -136 0
129 130 -131 0
129 -130 131 0
-129 -130 -131 0
-129 130 131 0
130 -82 -87 0
-130 82 0
-130 87 0
131 132 -135 0
131 -132 135 0
-131 -132 -135 0
-131 132 135 0
132 133 -134 0
132 -133 134 0
-132 -133 -134 0
-132 133 134 0
133 -838 -847 0
-133 838 0
-133 847 0
134 -839 -846 0
-134 839 0
-134 846 0
135 -840 -845 0
-135 840 0
-135 845 0
-136 137 138 0
136 -137 0
136 -138 0
137 -837 -838 -846 -847 0
-137 847 0
-137 837 0
-137 846 0
-137 838 0
138 -839 -845 -94 0
-138 839 0
-138 845 0
-138 94 0
-139 140 141 0
139 -140 0
139 -141 0
140 -92 -93 0
-140 92 0
-140 93 0
141 -91 -98 0
-141 91 0
-141 98 0
-142 143 144 0
142 -143 0
142 -144 0
143 -77 -78 0
-143 77 0
-143 78 0
144 -75 -76 0
-144 75 0
-144 76 0
-145 146 147 0
145 -146 0
145 -147 0
146 -74 -101 0
-146 74 0
-146 101 0
147 -73 -104 0
-147 73 0
-147 104 0
148 -149 192 0
148 149 -192 0
-148 149 192 0
-148 -149 -192 0
149 -150 189 0
149 150 -189 0
-149 150 189 0
-149 -150 -189 0
150 -151 186 0
150 151 -186 0
-150 151 186 0
-150 -151 -186 0
151 -152 183 0
151 152 -183 0
-151 152 183 0
-151 -152 -183 0
152 153 -172 0
152 -153 172 0
-152 -153 -172 0
-152 153 172 0
153 154 -155 0
153 -154 155 0
-153 -154 -155 0
-153 154 155 0
154 -116 -119 0
-154 116 0
-154 119 0
155 156 -161 0
155 -156 161 0
-155 -156 -161 0
-155 156 161 0
156 157 -160 0
156 -157 160 0
-156 -157 -160 0
-156 157 160 0
157 158 -159 0
157 -158 159 0
-157 -158 -159 0
-157 158 159 0
158 -833 -853 0
-158 833 0
-158 853 0
159 -834 -852 0
-159 834 0
-159 852 0
160 -835 -851 0
-160 835 0
-160 851 0
161 -162 169 0
161 162 -169 0
-161 162 169 0
-161 -162 -169 0
162 163 -164 0
162 -163 164 0
-162 -163 -164 0
-162 163 164 0
163 -833 -834 -851 -852 0
-163 852 0
-163 833 0
-163 851 0
-163 834 0
164 165 -168 0
164 -165 168 0
-164 -165 -168 0
-164 165 168 0
165 166 -167 0
165 -166 167 0
-165 -166 -167 0
-165 166 167 0
166 -836 -850 0
-166 836 0
-166 850 0
167 -837 -849 0
-167 837 0
-167 849 0
168 -838 -848 0
-168 838 0
-168 848 0
-169 170 171 0
169 -170 0
169 -171 0
170 -835 -836 -849 -850 0
-170 850 0
-170 835 0
-170 849 0
-170 836 0
171 -837 -848 -121 0
-171 837 0
-171 848 0
-171 121 0
172 -173 180 0
172 173 -180 0
-172 173 180 0
-172 -173 -180 0
173 174 -175 0
173 -174 175 0
-173 -174 -175 0
-173 174 175 0
174 -120 -125 0
-174 120 0
-174 125 0
175 176 -179 0
175 -176 179 0
-175 -176 -179 0
-175 176 179 0
176 177 -178 0
176 -177 178 0
-176 -177 -178 0
-176 177 178 0
177 -839 -847 0
-177 839 0
-177 847 0
178 -840 -846 0
-178 840 0
-178 846 0
179 -841 -845 0
-179 841 0
-179 845 0
-180 181 182 0
180 -181 0
180 -182 0
181 -838 -839 -846 -847 0
-181 847 0
-181 838 0
-181 846 0
-181 839 0
182 -840 -845 -132 0
-182 840 0
-182 845 0
-182 132 0
-183 184 185 0
183 -184 0
183 -185 0
184 -114 -115 0
-184 114 0
-184 115 0
185 -113 -128 0
-185 113 0
-185 128 0
-186 187 188 0
186 -187 0
186 -188 0
187 -130 -131 0
-187 130 0
-187 131 0
188 -129 -136 0
-188 129 0
-188 136 0
-189 190 191 0
189 -190 0
189 -191 0
190 -111 -112 0
-190 111 0
-190 112 0
191 -110 -139 0
-191 110 0
-191 139 0
-192 73 193 0
-192 104 193 0
-192 108 193 0
192 -193 0
192 -73 -104 -108 0
-193 194 108 0
-193 146 194 0
193 -194 0
193 -146 -108 0
194 -109 -142 0
-194 109 0
-194 142 0
195 -196 245 0
195 196 -245 0
-195 196 245 0
-195 -196 -245 0
196 -197 242 0
196 197 -242 0
-196 197 242 0
-196 -197 -242 0
197 -198 239 0
197 198 -239 0
-197 198 239 0
-197 -198 -239 0
198 -199 236 0
198 199 -236 0
-198 199 236 0
-198 -199 -236 0
199 200 -223 0
199 -200 223 0
-199 -200 -223 0
-199 200 223 0
200 201 -202 0
200 -201 202 0
-200 -201 -202 0
-200 201 202 0
201 -156 -161 0
-201 156 0
-201 161 0
202 203 -210 0
202 -203 210 0
-202 -203 -210 0
-202 203 210 0
203 204 -205 0
203 -204 205 0
-203 -204 -205 0
-203 204 205 0
204 -833 -854 0
-204 833 0
-204 854 0
205 206 -209 0
205 -206 209 0
-205 -206 -209 0
-205 206 209 0
206 207 -208 0
206 -207 208 0
-206 -207 -208 0
-206 207 208 0
207 -834 -853 0
-207 834 0
-207 853 0
208 -835 -852 0
-208 835 0
-208 852 0
209 -836 -851 0
-209 836 0
-209 851 0
210 -211 220 0
210 211 -220 0
-210 211 220 0
-210 -211 -220 0
211 212 -215 0
211 -212 215 0
-211 -212 -215 0
-211 212 215 0
-212 213 214 0
212 -213 0
212 -214 0
213 -833 -834 -852 -853 0
-213 853 0
-213 833 0
-213 852 0
-213 834 0
214 -835 -851 -157 0
-214 835 0
-214 851 0
-214 157 0
215 216 -219 0
215 -216 219 0
-215 -216 -219 0
-215 216 219 0
216 217 -218 0
216 -217 218 0
-216 -217 -218 0
-216 217 218 0
217 -837 -850 0
-217 837 0
-217 850 0
218 -838 -849 0
-218 838 0
-218 849 0
219 -839 -848 0
-219 839 0
-219 848 0
-220 221 222 0
220 -221 0
220 -222 0
221 -836 -837 -849 -850 0
-221 850 0
-221 836 0
-221 849 0
-221 837 0
222 -838 -848 -165 0
-222 838 0
-222 848 0
-222 165 0
223 -224 233 0
223 224 -233 0
-223 224 233 0
-223 -224 -233 0
224 225 -228 0
224 -225 228 0
-224 -225 -228 0
-224 225 228 0
-225 226 227 0
225 -226 0
225 -227 0
226 -163 -164 0
-226 163 0
-226 164 0
227 -162 -169 0
-227 162 0
-227 169 0
228 229 -232 0
228 -229 232 0
-228 -229 -232 0
-228 229 232 0
229 230 -231 0
229 -230 231 0
-229 -230 -231 0
-229 230 231 0
230 -840 -847 0
-230 840 0
-230 847 0
231 -841 -846 0
-231 841 0
-231 846 0
232 -842 -845 0
-232 842 0
-232 845 0
-233 234 235 0
233 -234 0
233 -235 0
234 -839 -840 -846 -847 0
-234 847 0
-234 839 0
-234 846 0
-234 840 0
235 -841 -845 -176 0
-235 841 0
-235 845 0
-235 176 0
-236 237 238 0
236 -237 0
236 -238 0
237 -154 -155 0
-237 154 0
-237 155 0
238 -153 -172 0
-238 153 0
-238 172 0
-239 240 241 0
239 -240 0
239 -241 0
240 -174 -175 0
-240 174 0
-240 175 0
241 -173 -180 0
-241 173 0
-241 180 0
-242 243 244 0
242 -243 0
242 -244 0
243 -152 -183 0
-243 152 0
-243 183 0
244 -151 -186 0
-244 151 0
-244 186 0
-245 246 247 0
245 -246 0
245 -247 0
246 -150 -189 0
-246 150 0
-246 189 0
247 -149 -192 0
-247 149 0
-247 192 0
248 -249 302 0
248 249 -302 0
-248 249 302 0
-248 -249 -302 0
249 -250 299 0
249 250 -299 0
-249 250 299 0
-249 -250 -299 0
250 -251 296 0
250 251 -296 0
-250 251 296 0
-250 -251 -296 0
251 -252 293 0
251 252 -293 0
-251 252 293 0
-251 -252 -293 0
252 253 -280 0
252 -253 280 0
-252 -253 -280 0
-252 253 280 0
253 254 -255 0
253 -254 255 0
-253 -254 -255 0
-253 254 255 0
254 -203 -210 0
-254 203 0
-254 210 0
255 256 -267 0
255 -256 267 0
-255 -256 -267 0
-255 256 267 0
256 257 -258 0
256 -257 258 0
-256 -257 -258 0
-256 257 258 0
257 -833 -854 -205 0
-257 833 0
-257 854 0
-257 205 0
258 259 -262 0
258 -259 262 0
-258 -259 -262 0
-258 259 262 0
259 260 -261 0
259 -260 261 0
-259 -260 -261 0
-259 260 261 0
260 -833 -855 0
-260 833 0
-260 855 0
261 -834 -854 0
-261 834 0
-261 854 0
262 263 -266 0
262 -263 266 0
-262 -263 -266 0
-262 263 266 0
263 264 -265 0
263 -264 265 0
-263 -264 -265 0
-263 264 265 0
264 -835 -853 0
-264 835 0
-264 853 0
265 -836 -852 0
-265 836 0
-265 852 0
266 -837 -851 0
-266 837 0
-266 851 0
267 -268 277 0
267 268 -277 0
-267 268 277 0
-267 -268 -277 0
268 269 -272 0
268 -269 272 0
-268 -269 -272 0
-268 269 272 0
-269 270 271 0
269 -270 0
269 -271 0
270 -834 -835 -852 -853 0
-270 853 0
-270 834 0
-270 852 0
-270 835 0
271 -836 -851 -206 0
-271 836 0
-271 851 0
-271 206 0
272 273 -276 0
272 -273 276 0
-272 -273 -276 0
-272 273 276 0
273 274 -275 0
273 -274 275 0
-273 -274 -275 0
-273 274 275 0
274 -838 -850 0
-274 838 0
-274 850 0
275 -839 -849 0
-275 839 0
-275 849 0
276 -840 -848 0
-276 840 0
-276 848 0
-277 278 279 0
277 -278 0
277 -279 0
278 -837 -838 -849 -850 0
-278 850 0
-278 837 0
-278 849 0
-278 838 0
279 -839 -848 -216 0
-279 839 0
-279 848 0
-279 216 0
280 -281 290 0
280 281 -290 0
-280 281 290 0
-280 -281 -290 0
281 282 -285 0
281 -282 285 0
-281 -282 -285 0
-281 282 285 0
-282 283 284 0
282 -283 0
282 -284 0
283 -212 -215 0
-283 212 0
-283 215 0
284 -211 -220 0
-284 211 0
-284 220 0
285 286 -289 0
285 -286 289 0
-285 -286 -289 0
-285 286 289 0
286 287 -288 0
286 -287 288 0
-286 -287 -288 0
-286 287 288 0
287 -841 -847 0
-287 841 0
-287 847 0
288 -842 -846 0
-288 842 0
-288 846 0
289 -843 -845 0
-289 843 0
-289 845 0
-290 291 292 0
290 -291 0
290 -292 0
291 -840 -841 -846 -847 0
-291 847 0
-291 840 0
-291 846 0
-291 841 0
292 -842 -845 -229 0
-292 842 0
-292 845 0
-292 229 0
-293 294 295 0
293 -294 0
293 -295 0
294 -201 -202 0
-294 201 0
-294 202 0
295 -200 -223 0
-295 200 0
-295 223 0
-296 297 298 0
296 -297 0
296 -298 0
297 -225 -228 0
-297 225 0
-297 228 0
298 -224 -233 0
-298 224 0
-298 233 0
-299 300 301 0
299 -300 0
299 -301 0
300 -199 -236 0
-300 199 0
-300 236 0
301 -198 -239 0
-301 198 0
-301 239 0
-302 192 303 0
-302 303 305 0
302 -303 0
302 -192 -305 0
-303 304 196 0
-303 246 304 0
303 -304 0
303 -246 -196 0
304 -197 -242 0
-304 197 0
-304 242 0
305 -149 -196 0
-305 149 0
-305 196 0
306 -307 366 0
306 307 -366 0
-306 307 366 0
-306 -307 -366 0
307 -308 363 0
307 308 -363 0
-307 308 363 0
-307 -308 -363 0
308 -309 360 0
308 309 -360 0
-308 309 360 0
-308 -309 -360 0
309 -310 357 0
309 310 -357 0
-309 310 357 0
-309 -310 -357 0
310 311 -344 0
310 -311 344 0
-310 -311 -344 0
-310 311 344 0
311 -312 341 0
311 312 -341 0
-311 312 341 0
-311 -312 -341 0
312 313 -328 0
312 -313 328 0
-312 -313 -328 0
-312 313 328 0
313 314 -315 0
313 -314 315 0
-313 -314 -315 0
-313 314 315 0
314 -259 -262 0
-314 259 0
-314 262 0
315 316 -323 0
315 -316 323 0
-315 -316 -323 0
-315 316 323 0
316 317 -318 0
316 -317 318 0
-316 -317 -318 0
-316 317 318 0
317 -833 -834 -854 -855 0
-317 855 0
-317 833 0
-317 854 0
-317 834 0
318 319 -322 0
318 -319 322 0
-318 -319 -322 0
-318 319 322 0
319 320 -321 0
319 -320 321 0
-319 -320 -321 0
-319 320 321 0
320 -833 -856 0
-320 833 0
-320 856 0
321 -834 -855 0
-321 834 0
-321 855 0
322 -835 -854 0
-322 835 0
-322 854 0
323 324 -327 0
323 -324 327 0
-323 -324 -327 0
-323 324 327 0
324 325 -326 0
324 -325 326 0
-324 -325 -326 0
-324 325 326 0
325 -836 -853 0
-325 836 0
-325 853 0
326 -837 -852 0
-326 837 0
-326 852 0
327 -838 -851 0
-327 838 0
-327 851 0
328 -329 338 0
328 329 -338 0
-328 329 338 0
-328 -329 -338 0
329 330 -333 0
329 -330 333 0
-329 -330 -333 0
-329 330 333 0
-330 331 332 0
330 -331 0
330 -332 0
331 -835 -836 -852 -853 0
-331 853 0
-331 835 0
-331 852 0
-331 836 0
332 -837 -851 -263 0
-332 837 0
-332 851 0
-332 263 0
333 334 -337 0
333 -334 337 0
-333 -334 -337 0
-333 334 337 0
334 335 -336 0
334 -335 336 0
-334 -335 -336 0
-334 335 336 0
335 -839 -850 0
-335 839 0
-335 850 0
336 -840 -849 0
-336 840 0
-336 849 0
337 -841 -848 0
-337 841 0
-337 848 0
-338 339 340 0
338 -339 0
338 -340 0
339 -838 -839 -849 -850 0
-339 850 0
-339 838 0
-339 849 0
-339 839 0
340 -840 -848 -273 0
-340 840 0
-340 848 0
-340 273 0
-341 342 343 0
341 -342 0
341 -343 0
342 -257 -258 0
-342 257 0
-342 258 0
343 -256 -267 0
-343 256 0
-343 267 0
344 -345 354 0
344 345 -354 0
-344 345 354 0
-344 -345 -354 0
345 346 -349 0
345 -346 349 0
-345 -346 -349 0
-345 346 349 0
-346 347 348 0
346 -347 0
346 -348 0
347 -269 -272 0
-347 269 0
-347 272 0
348 -268 -277 0
-348 268 0
-348 277 0
349 350 -353 0
349 -350 353 0
-349 -350 -353 0
-349 350 353 0
350 351 -352 0
350 -351 352 0
-350 -351 -352 0
-350 351 352 0
351 -842 -847 0
-351 842 0
-351 847 0
352 -843 -846 0
-352 843 0
-352 846 0
353 -844 -845 0
-353 844 0
-353 845 0
-354 355 356 0
354 -355 0
354 -356 0
355 -841 -842 -846 -847 0
-355 847 0
-355 841 0
-355 846 0
-355 842 0
356 -843 -845 -286 0
-356 843 0
-356 845 0
-356 286 0
-357 358 359 0
357 -358 0
357 -359 0
358 -254 -255 0
-358 254 0
-358 255 0
359 -253 -280 0
-359 253 0
-359 280 0
-360 361 362 0
360 -361 0
360 -362 0
361 -282 -285 0
-361 282 0
-361 285 0
362 -281 -290 0
-362 281 0
-362 290 0
-363 364 365 0
363 -364 0
363 -365 0
364 -252 -293 0
-364 252 0
-364 293 0
365 -251 -296 0
-365 251 0
-365 296 0
-366 367 368 0
366 -367 0
366 -368 0
367 -250 -299 0
-367 250 0
-367 299 0
368 -249 -302 0
-368 249 0
-368 302 0
369 -370 431 0
369 370 -431 0
-369 370 431 0
-369 -370 -431 0
370 -371 428 0
370 371 -428 0
-370 371 428 0
-370 -371 -428 0
371 -372 425 0
371 372 -425 0
-371 372 425 0
-371 -372 -425 0
372 -373 422 0
372 373 -422 0
-372 373 422 0
-372 -373 -422 0
373 374 -411 0
373 -374 411 0
-373 -374 -411 0
-373 374 411 0
374 -375 408 0
374 375 -408 0
-374 375 408 0
-374 -375 -408 0
375 376 -395 0
375 -376 395 0
-375 -376 -395 0
-375 376 395 0
376 -377 392 0
376 377 -392 0
-376 377 392 0
-376 -377 -392 0
377 378 -387 0
377 -378 387 0
-377 -378 -387 0
-377 378 387 0
378 -379 384 0
378 379 -384 0
-378 379 384 0
-378 -379 -384 0
379 380 -383 0
379 -380 383 0
-379 -380 -383 0
-379 380 383 0
380 381 -382 0
380 -381 382 0
-380 -381 -382 0
-380 381 382 0
381 -834 -856 0
-381 834 0
-381 856 0
382 -835 -855 0
-382 835 0
-382 855 0
383 -836 -854 0
-383 836 0
-383 854 0
-384 385 386 0
384 -385 0
384 -386 0
385 -833 -834 -855 -856 0
-385 856 0
-385 833 0
-385 855 0
-385 834 0
386 -835 -854 -319 0
-386 835 0
-386 854 0
-386 319 0
387 388 -391 0
387 -388 391 0
-387 -388 -391 0
-387 388 391 0
388 389 -390 0
388 -389 390 0
-388 -389 -390 0
-388 389 390 0
389 -837 -853 0
-389 837 0
-389 853 0
390 -838 -852 0
-390 838 0
-390 852 0
391 -839 -851 0
-391 839 0
-391 851 0
-392 393 394 0
392 -393 0
392 -394 0
393 -317 -318 0
-393 317 0
-393 318 0
394 -316 -323 0
-394 316 0
-394 323 0
395 -396 405 0
395 396 -405 0
-395 396 405 0
-395 -396 -405 0
396 397 -400 0
396 -397 400 0
-396 -397 -400 0
-396 397 400 0
-397 398 399 0
397 -398 0
397 -399 0
398 -836 -837 -852 -853 0
-398 853 0
-398 836 0
-398 852 0
-398 837 0
399 -838 -851 -324 0
-399 838 0
-399 851 0
-399 324 0
400 401 -404 0
400 -401 404 0
-400 -401 -404 0
-400 401 404 0
401 402 -403 0
401 -402 403 0
-401 -402 -403 0
-401 402 403 0
402 -840 -850 0
-402 840 0
-402 850 0
403 -841 -849 0
-403 841 0
-403 849 0
404 -842 -848 0
-404 842 0
-404 848 0
-405 406 407 0
405 -406 0
405 -407 0
406 -839 -840 -849 -850 0
-406 850 0
-406 839 0
-406 849 0
-406 840 0
407 -841 -848 -334 0
-407 841 0
-407 848 0
-407 334 0
-408 409 410 0
408 -409 0
408 -410 0
409 -314 -315 0
-409 314 0
-409 315 0
410 -313 -328 0
-410 313 0
-410 328 0
411 -412 419 0
411 412 -419 0
-411 412 419 0
-411 -412 -419 0
412 413 -416 0
412 -413 416 0
-412 -413 -416 0
-412 413 416 0
-413 414 415 0
413 -414 0
413 -415 0
414 -330 -333 0
-414 330 0
-414 333 0
415 -329 -338 0
-415 329 0
-415 338 0
416 417 -418 0
416 -417 418 0
-416 -417 -418 0
-416 417 418 0
417 -843 -847 0
-417 843 0
-417 847 0
418 -844 -846 0
-418 844 0
-418 846 0
-419 420 421 0
419 -420 0
419 -421 0
420 -842 -843 -846 -847 0
-420 847 0
-420 842 0
-420 846 0
-420 843 0
421 -844 -845 -350 0
-421 844 0
-421 845 0
-421 350 0
-422 423 424 0
422 -423 0
422 -424 0
423 -312 -341 0
-423 312 0
-423 341 0
424 -311 -344 0
-424 311 0
-424 344 0
-425 426 427 0
425 -426 0
425 -427 0
426 -346 -349 0
-426 346 0
-426 349 0
427 -345 -354 0
-427 345 0
-427 354 0
-428 429 430 0
428 -429 0
428 -430 0
429 -310 -357 0
-429 310 0
-429 357 0
430 -309 -360 0
-430 309 0
-430 360 0
-431 192 432 0
-431 432 436 0
431 -432 0
431 -192 -436 0
-432 367 433 434 0
-432 433 307 434 0
432 -434 0
432 -433 0
432 -367 -307 0
433 -308 -363 0
-433 308 0
-433 363 0
434 -303 -435 0
-434 303 0
-434 435 0
435 -249 -307 0
-435 249 0
-435 307 0
436 -305 -435 0
-436 305 0
-436 435 0
437 -438 495 0
437 438 -495 0
-437 438 495 0
-437 -438 -495 0
438 -439 492 0
438 439 -492 0
-438 439 492 0
-438 -439 -492 0
439 -440 489 0
439 440 -489 0
-439 440 489 0
-439 -440 -489 0
440 -441 486 0
440 441 -486 0
-440 441 486 0
-440 -441 -486 0
441 442 -479 0
441 -442 479 0
-441 -442 -479 0
-441 442 479 0
442 -443 476 0
442 443 -476 0
-442 443 476 0
-442 -443 -476 0
443 444 -463 0
443 -444 463 0
-443 -444 -463 0
-443 444 463 0
444 -445 460 0
444 445 -460 0
-444 445 460 0
-444 -445 -460 0
445 446 -455 0
445 -446 455 0
-445 -446 -455 0
-445 446 455 0
446 -447 452 0
446 447 -452 0
-446 447 452 0
-446 -447 -452 0
447 448 -451 0
447 -448 451 0
-447 -448 -451 0
-447 448 451 0
448 449 -450 0
448 -449 450 0
-448 -449 -450 0
-448 449 450 0
449 -835 -856 0
-449 835 0
-449 856 0
450 -836 -855 0
-450 836 0
-450 855 0
451 -837 -854 0
-451 837 0
-451 854 0
-452 453 454 0
452 -453 0
452 -454 0
453 -834 -835 -855 -856 0
-453 856 0
-453 834 0
-453 855 0
-453 835 0
454 -836 -854 -380 0
-454 836 0
-454 854 0
-454 380 0
455 456 -459 0
455 -456 459 0
-455 -456 -459 0
-455 456 459 0
456 457 -458 0
456 -457 458 0
-456 -457 -458 0
-456 457 458 0
457 -838 -853 0
-457 838 0
-457 853 0
458 -839 -852 0
-458 839 0
-458 852 0
459 -840 -851 0
-459 840 0
-459 851 0
-460 461 462 0
460 -461 0
460 -462 0
461 -379 -384 0
-461 379 0
-461 384 0
462 -378 -387 0
-462 378 0
-462 387 0
463 -464 473 0
463 464 -473 0
-463 464 473 0
-463 -464 -473 0
464 465 -468 0
464 -465 468 0
-464 -465 -468 0
-464 465 468 0
-465 466 467 0
465 -466 0
465 -467 0
466 -837 -838 -852 -853 0
-466 853 0
-466 837 0
-466 852 0
-466 838 0
467 -839 -851 -388 0
-467 839 0
-467 851 0
-467 388 0
468 469 -472 0
468 -469 472 0
-468 -469 -472 0
-468 469 472 0
469 470 -471 0
469 -470 471 0
-469 -470 -471 0
-469 470 471 0
470 -841 -850 0
-470 841 0
-470 850 0
471 -842 -849 0
-471 842 0
-471 849 0
472 -843 -848 0
-472 843 0
-472 848 0
-473 474 475 0
473 -474 0
473 -475 0
474 -840 -841 -849 -850 0
-474 850 0
-474 840 0
-474 849 0
-474 841 0
475 -842 -848 -401 0
-475 842 0
-475 848 0
-475 401 0
-476 477 478 0
476 -477 0
476 -478 0
477 -377 -392 0
-477 377 0
-477 392 0
478 -376 -395 0
-478 376 0
-478 395 0
479 480 -481 0
479 -480 481 0
-479 -480 -481 0
-479 480 481 0
480 -843 -844 -846 -847 0
-480 847 0
-480 843 0
-480 846 0
-480 844 0
481 482 -485 0
481 -482 485 0
-481 -482 -485 0
-481 482 485 0
-482 483 484 0
482 -483 0
482 -484 0
483 -397 -400 0
-483 397 0
-483 400 0
484 -396 -405 0
-484 396 0
-484 405 0
485 -844 -847 0
-485 844 0
-485 847 0
-486 487 488 0
486 -487 0
486 -488 0
487 -375 -408 0
-487 375 0
-487 408 0
488 -374 -411 0
-488 374 0
-488 411 0
-489 490 491 0
489 -490 0
489 -491 0
490 -413 -416 0
-490 413 0
-490 416 0
491 -412 -419 0
-491 412 0
-491 419 0
-492 493 494 0
492 -493 0
492 -494 0
493 -373 -422 0
-493 373 0
-493 422 0
494 -372 -425 0
-494 372 0
-494 425 0
-495 496 497 0
495 -496 0
495 -497 0
496 -371 -428 0
-496 371 0
-496 428 0
497 -370 -431 0
-497 370 0
-497 431 0
498 -499 552 0
498 499 -552 0
-498 499 552 0
-498 -499 -552 0
499 -500 549 0
499 500 -549 0
-499 500 549 0
-499 -500 -549 0
500 -501 546 0
500 501 -546 0
-500 501 546 0
-500 -501 -546 0
501 -502 543 0
501 502 -543 0
-501 502 543 0
-501 -502 -543 0
502 -503 540 0
502 503 -540 0
-502 503 540 0
-502 -503 -540 0
503 -504 537 0
503 504 -537 0
-503 504 537 0
-503 -504 -537 0
504 505 -524 0
504 -505 524 0
-504 -505 -524 0
-504 505 524 0
505 -506 521 0
505 506 -521 0
-505 506 521 0
-505 -506 -521 0
506 507 -516 0
506 -507 516 0
-506 -507 -516 0
-506 507 516 0
507 -508 513 0
507 508 -513 0
-507 508 513 0
-507 -508 -513 0
508 509 -512 0
508 -509 512 0
-508 -509 -512 0
-508 509 512 0
509 510 -511 0
509 -510 511 0
-509 -510 -511 0
-509 510 511 0
510 -836 -856 0
-510 836 0
-510 856 0
511 -837 -855 0
-511 837 0
-511 855 0
512 -838 -854 0
-512 838 0
-512 854 0
-513 514 515 0
513 -514 0
513 -515 0
514 -835 -836 -855 -856 0
-514 856 0
-514 835 0
-514 855 0
-514 836 0
515 -837 -854 -448 0
-515 837 0
-515 854 0
-515 448 0
516 517 -520 0
516 -517 520 0
-516 -517 -520 0
-516 517 520 0
517 518 -519 0
517 -518 519 0
-517 -518 -519 0
-517 518 519 0
518 -839 -853 0
-518 839 0
-518 853 0
519 -840 -852 0
-519 840 0
-519 852 0
520 -841 -851 0
-520 841 0
-520 851 0
-521 522 523 0
521 -522 0
521 -523 0
522 -447 -452 0
-522 447 0
-522 452 0
523 -446 -455 0
-523 446 0
-523 455 0
524 -525 534 0
524 525 -534 0
-524 525 534 0
-524 -525 -534 0
525 526 -529 0
525 -526 529 0
-525 -526 -529 0
-525 526 529 0
-526 527 528 0
526 -527 0
526 -528 0
527 -838 -839 -852 -853 0
-527 853 0
-527 838 0
-527 852 0
-527 839 0
528 -840 -851 -456 0
-528 840 0
-528 851 0
-528 456 0
529 530 -533 0
529 -530 533 0
-529 -530 -533 0
-529 530 533 0
530 531 -532 0
530 -531 532 0
-530 -531 -532 0
-530 531 532 0
531 -842 -850 0
-531 842 0
-531 850 0
532 -843 -849 0
-532 843 0
-532 849 0
533 -844 -848 0
-533 844 0
-533 848 0
-534 535 536 0
534 -535 0
534 -536 0
535 -841 -842 -849 -850 0
-535 850 0
-535 841 0
-535 849 0
-535 842 0
536 -843 -848 -469 0
-536 843 0
-536 848 0
-536 469 0
-537 538 539 0
537 -538 0
537 -539 0
538 -445 -460 0
-538 445 0
-538 460 0
539 -444 -463 0
-539 444 0
-539 463 0
-540 541 542 0
540 -541 0
540 -542 0
541 -465 -468 0
-541 465 0
-541 468 0
542 -464 -473 0
-542 464 0
-542 473 0
-543 544 545 0
543 -544 0
543 -545 0
544 -443 -476 0
-544 443 0
-544 476 0
545 -442 -479 0
-545 442 0
-545 479 0
-546 547 548 0
546 -547 0
546 -548 0
547 -844 -847 -482 0
-547 844 0
-547 847 0
-547 482 0
548 -480 -481 0
-548 480 0
-548 481 0
-549 550 551 0
549 -550 0
549 -551 0
550 -441 -486 0
-550 441 0
-550 486 0
551 -440 -489 0
-551 440 0
-551 489 0
-552 431 553 0
-552 553 555 0
552 -553 0
552 -431 -555 0
-553 554 438 0
-553 496 554 0
553 -554 0
553 -496 -438 0
554 -439 -492 0
-554 439 0
-554 492 0
555 -370 -438 0
-555 370 0
-555 438 0
556 -557 604 0
556 557 -604 0
-556 557 604 0
-556 -557 -604 0
557 -558 601 0
557 558 -601 0
-557 558 601 0
-557 -558 -601 0
558 -559 598 0
558 559 -598 0
-558 559 598 0
-558 -559 -598 0
559 -560 595 0
559 560 -595 0
-559 560 595 0
-559 -560 -595 0
560 -561 592 0
560 561 -592 0
-560 561 592 0
-560 -561 -592 0
561 562 -581 0
561 -562 581 0
-561 -562 -581 0
-561 562 581 0
562 -563 578 0
562 563 -578 0
-562 563 578 0
-562 -563 -578 0
563 564 -573 0
563 -564 573 0
-563 -564 -573 0
-563 564 573 0
564 -565 570 0
564 565 -570 0
-564 565 570 0
-564 -565 -570 0
565 566 -569 0
565 -566 569 0
-565 -566 -569 0
-565 566 569 0
566 567 -568 0
566 -567 568 0
-566 -567 -568 0
-566 567 568 0
567 -837 -856 0
-567 837 0
-567 856 0
568 -838 -855 0
-568 838 0
-568 855 0
569 -839 -854 0
-569 839 0
-569 854 0
-570 571 572 0
570 -571 0
570 -572 0
571 -836 -837 -855 -856 0
-571 856 0
-571 836 0
-571 855 0
-571 837 0
572 -838 -854 -509 0
-572 838 0
-572 854 0
-572 509 0
573 574 -577 0
573 -574 577 0
-573 -574 -577 0
-573 574 577 0
574 575 -576 0
574 -575 576 0
-574 -575 -576 0
-574 575 576 0
575 -840 -853 0
-575 840 0
-575 853 0
576 -841 -852 0
-576 841 0
-576 852 0
577 -842 -851 0
-577 842 0
-577 851 0
-578 579 580 0
578 -579 0
578 -580 0
579 -508 -513 0
-579 508 0
-579 513 0
580 -507 -516 0
-580 507 0
-580 516 0
581 -582 589 0
581 582 -589 0
-581 582 589 0
-581 -582 -589 0
582 583 -586 0
582 -583 586 0
-582 -583 -586 0
-582 583 586 0
-583 584 585 0
583 -584 0
583 -585 0
584 -839 -840 -852 -853 0
-584 853 0
-584 839 0
-584 852 0
-584 840 0
585 -841 -851 -517 0
-585 841 0
-585 851 0
-585 517 0
586 587 -588 0
586 -587 588 0
-586 -587 -588 0
-586 587 588 0
587 -843 -850 0
-587 843 0
-587 850 0
588 -844 -849 0
-588 844 0
-588 849 0
-589 590 591 0
589 -590 0
589 -591 0
590 -842 -843 -849 -850 0
-590 850 0
-590 842 0
-590 849 0
-590 843 0
591 -844 -848 -530 0
-591 844 0
-591 848 0
-591 530 0
-592 593 594 0
592 -593 0
592 -594 0
593 -506 -521 0
-593 506 0
-593 521 0
594 -505 -524 0
-594 505 0
-594 524 0
-595 596 597 0
595 -596 0
595 -597 0
596 -526 -529 0
-596 526 0
-596 529 0
597 -525 -534 0
-597 525 0
-597 534 0
-598 599 600 0
598 -599 0
598 -600 0
599 -504 -537 0
-599 504 0
-599 537 0
600 -503 -540 0
-600 503 0
-600 540 0
-601 602 603 0
601 -602 0
601 -603 0
602 -502 -543 0
-602 502 0
-602 543 0
603 -501 -546 0
-603 501 0
-603 546 0
-604 605 606 0
604 -605 0
604 -606 0
605 -500 -549 0
-605 500 0
-605 549 0
606 -499 -552 0
-606 499 0
-606 552 0
607 -608 649 0
607 608 -649 0
-607 608 649 0
-607 -608 -649 0
608 609 -610 0
608 -609 610 0
-608 -609 -610 0
-608 609 610 0
609 -559 -598 0
-609 559 0
-609 598 0
610 -611 646 0
610 611 -646 0
-610 611 646 0
-610 -611 -646 0
611 -612 643 0
611 612 -643 0
-611 612 643 0
-611 -612 -643 0
612 -613 640 0
612 613 -640 0
-612 613 640 0
-612 -613 -640 0
613 614 -633 0
613 -614 633 0
-613 -614 -633 0
-613 614 633 0
614 -615 630 0
614 615 -630 0
-614 615 630 0
-614 -615 -630 0
615 616 -625 0
615 -616 625 0
-615 -616 -625 0
-615 616 625 0
616 -617 622 0
616 617 -622 0
-616 617 622 0
-616 -617 -622 0
617 618 -621 0
617 -618 621 0
-617 -618 -621 0
-617 618 621 0
618 619 -620 0
618 -619 620 0
-618 -619 -620 0
-618 619 620 0
619 -838 -856 0
-619 838 0
-619 856 0
620 -839 -855 0
-620 839 0
-620 855 0
621 -840 -854 0
-621 840 0
-621 854 0
-622 623 624 0
622 -623 0
622 -624 0
623 -837 -838 -855 -856 0
-623 856 0
-623 837 0
-623 855 0
-623 838 0
624 -839 -854 -566 0
-624 839 0
-624 854 0
-624 566 0
625 626 -629 0
625 -626 629 0
-625 -626 -629 0
-625 626 629 0
626 627 -628 0
626 -627 628 0
-626 -627 -628 0
-626 627 628 0
627 -841 -853 0
-627 841 0
-627 853 0
628 -842 -852 0
-628 842 0
-628 852 0
629 -843 -851 0
-629 843 0
-629 851 0
-630 631 632 0
630 -631 0
630 -632 0
631 -565 -570 0
-631 565 0
-631 570 0
632 -564 -573 0
-632 564 0
-632 573 0
633 634 -635 0
633 -634 635 0
-633 -634 -635 0
-633 634 635 0
634 -843 -844 -849 -850 0
-634 850 0
-634 843 0
-634 849 0
-634 844 0
635 636 -639 0
635 -636 639 0
-635 -636 -639 0
-635 636 639 0
-636 637 638 0
636 -637 0
636 -638 0
637 -840 -841 -852 -853 0
-637 853 0
-637 840 0
-637 852 0
-637 841 0
638 -842 -851 -574 0
-638 842 0
-638 851 0
-638 574 0
639 -844 -850 0
-639 844 0
-639 850 0
-640 641 642 0
640 -641 0
640 -642 0
641 -563 -578 0
-641 563 0
-641 578 0
642 -562 -581 0
-642 562 0
-642 581 0
-643 644 645 0
643 -644 0
643 -645 0
644 -583 -586 0
-644 583 0
-644 586 0
645 -582 -589 0
-645 582 0
-645 589 0
-646 647 648 0
646 -647 0
646 -648 0
647 -561 -592 0
-647 561 0
-647 592 0
648 -560 -595 0
-648 560 0
-648 595 0
-649 436 652 0
-649 650 652 0
-649 192 652 0
649 -652 0
649 -192 -436 -650 0
650 -555 -651 0
-650 555 0
-650 651 0
651 -499 -557 0
-651 499 0
-651 557 0
-652 432 653 655 0
-652 653 655 650 0
652 -653 0
652 -655 0
652 -432 -650 0
-653 654 557 0
-653 605 654 0
653 -654 0
653 -605 -557 0
654 -558 -601 0
-654 558 0
-654 601 0
655 -553 -651 0
-655 553 0
-655 651 0
656 -657 694 0
656 657 -694 0
-656 657 694 0
-656 -657 -694 0
657 658 -659 0
657 -658 659 0
-657 -658 -659 0
-657 658 659 0
658 -611 -646 0
-658 611 0
-658 646 0
659 -660 691 0
659 660 -691 0
-659 660 691 0
-659 -660 -691 0
660 -661 688 0
660 661 -688 0
-660 661 688 0
-660 -661 -688 0
661 -662 685 0
661 662 -685 0
-661 662 685 0
-661 -662 -685 0
662 -663 682 0
662 663 -682 0
-662 663 682 0
-662 -663 -682 0
663 -664 679 0
663 664 -679 0
-663 664 679 0
-663 -664 -679 0
664 665 -674 0
664 -665 674 0
-664 -665 -674 0
-664 665 674 0
665 -666 671 0
665 666 -671 0
-665 666 671 0
-665 -666 -671 0
666 667 -670 0
666 -667 670 0
-666 -667 -670 0
-666 667 670 0
667 668 -669 0
667 -668 669 0
-667 -668 -669 0
-667 668 669 0
668 -839 -856 0
-668 839 0
-668 856 0
669 -840 -855 0
-669 840 0
-669 855 0
670 -841 -854 0
-670 841 0
-670 854 0
-671 672 673 0
671 -672 0
671 -673 0
672 -838 -839 -855 -856 0
-672 856 0
-672 838 0
-672 855 0
-672 839 0
673 -840 -854 -618 0
-673 840 0
-673 854 0
-673 618 0
674 675 -678 0
674 -675 678 0
-674 -675 -678 0
-674 675 678 0
675 676 -677 0
675 -676 677 0
-675 -676 -677 0
-675 676 677 0
676 -842 -853 0
-676 842 0
-676 853 0
677 -843 -852 0
-677 843 0
-677 852 0
678 -844 -851 0
-678 844 0
-678 851 0
-679 680 681 0
679 -680 0
679 -681 0
680 -617 -622 0
-680 617 0
-680 622 0
681 -616 -625 0
-681 616 0
-681 625 0
-682 683 684 0
682 -683 0
682 -684 0
683 -841 -842 -852 -853 0
-683 853 0
-683 841 0
-683 852 0
-683 842 0
684 -843 -851 -626 0
-684 843 0
-684 851 0
-684 626 0
-685 686 687 0
685 -686 0
685 -687 0
686 -615 -630 0
-686 615 0
-686 630 0
687 -614 -633 0
-687 614 0
-687 633 0
-688 689 690 0
688 -689 0
688 -690 0
689 -844 -850 -636 0
-689 844 0
-689 850 0
-689 636 0
690 -634 -635 0
-690 634 0
-690 635 0
-691 692 693 0
691 -692 0
691 -693 0
692 -613 -640 0
-692 613 0
-692 640 0
693 -612 -643 0
-693 612 0
-693 643 0
-694 695 696 0
694 -695 0
694 -696 0
695 -609 -610 0
-695 609 0
-695 610 0
696 -608 -649 0
-696 608 0
-696 649 0
697 -698 729 0
697 698 -729 0
-697 698 729 0
-697 -698 -729 0
698 699 -700 0
698 -699 700 0
-698 -699 -700 0
-698 699 700 0
699 -660 -691 0
-699 660 0
-699 691 0
700 -701 726 0
700 701 -726 0
-700 701 726 0
-700 -701 -726 0
701 -702 723 0
701 702 -723 0
-701 702 723 0
-701 -702 -723 0
702 -703 720 0
702 703 -720 0
-702 703 720 0
-702 -703 -720 0
703 -704 717 0
703 704 -717 0
-703 704 717 0
-703 -704 -717 0
704 705 -714 0
704 -705 714 0
-704 -705 -714 0
-704 705 714 0
705 -706 711 0
705 706 -711 0
-705 706 711 0
-705 -706 -711 0
706 707 -710 0
706 -707 710 0
-706 -707 -710 0
-706 707 710 0
707 708 -709 0
707 -708 709 0
-707 -708 -709 0
-707 708 709 0
708 -840 -856 0
-708 840 0
-708 856 0
709 -841 -855 0
-709 841 0
-709 855 0
710 -842 -854 0
-710 842 0
-710 854 0
-711 712 713 0
711 -712 0
711 -713 0
712 -839 -840 -855 -856 0
-712 856 0
-712 839 0
-712 855 0
-712 840 0
713 -841 -854 -667 0
-713 841 0
-713 854 0
-713 667 0
714 715 -716 0
714 -715 716 0
-714 -715 -716 0
-714 715 716 0
715 -843 -853 0
-715 843 0
-715 853 0
716 -844 -852 0
-716 844 0
-716 852 0
-717 718 719 0
717 -718 0
717 -719 0
718 -666 -671 0
-718 666 0
-718 671 0
719 -665 -674 0
-719 665 0
-719 674 0
-720 721 722 0
720 -721 0
720 -722 0
721 -842 -843 -852 -853 0
-721 853 0
-721 842 0
-721 852 0
-721 843 0
722 -844 -851 -675 0
-722 844 0
-722 851 0
-722 675 0
-723 724 725 0
723 -724 0
723 -725 0
724 -664 -679 0
-724 664 0
-724 679 0
725 -663 -682 0
-725 663 0
-725 682 0
-726 727 728 0
726 -727 0
726 -728 0
727 -662 -685 0
-727 662 0
-727 685 0
728 -661 -688 0
-728 661 0
-728 688 0
-729 649 730 0
-729 730 732 0
729 -730 0
729 -649 -732 0
-730 731 657 0
-730 695 731 0
730 -731 0
730 -695 -657 0
731 -658 -659 0
-731 658 0
-731 659 0
732 -608 -657 0
-732 608 0
-732 657 0
733 -734 759 0
733 734 -759 0
-733 734 759 0
-733 -734 -759 0
734 735 -736 0
734 -735 736 0
-734 -735 -736 0
-734 735 736 0
735 -701 -726 0
-735 701 0
-735 726 0
736 737 -738 0
736 -737 738 0
-736 -737 -738 0
-736 737 738 0
737 -702 -723 0
-737 702 0
-737 723 0
738 -739 756 0
738 739 -756 0
-738 739 756 0
-738 -739 -756 0
739 740 -741 0
739 -740 741 0
-739 -740 -741 0
-739 740 741 0
740 -843 -844 -852 -853 0
-740 853 0
-740 843 0
-740 852 0
-740 844 0
741 -742 753 0
741 742 -753 0
-741 742 753 0
-741 -742 -753 0
742 743 -752 0
742 -743 752 0
-742 -743 -752 0
-742 743 752 0
743 -744 749 0
743 744 -749 0
-743 744 749 0
-743 -744 -749 0
744 745 -748 0
744 -745 748 0
-744 -745 -748 0
-744 745 748 0
745 746 -747 0
745 -746 747 0
-745 -746 -747 0
-745 746 747 0
746 -841 -856 0
-746 841 0
-746 856 0
747 -842 -855 0
-747 842 0
-747 855 0
748 -843 -854 0
-748 843 0
-748 854 0
-749 750 751 0
749 -750 0
749 -751 0
750 -840 -841 -855 -856 0
-750 856 0
-750 840 0
-750 855 0
-750 841 0
751 -842 -854 -707 0
-751 842 0
-751 854 0
-751 707 0
752 -844 -853 0
-752 844 0
-752 853 0
-753 754 755 0
753 -754 0
753 -755 0
754 -706 -711 0
-754 706 0
-754 711 0
755 -705 -714 0
-755 705 0
-755 714 0
-756 757 758 0
756 -757 0
756 -758 0
757 -704 -717 0
-757 704 0
-757 717 0
758 -703 -720 0
-758 703 0
-758 720 0
-759 760 761 0
759 -760 0
759 -761 0
760 -699 -700 0
-760 699 0
-760 700 0
761 -698 -729 0
-761 698 0
-761 729 0
762 -763 784 0
762 763 -784 0
-762 763 784 0
-762 -763 -784 0
763 764 -765 0
763 -764 765 0
-763 -764 -765 0
-763 764 765 0
764 -737 -738 0
-764 737 0
-764 738 0
765 766 -767 0
765 -766 767 0
-765 -766 -767 0
-765 766 767 0
766 -739 -756 0
-766 739 0
-766 756 0
767 -768 781 0
767 768 -781 0
-767 768 781 0
-767 -768 -781 0
768 -769 778 0
768 769 -778 0
-768 769 778 0
-768 -769 -778 0
769 -770 775 0
769 770 -775 0
-769 770 775 0
-769 -770 -775 0
770 771 -774 0
770 -771 774 0
-770 -771 -774 0
-770 771 774 0
771 772 -773 0
771 -772 773 0
-771 -772 -773 0
-771 772 773 0
772 -842 -856 0
-772 842 0
-772 856 0
773 -843 -855 0
-773 843 0
-773 855 0
774 -844 -854 0
-774 844 0
-774 854 0
-775 776 777 0
775 -776 0
775 -777 0
776 -841 -842 -855 -856 0
-776 856 0
-776 841 0
-776 855 0
-776 842 0
777 -843 -854 -745 0
-777 843 0
-777 854 0
-777 745 0
-778 779 780 0
778 -779 0
778 -780 0
779 -744 -749 0
-779 744 0
-779 749 0
780 -844 -853 -743 0
-780 844 0
-780 853 0
-780 743 0
-781 782 783 0
781 -782 0
781 -783 0
782 -742 -753 0
-782 742 0
-782 753 0
783 -740 -741 0
-783 740 0
-783 741 0
-784 732 786 0
-784 785 786 0
-784 649 786 0
784 -786 0
784 -649 -732 -785 0
785 -698 -734 0
-785 698 0
-785 734 0
-786 760 787 788 0
-786 787 734 788 0
786 -788 0
786 -787 0
786 -760 -734 0
787 -735 -736 0
-787 735 0
-787 736 0
788 -730 -785 0
-788 730 0
-788 785 0
789 -790 805 0
789 790 -805 0
-789 790 805 0
-789 -790 -805 0
790 791 -792 0
790 -791 792 0
-790 -791 -792 0
-790 791 792 0
791 -766 -767 0
-791 766 0
-791 767 0
792 793 -794 0
792 -793 794 0
-792 -793 -794 0
-792 793 794 0
793 -768 -781 0
-793 768 0
-793 781 0
794 795 -796 0
794 -795 796 0
-794 -795 -796 0
-794 795 796 0
795 -769 -778 0
-795 769 0
-795 778 0
796 797 -798 0
796 -797 798 0
-796 -797 -798 0
-796 797 798 0
797 -770 -775 0
-797 770 0
-797 775 0
798 -799 802 0
798 799 -802 0
-798 799 802 0
-798 -799 -802 0
799 800 -801 0
799 -800 801 0
-799 -800 -801 0
-799 800 801 0
800 -843 -856 0
-800 843 0
-800 856 0
801 -844 -855 0
-801 844 0
-801 855 0
-802 803 804 0
802 -803 0
802 -804 0
803 -842 -843 -855 -856 0
-803 856 0
-803 842 0
-803 855 0
-803 843 0
804 -844 -854 -771 0
-804 844 0
-804 854 0
-804 771 0
-805 806 807 0
805 -806 0
805 -807 0
806 -764 -765 0
-806 764 0
-806 765 0
807 -763 -784 0
-807 763 0
-807 784 0
808 -809 818 0
808 809 -818 0
-808 809 818 0
-808 -809 -818 0
809 810 -811 0
809 -810 811 0
-809 -810 -811 0
-809 810 811 0
810 -793 -794 0
-810 793 0
-810 794 0
811 812 -813 0
811 -812 813 0
-811 -812 -813 0
-811 812 813 0
812 -795 -796 0
-812 795 0
-812 796 0
813 814 -815 0
813 -814 815 0
-813 -814 -815 0
-813 814 815 0
814 -797 -798 0
-814 797 0
-814 798 0
815 816 -817 0
815 -816 817 0
-815 -816 -817 0
-815 816 817 0
816 -799 -802 0
-816 799 0
-816 802 0
817 843 -844 -856 0
817 -844 855 -856 0
-817 856 0
-817 844 0
-817 -843 -855 0
-818 763 819 0
-818 784 819 0
-818 790 819 0
818 -819 0
818 -763 -784 -790 0
-819 820 790 0
-819 806 820 0
819 -820 0
819 -806 -790 0
820 -791 -792 0
-820 791 0
-820 792 0
821 -822 830 0
821 822 -830 0
-821 822 830 0
-821 -822 -830 0
822 823 -824 0
822 -823 824 0
-822 -823 -824 0
-822 823 824 0
823 -812 -813 0
-823 812 0
-823 813 0
824 825 -826 0
824 -825 826 0
-824 -825 -826 0
-824 825 826 0
825 -814 -815 0
-825 814 0
-825 815 0
826 -827 0
-826 827 0
-827 828 829 0
827 -828 0
827 -829 0
828 -843 -844 -855 -856 0
-828 856 0
-828 843 0
-828 855 0
-828 844 0
829 -816 -817 0
-829 816 0
-829 817 0
-830 831 832 0
830 -831 0
830 -832 0
831 -810 -811 0
-831 810 0
-831 811 0
832 -809 -818 0
-832 809 0
-832 818 0
-857 0
2 0
3 0
6 0
13 0
26 0
45 0
72 0
107 0
148 0
195 0
248 0
306 0
369 0
437 0
498 0
556 0
607 0
656 0
697 0
733 0
762 0
789 0
808 0
821 0

