c Result of efficient AIG-to-CNF conversion using package CNF
p cnf 1017 3522
2 -991 -1004 0
-2 991 0
-2 1004 0
3 4 -5 0
3 -4 5 0
-3 -4 -5 0
-3 4 5 0
4 -991 -1005 0
-4 991 0
-4 1005 0
5 -992 -1004 0
-5 992 0
-5 1004 0
6 7 -8 0
6 -7 8 0
-6 -7 -8 0
-6 7 8 0
7 -991 -992 -1004 -1005 0
-7 1005 0
-7 991 0
-7 1004 0
-7 992 0
8 9 -12 0
8 -9 12 0
-8 -9 -12 0
-8 9 12 0
9 10 -11 0
9 -10 11 0
-9 -10 -11 0
-9 10 11 0
10 -991 -1006 0
-10 991 0
-10 1006 0
11 -992 -1005 0
-11 992 0
-11 1005 0
12 -993 -1004 0
-12 993 0
-12 1004 0
13 14 -15 0
13 -14 15 0
-13 -14 -15 0
-13 14 15 0
14 -7 -8 0
-14 7 0
-14 8 0
15 16 -17 0
15 -16 17 0
-15 -16 -17 0
-15 16 17 0
16 -993 -1004 -9 0
-16 993 0
-16 1004 0
-16 9 0
17 18 -25 0
17 -18 25 0
-17 -18 -25 0
-17 18 25 0
18 19 -20 0
18 -19 20 0
-18 -19 -20 0
-18 19 20 0
19 -991 -992 -1005 -1006 0
-19 1006 0
-19 991 0
-19 1005 0
-19 992 0
20 21 -24 0
20 -21 24 0
-20 -21 -24 0
-20 21 24 0
21 22 -23 0
21 -22 23 0
-21 -22 -23 0
-21 22 23 0
22 -991 -1007 0
-22 991 0
-22 1007 0
23 -992 -1006 0
-23 992 0
-23 1006 0
24 -993 -1005 0
-24 993 0
-24 1005 0
25 -994 -1004 0
-25 994 0
-25 1004 0
26 27 -28 0
26 -27 28 0
-26 -27 -28 0
-26 27 28 0
27 -14 -15 0
-27 14 0
-27 15 0
28 29 -30 0
28 -29 30 0
-28 -29 -30 0
-28 29 30 0
29 -16 -17 0
-29 16 0
-29 17 0
30 31 -32 0
30 -31 32 0
-30 -31 -32 0
-30 31 32 0
31 -991 -1008 0
-31 991 0
-31 1008 0
32 -33 44 0
32 33 -44 0
-32 33 44 0
-32 -33 -44 0
33 34 -43 0
33 -34 43 0
-33 -34 -43 0
-33 34 43 0
34 -35 40 0
34 35 -40 0
-34 35 40 0
-34 -35 -40 0
35 36 -39 0
35 -36 39 0
-35 -36 -39 0
-35 36 39 0
36 37 -38 0
36 -37 38 0
-36 -37 -38 0
-36 37 38 0
37 -992 -1007 0
-37 992 0
-37 1007 0
38 -993 -1006 0
-38 993 0
-38 1006 0
39 -994 -1005 0
-39 994 0
-39 1005 0
-40 41 42 0
40 -41 0
40 -42 0
41 -991 -992 -1006 -1007 0
-41 1007 0
-41 991 0
-41 1006 0
-41 992 0
42 -993 -1005 -21 0
-42 993 0
-42 1005 0
-42 21 0
43 -995 -1004 0
-43 995 0
-43 1004 0
-44 45 46 0
44 -45 0
44 -46 0
45 -19 -20 0
-45 19 0
-45 20 0
46 -994 -1004 -18 0
-46 994 0
-46 1004 0
-46 18 0
47 48 -49 0
47 -48 49 0
-47 -48 -49 0
-47 48 49 0
48 -27 -28 0
-48 27 0
-48 28 0
49 50 -51 0
49 -50 51 0
-49 -50 -51 0
-49 50 51 0
50 -29 -30 0
-50 29 0
-50 30 0
51 52 -53 0
51 -52 53 0
-51 -52 -53 0
-51 52 53 0
52 -33 -44 0
-52 33 0
-52 44 0
53 54 -55 0
53 -54 55 0
-53 -54 -55 0
-53 54 55 0
54 -991 -1008 -32 0
-54 991 0
-54 1008 0
-54 32 0
55 56 -59 0
55 -56 59 0
-55 -56 -59 0
-55 56 59 0
56 57 -58 0
56 -57 58 0
-56 -57 -58 0
-56 57 58 0
57 -991 -1009 0
-57 991 0
-57 1009 0
58 -992 -1008 0
-58 992 0
-58 1008 0
59 -60 71 0
59 60 -71 0
-59 60 71 0
-59 -60 -71 0
60 61 -70 0
60 -61 70 0
-60 -61 -70 0
-60 61 70 0
61 -62 67 0
61 62 -67 0
-61 62 67 0
-61 -62 -67 0
62 63 -66 0
62 -63 66 0
-62 -63 -66 0
-62 63 66 0
63 64 -65 0
63 -64 65 0
-63 -64 -65 0
-63 64 65 0
64 -993 -1007 0
-64 993 0
-64 1007 0
65 -994 -1006 0
-65 994 0
-65 1006 0
66 -995 -1005 0
-66 995 0
-66 1005 0
-67 68 69 0
67 -68 0
67 -69 0
68 -992 -993 -1006 -1007 0
-68 1007 0
-68 992 0
-68 1006 0
-68 993 0
69 -994 -1005 -36 0
-69 994 0
-69 1005 0
-69 36 0
70 -996 -1004 0
-70 996 0
-70 1004 0
-71 72 73 0
71 -72 0
71 -73 0
72 -35 -40 0
-72 35 0
-72 40 0
73 -995 -1004 -34 0
-73 995 0
-73 1004 0
-73 34 0
74 -75 106 0
74 75 -106 0
-74 75 106 0
-74 -75 -106 0
75 -76 103 0
75 76 -103 0
-75 76 103 0
-75 -76 -103 0
76 77 -78 0
76 -77 78 0
-76 -77 -78 0
-76 77 78 0
77 -60 -71 0
-77 60 0
-77 71 0
78 79 -80 0
78 -79 80 0
-78 -79 -80 0
-78 79 80 0
79 -56 -59 0
-79 56 0
-79 59 0
80 81 -88 0
80 -81 88 0
-80 -81 -88 0
-80 81 88 0
81 82 -83 0
81 -82 83 0
-81 -82 -83 0
-81 82 83 0
82 -991 -992 -1008 -1009 0
-82 1009 0
-82 991 0
-82 1008 0
-82 992 0
83 84 -87 0
83 -84 87 0
-83 -84 -87 0
-83 84 87 0
84 85 -86 0
84 -85 86 0
-84 -85 -86 0
-84 85 86 0
85 -991 -1010 0
-85 991 0
-85 1010 0
86 -992 -1009 0
-86 992 0
-86 1009 0
87 -993 -1008 0
-87 993 0
-87 1008 0
88 -89 100 0
88 89 -100 0
-88 89 100 0
-88 -89 -100 0
89 90 -99 0
89 -90 99 0
-89 -90 -99 0
-89 90 99 0
90 -91 96 0
90 91 -96 0
-90 91 96 0
-90 -91 -96 0
91 92 -95 0
91 -92 95 0
-91 -92 -95 0
-91 92 95 0
92 93 -94 0
92 -93 94 0
-92 -93 -94 0
-92 93 94 0
93 -994 -1007 0
-93 994 0
-93 1007 0
94 -995 -1006 0
-94 995 0
-94 1006 0
95 -996 -1005 0
-95 996 0
-95 1005 0
-96 97 98 0
96 -97 0
96 -98 0
97 -993 -994 -1006 -1007 0
-97 1007 0
-97 993 0
-97 1006 0
-97 994 0
98 -995 -1005 -63 0
-98 995 0
-98 1005 0
-98 63 0
99 -997 -1004 0
-99 997 0
-99 1004 0
-100 101 102 0
100 -101 0
100 -102 0
101 -62 -67 0
-101 62 0
-101 67 0
102 -996 -1004 -61 0
-102 996 0
-102 1004 0
-102 61 0
-103 104 105 0
103 -104 0
103 -105 0
104 -54 -55 0
-104 54 0
-104 55 0
105 -52 -53 0
-105 52 0
-105 53 0
-106 107 108 0
106 -107 0
106 -108 0
107 -50 -51 0
-107 50 0
-107 51 0
108 -48 -49 0
-108 48 0
-108 49 0
109 -110 147 0
109 110 -147 0
-109 110 147 0
-109 -110 -147 0
110 -111 144 0
110 111 -144 0
-110 111 144 0
-110 -111 -144 0
111 112 -113 0
111 -112 113 0
-111 -112 -113 0
-111 112 113 0
112 -89 -100 0
-112 89 0
-112 100 0
113 114 -115 0
113 -114 115 0
-113 -114 -115 0
-113 114 115 0
114 -81 -88 0
-114 81 0
-114 88 0
115 116 -127 0
115 -116 127 0
-115 -116 -127 0
-115 116 127 0
116 117 -118 0
116 -117 118 0
-116 -117 -118 0
-116 117 118 0
117 -991 -1011 0
-117 991 0
-117 1011 0
118 -119 124 0
118 119 -124 0
-118 119 124 0
-118 -119 -124 0
119 120 -123 0
119 -120 123 0
-119 -120 -123 0
-119 120 123 0
120 121 -122 0
120 -121 122 0
-120 -121 -122 0
-120 121 122 0
121 -992 -1010 0
-121 992 0
-121 1010 0
122 -993 -1009 0
-122 993 0
-122 1009 0
123 -994 -1008 0
-123 994 0
-123 1008 0
-124 125 126 0
124 -125 0
124 -126 0
125 -991 -992 -1009 -1010 0
-125 1010 0
-125 991 0
-125 1009 0
-125 992 0
126 -993 -1008 -84 0
-126 993 0
-126 1008 0
-126 84 0
127 -128 141 0
127 128 -141 0
-127 128 141 0
-127 -128 -141 0
128 129 -130 0
128 -129 130 0
-128 -129 -130 0
-128 129 130 0
129 -82 -83 0
-129 82 0
-129 83 0
130 131 -140 0
130 -131 140 0
-130 -131 -140 0
-130 131 140 0
131 -132 137 0
131 132 -137 0
-131 132 137 0
-131 -132 -137 0
132 133 -136 0
132 -133 136 0
-132 -133 -136 0
-132 133 136 0
133 134 -135 0
133 -134 135 0
-133 -134 -135 0
-133 134 135 0
134 -995 -1007 0
-134 995 0
-134 1007 0
135 -996 -1006 0
-135 996 0
-135 1006 0
136 -997 -1005 0
-136 997 0
-136 1005 0
-137 138 139 0
137 -138 0
137 -139 0
138 -994 -995 -1006 -1007 0
-138 1007 0
-138 994 0
-138 1006 0
-138 995 0
139 -996 -1005 -92 0
-139 996 0
-139 1005 0
-139 92 0
140 -998 -1004 0
-140 998 0
-140 1004 0
-141 142 143 0
141 -142 0
141 -143 0
142 -91 -96 0
-142 91 0
-142 96 0
143 -997 -1004 -90 0
-143 997 0
-143 1004 0
-143 90 0
-144 145 146 0
144 -145 0
144 -146 0
145 -79 -80 0
-145 79 0
-145 80 0
146 -77 -78 0
-146 77 0
-146 78 0
-147 148 149 0
147 -148 0
147 -149 0
148 -76 -103 0
-148 76 0
-148 103 0
149 -75 -106 0
-149 75 0
-149 106 0
150 -151 194 0
150 151 -194 0
-150 151 194 0
-150 -151 -194 0
151 -152 191 0
151 152 -191 0
-151 152 191 0
-151 -152 -191 0
152 -153 188 0
152 153 -188 0
-152 153 188 0
-152 -153 -188 0
153 154 -155 0
153 -154 155 0
-153 -154 -155 0
-153 154 155 0
154 -116 -127 0
-154 116 0
-154 127 0
155 156 -171 0
155 -156 171 0
-155 -156 -171 0
-155 156 171 0
156 157 -158 0
156 -157 158 0
-156 -157 -158 0
-156 157 158 0
157 -991 -1011 -118 0
-157 991 0
-157 1011 0
-157 118 0
158 159 -162 0
158 -159 162 0
-158 -159 -162 0
-158 159 162 0
159 160 -161 0
159 -160 161 0
-159 -160 -161 0
-159 160 161 0
160 -991 -1012 0
-160 991 0
-160 1012 0
161 -992 -1011 0
-161 992 0
-161 1011 0
162 -163 168 0
162 163 -168 0
-162 163 168 0
-162 -163 -168 0
163 164 -167 0
163 -164 167 0
-163 -164 -167 0
-163 164 167 0
164 165 -166 0
164 -165 166 0
-164 -165 -166 0
-164 165 166 0
165 -993 -1010 0
-165 993 0
-165 1010 0
166 -994 -1009 0
-166 994 0
-166 1009 0
167 -995 -1008 0
-167 995 0
-167 1008 0
-168 169 170 0
168 -169 0
168 -170 0
169 -992 -993 -1009 -1010 0
-169 1010 0
-169 992 0
-169 1009 0
-169 993 0
170 -994 -1008 -120 0
-170 994 0
-170 1008 0
-170 120 0
171 -172 185 0
171 172 -185 0
-171 172 185 0
-171 -172 -185 0
172 173 -174 0
172 -173 174 0
-172 -173 -174 0
-172 173 174 0
173 -119 -124 0
-173 119 0
-173 124 0
174 175 -184 0
174 -175 184 0
-174 -175 -184 0
-174 175 184 0
175 -176 181 0
175 176 -181 0
-175 176 181 0
-175 -176 -181 0
176 177 -180 0
176 -177 180 0
-176 -177 -180 0
-176 177 180 0
177 178 -179 0
177 -178 179 0
-177 -178 -179 0
-177 178 179 0
178 -996 -1007 0
-178 996 0
-178 1007 0
179 -997 -1006 0
-179 997 0
-179 1006 0
180 -998 -1005 0
-180 998 0
-180 1005 0
-181 182 183 0
181 -182 0
181 -183 0
182 -995 -996 -1006 -1007 0
-182 1007 0
-182 995 0
-182 1006 0
-182 996 0
183 -997 -1005 -133 0
-183 997 0
-183 1005 0
-183 133 0
184 -999 -1004 0
-184 999 0
-184 1004 0
-185 186 187 0
185 -186 0
185 -187 0
186 -132 -137 0
-186 132 0
-186 137 0
187 -998 -1004 -131 0
-187 998 0
-187 1004 0
-187 131 0
-188 189 190 0
188 -189 0
188 -190 0
189 -129 -130 0
-189 129 0
-189 130 0
190 -128 -141 0
-190 128 0
-190 141 0
-191 192 193 0
191 -192 0
191 -193 0
192 -114 -115 0
-192 114 0
-192 115 0
193 -112 -113 0
-193 112 0
-193 113 0
-194 75 195 0
-194 106 195 0
-194 110 195 0
194 -195 0
194 -75 -106 -110 0
-195 196 110 0
-195 148 196 0
195 -196 0
195 -148 -110 0
196 -111 -144 0
-196 111 0
-196 144 0
197 -198 247 0
197 198 -247 0
-197 198 247 0
-197 -198 -247 0
198 -199 244 0
198 199 -244 0
-198 199 244 0
-198 -199 -244 0
199 -200 241 0
199 200 -241 0
-199 200 241 0
-199 -200 -241 0
200 -201 238 0
200 201 -238 0
-200 201 238 0
-200 -201 -238 0
201 202 -221 0
201 -202 221 0
-201 -202 -221 0
-201 202 221 0
202 203 -204 0
202 -203 204 0
-202 -203 -204 0
-202 203 204 0
203 -159 -162 0
-203 159 0
-203 162 0
204 205 -210 0
204 -205 210 0
-204 -205 -210 0
-204 205 210 0
205 206 -209 0
205 -206 209 0
-205 -206 -209 0
-205 206 209 0
206 207 -208 0
206 -207 208 0
-206 -207 -208 0
-206 207 208 0
207 -991 -1013 0
-207 991 0
-207 1013 0
208 -992 -1012 0
-208 992 0
-208 1012 0
209 -993 -1011 0
-209 993 0
-209 1011 0
210 -211 218 0
210 211 -218 0
-210 211 218 0
-210 -211 -218 0
211 212 -213 0
211 -212 213 0
-211 -212 -213 0
-211 212 213 0
212 -991 -992 -1011 -1012 0
-212 1012 0
-212 991 0
-212 1011 0
-212 992 0
213 214 -217 0
213 -214 217 0
-213 -214 -217 0
-213 214 217 0
214 215 -216 0
214 -215 216 0
-214 -215 -216 0
-214 215 216 0
215 -994 -1010 0
-215 994 0
-215 1010 0
216 -995 -1009 0
-216 995 0
-216 1009 0
217 -996 -1008 0
-217 996 0
-217 1008 0
-218 219 220 0
218 -219 0
218 -220 0
219 -993 -994 -1009 -1010 0
-219 1010 0
-219 993 0
-219 1009 0
-219 994 0
220 -995 -1008 -164 0
-220 995 0
-220 1008 0
-220 164 0
221 -222 235 0
221 222 -235 0
-221 222 235 0
-221 -222 -235 0
222 223 -224 0
222 -223 224 0
-222 -223 -224 0
-222 223 224 0
223 -163 -168 0
-223 163 0
-223 168 0
224 225 -234 0
224 -225 234 0
-224 -225 -234 0
-224 225 234 0
225 -226 231 0
225 226 -231 0
-225 226 231 0
-225 -226 -231 0
226 227 -230 0
226 -227 230 0
-226 -227 -230 0
-226 227 230 0
227 228 -229 0
227 -228 229 0
-227 -228 -229 0
-227 228 229 0
228 -997 -1007 0
-228 997 0
-228 1007 0
229 -998 -1006 0
-229 998 0
-229 1006 0
230 -999 -1005 0
-230 999 0
-230 1005 0
-231 232 233 0
231 -232 0
231 -233 0
232 -996 -997 -1006 -1007 0
-232 1007 0
-232 996 0
-232 1006 0
-232 997 0
233 -998 -1005 -177 0
-233 998 0
-233 1005 0
-233 177 0
234 -1000 -1004 0
-234 1000 0
-234 1004 0
-235 236 237 0
235 -236 0
235 -237 0
236 -176 -181 0
-236 176 0
-236 181 0
237 -999 -1004 -175 0
-237 999 0
-237 1004 0
-237 175 0
-238 239 240 0
238 -239 0
238 -240 0
239 -157 -158 0
-239 157 0
-239 158 0
240 -156 -171 0
-240 156 0
-240 171 0
-241 242 243 0
241 -242 0
241 -243 0
242 -173 -174 0
-242 173 0
-242 174 0
243 -172 -185 0
-243 172 0
-243 185 0
-244 245 246 0
244 -245 0
244 -246 0
245 -154 -155 0
-245 154 0
-245 155 0
246 -153 -188 0
-246 153 0
-246 188 0
-247 248 249 0
247 -248 0
247 -249 0
248 -152 -191 0
-248 152 0
-248 191 0
249 -151 -194 0
-249 151 0
-249 194 0
250 -251 306 0
250 251 -306 0
-250 251 306 0
-250 -251 -306 0
251 -252 303 0
251 252 -303 0
-251 252 303 0
-251 -252 -303 0
252 -253 300 0
252 253 -300 0
-252 253 300 0
-252 -253 -300 0
253 -254 297 0
253 254 -297 0
-253 254 297 0
-253 -254 -297 0
254 255 -278 0
254 -255 278 0
-254 -255 -278 0
-254 255 278 0
255 256 -257 0
255 -256 257 0
-255 -256 -257 0
-255 256 257 0
256 -205 -210 0
-256 205 0
-256 210 0
257 258 -265 0
257 -258 265 0
-257 -258 -265 0
-257 258 265 0
258 259 -260 0
258 -259 260 0
-258 -259 -260 0
-258 259 260 0
259 -991 -1014 0
-259 991 0
-259 1014 0
260 261 -264 0
260 -261 264 0
-260 -261 -264 0
-260 261 264 0
261 262 -263 0
261 -262 263 0
-261 -262 -263 0
-261 262 263 0
262 -992 -1013 0
-262 992 0
-262 1013 0
263 -993 -1012 0
-263 993 0
-263 1012 0
264 -994 -1011 0
-264 994 0
-264 1011 0
265 -266 275 0
265 266 -275 0
-265 266 275 0
-265 -266 -275 0
266 267 -270 0
266 -267 270 0
-266 -267 -270 0
-266 267 270 0
-267 268 269 0
267 -268 0
267 -269 0
268 -991 -992 -1012 -1013 0
-268 1013 0
-268 991 0
-268 1012 0
-268 992 0
269 -993 -1011 -206 0
-269 993 0
-269 1011 0
-269 206 0
270 271 -274 0
270 -271 274 0
-270 -271 -274 0
-270 271 274 0
271 272 -273 0
271 -272 273 0
-271 -272 -273 0
-271 272 273 0
272 -995 -1010 0
-272 995 0
-272 1010 0
273 -996 -1009 0
-273 996 0
-273 1009 0
274 -997 -1008 0
-274 997 0
-274 1008 0
-275 276 277 0
275 -276 0
275 -277 0
276 -994 -995 -1009 -1010 0
-276 1010 0
-276 994 0
-276 1009 0
-276 995 0
277 -996 -1008 -214 0
-277 996 0
-277 1008 0
-277 214 0
278 -279 294 0
278 279 -294 0
-278 279 294 0
-278 -279 -294 0
279 280 -283 0
279 -280 283 0
-279 -280 -283 0
-279 280 283 0
-280 281 282 0
280 -281 0
280 -282 0
281 -212 -213 0
-281 212 0
-281 213 0
282 -211 -218 0
-282 211 0
-282 218 0
283 284 -293 0
283 -284 293 0
-283 -284 -293 0
-283 284 293 0
284 -285 290 0
284 285 -290 0
-284 285 290 0
-284 -285 -290 0
285 286 -289 0
285 -286 289 0
-285 -286 -289 0
-285 286 289 0
286 287 -288 0
286 -287 288 0
-286 -287 -288 0
-286 287 288 0
287 -998 -1007 0
-287 998 0
-287 1007 0
288 -999 -1006 0
-288 999 0
-288 1006 0
289 -1000 -1005 0
-289 1000 0
-289 1005 0
-290 291 292 0
290 -291 0
290 -292 0
291 -997 -998 -1006 -1007 0
-291 1007 0
-291 997 0
-291 1006 0
-291 998 0
292 -999 -1005 -227 0
-292 999 0
-292 1005 0
-292 227 0
293 -1001 -1004 0
-293 1001 0
-293 1004 0
-294 295 296 0
294 -295 0
294 -296 0
295 -226 -231 0
-295 226 0
-295 231 0
296 -1000 -1004 -225 0
-296 1000 0
-296 1004 0
-296 225 0
-297 298 299 0
297 -298 0
297 -299 0
298 -203 -204 0
-298 203 0
-298 204 0
299 -202 -221 0
-299 202 0
-299 221 0
-300 301 302 0
300 -301 0
300 -302 0
301 -223 -224 0
-301 223 0
-301 224 0
302 -222 -235 0
-302 222 0
-302 235 0
-303 304 305 0
303 -304 0
303 -305 0
304 -201 -238 0
-304 201 0
-304 238 0
305 -200 -241 0
-305 200 0
-305 241 0
-306 194 307 0
-306 307 309 0
306 -307 0
306 -194 -309 0
-307 308 198 0
-307 248 308 0
307 -308 0
307 -248 -198 0
308 -199 -244 0
-308 199 0
-308 244 0
309 -151 -198 0
-309 151 0
-309 198 0
310 -311 370 0
310 311 -370 0
-310 311 370 0
-310 -311 -370 0
311 -312 367 0
311 312 -367 0
-311 312 367 0
-311 -312 -367 0
312 -313 364 0
312 313 -364 0
-312 313 364 0
-312 -313 -364 0
313 -314 361 0
313 314 -361 0
-313 314 361 0
-313 -314 -361 0
314 315 -342 0
314 -315 342 0
-314 -315 -342 0
-314 315 342 0
315 316 -317 0
315 -316 317 0
-315 -316 -317 0
-315 316 317 0
316 -258 -265 0
-316 258 0
-316 265 0
317 318 -329 0
317 -318 329 0
-317 -318 -329 0
-317 318 329 0
318 319 -320 0
318 -319 320 0
-318 -319 -320 0
-318 319 320 0
319 -991 -1014 -260 0
-319 991 0
-319 1014 0
-319 260 0
320 321 -324 0
320 -321 324 0
-320 -321 -324 0
-320 321 324 0
321 322 -323 0
321 -322 323 0
-321 -322 -323 0
-321 322 323 0
322 -991 -1015 0
-322 991 0
-322 1015 0
323 -992 -1014 0
-323 992 0
-323 1014 0
324 325 -328 0
324 -325 328 0
-324 -325 -328 0
-324 325 328 0
325 326 -327 0
325 -326 327 0
-325 -326 -327 0
-325 326 327 0
326 -993 -1013 0
-326 993 0
-326 1013 0
327 -994 -1012 0
-327 994 0
-327 1012 0
328 -995 -1011 0
-328 995 0
-328 1011 0
329 -330 339 0
329 330 -339 0
-329 330 339 0
-329 -330 -339 0
330 331 -334 0
330 -331 334 0
-330 -331 -334 0
-330 331 334 0
-331 332 333 0
331 -332 0
331 -333 0
332 -992 -993 -1012 -1013 0
-332 1013 0
-332 992 0
-332 1012 0
-332 993 0
333 -994 -1011 -261 0
-333 994 0
-333 1011 0
-333 261 0
334 335 -338 0
334 -335 338 0
-334 -335 -338 0
-334 335 338 0
335 336 -337 0
335 -336 337 0
-335 -336 -337 0
-335 336 337 0
336 -996 -1010 0
-336 996 0
-336 1010 0
337 -997 -1009 0
-337 997 0
-337 1009 0
338 -998 -1008 0
-338 998 0
-338 1008 0
-339 340 341 0
339 -340 0
339 -341 0
340 -995 -996 -1009 -1010 0
-340 1010 0
-340 995 0
-340 1009 0
-340 996 0
341 -997 -1008 -271 0
-341 997 0
-341 1008 0
-341 271 0
342 -343 358 0
342 343 -358 0
-342 343 358 0
-342 -343 -358 0
343 344 -347 0
343 -344 347 0
-343 -344 -347 0
-343 344 347 0
-344 345 346 0
344 -345 0
344 -346 0
345 -267 -270 0
-345 267 0
-345 270 0
346 -266 -275 0
-346 266 0
-346 275 0
347 348 -357 0
347 -348 357 0
-347 -348 -357 0
-347 348 357 0
348 -349 354 0
348 349 -354 0
-348 349 354 0
-348 -349 -354 0
349 350 -353 0
349 -350 353 0
-349 -350 -353 0
-349 350 353 0
350 351 -352 0
350 -351 352 0
-350 -351 -352 0
-350 351 352 0
351 -999 -1007 0
-351 999 0
-351 1007 0
352 -1000 -1006 0
-352 1000 0
-352 1006 0
353 -1001 -1005 0
-353 1001 0
-353 1005 0
-354 355 356 0
354 -355 0
354 -356 0
355 -998 -999 -1006 -1007 0
-355 1007 0
-355 998 0
-355 1006 0
-355 999 0
356 -1000 -1005 -286 0
-356 1000 0
-356 1005 0
-356 286 0
357 -1002 -1004 0
-357 1002 0
-357 1004 0
-358 359 360 0
358 -359 0
358 -360 0
359 -285 -290 0
-359 285 0
-359 290 0
360 -1001 -1004 -284 0
-360 1001 0
-360 1004 0
-360 284 0
-361 362 363 0
361 -362 0
361 -363 0
362 -256 -257 0
-362 256 0
-362 257 0
363 -255 -278 0
-363 255 0
-363 278 0
-364 365 366 0
364 -365 0
364 -366 0
365 -280 -283 0
-365 280 0
-365 283 0
366 -279 -294 0
-366 279 0
-366 294 0
-367 368 369 0
367 -368 0
367 -369 0
368 -254 -297 0
-368 254 0
-368 297 0
369 -253 -300 0
-369 253 0
-369 300 0
-370 371 372 0
370 -371 0
370 -372 0
371 -252 -303 0
-371 252 0
-371 303 0
372 -251 -306 0
-372 251 0
-372 306 0
373 -374 439 0
373 374 -439 0
-373 374 439 0
-373 -374 -439 0
374 -375 436 0
374 375 -436 0
-374 375 436 0
-374 -375 -436 0
375 -376 433 0
375 376 -433 0
-375 376 433 0
-375 -376 -433 0
376 -377 430 0
376 377 -430 0
-376 377 430 0
-376 -377 -430 0
377 378 -411 0
377 -378 411 0
-377 -378 -411 0
-377 378 411 0
378 -379 408 0
378 379 -408 0
-378 379 408 0
-378 -379 -408 0
379 380 -395 0
379 -380 395 0
-379 -380 -395 0
-379 380 395 0
380 381 -382 0
380 -381 382 0
-380 -381 -382 0
-380 381 382 0
381 -321 -324 0
-381 321 0
-381 324 0
382 383 -390 0
382 -383 390 0
-382 -383 -390 0
-382 383 390 0
383 384 -385 0
383 -384 385 0
-383 -384 -385 0
-383 384 385 0
384 -991 -992 -1014 -1015 0
-384 1015 0
-384 991 0
-384 1014 0
-384 992 0
385 386 -389 0
385 -386 389 0
-385 -386 -389 0
-385 386 389 0
386 387 -388 0
386 -387 388 0
-386 -387 -388 0
-386 387 388 0
387 -991 -1016 0
-387 991 0
-387 1016 0
388 -992 -1015 0
-388 992 0
-388 1015 0
389 -993 -1014 0
-389 993 0
-389 1014 0
390 391 -394 0
390 -391 394 0
-390 -391 -394 0
-390 391 394 0
391 392 -393 0
391 -392 393 0
-391 -392 -393 0
-391 392 393 0
392 -994 -1013 0
-392 994 0
-392 1013 0
393 -995 -1012 0
-393 995 0
-393 1012 0
394 -996 -1011 0
-394 996 0
-394 1011 0
395 -396 405 0
395 396 -405 0
-395 396 405 0
-395 -396 -405 0
396 397 -400 0
396 -397 400 0
-396 -397 -400 0
-396 397 400 0
-397 398 399 0
397 -398 0
397 -399 0
398 -993 -994 -1012 -1013 0
-398 1013 0
-398 993 0
-398 1012 0
-398 994 0
399 -995 -1011 -325 0
-399 995 0
-399 1011 0
-399 325 0
400 401 -404 0
400 -401 404 0
-400 -401 -404 0
-400 401 404 0
401 402 -403 0
401 -402 403 0
-401 -402 -403 0
-401 402 403 0
402 -997 -1010 0
-402 997 0
-402 1010 0
403 -998 -1009 0
-403 998 0
-403 1009 0
404 -999 -1008 0
-404 999 0
-404 1008 0
-405 406 407 0
405 -406 0
405 -407 0
406 -996 -997 -1009 -1010 0
-406 1010 0
-406 996 0
-406 1009 0
-406 997 0
407 -998 -1008 -335 0
-407 998 0
-407 1008 0
-407 335 0
-408 409 410 0
408 -409 0
408 -410 0
409 -319 -320 0
-409 319 0
-409 320 0
410 -318 -329 0
-410 318 0
-410 329 0
411 -412 427 0
411 412 -427 0
-411 412 427 0
-411 -412 -427 0
412 413 -416 0
412 -413 416 0
-412 -413 -416 0
-412 413 416 0
-413 414 415 0
413 -414 0
413 -415 0
414 -331 -334 0
-414 331 0
-414 334 0
415 -330 -339 0
-415 330 0
-415 339 0
416 417 -426 0
416 -417 426 0
-416 -417 -426 0
-416 417 426 0
417 -418 423 0
417 418 -423 0
-417 418 423 0
-417 -418 -423 0
418 419 -422 0
418 -419 422 0
-418 -419 -422 0
-418 419 422 0
419 420 -421 0
419 -420 421 0
-419 -420 -421 0
-419 420 421 0
420 -1000 -1007 0
-420 1000 0
-420 1007 0
421 -1001 -1006 0
-421 1001 0
-421 1006 0
422 -1002 -1005 0
-422 1002 0
-422 1005 0
-423 424 425 0
423 -424 0
423 -425 0
424 -999 -1000 -1006 -1007 0
-424 1007 0
-424 999 0
-424 1006 0
-424 1000 0
425 -1001 -1005 -350 0
-425 1001 0
-425 1005 0
-425 350 0
426 -1003 -1004 0
-426 1003 0
-426 1004 0
-427 428 429 0
427 -428 0
427 -429 0
428 -349 -354 0
-428 349 0
-428 354 0
429 -1002 -1004 -348 0
-429 1002 0
-429 1004 0
-429 348 0
-430 431 432 0
430 -431 0
430 -432 0
431 -316 -317 0
-431 316 0
-431 317 0
432 -315 -342 0
-432 315 0
-432 342 0
-433 434 435 0
433 -434 0
433 -435 0
434 -344 -347 0
-434 344 0
-434 347 0
435 -343 -358 0
-435 343 0
-435 358 0
-436 437 438 0
436 -437 0
436 -438 0
437 -314 -361 0
-437 314 0
-437 361 0
438 -313 -364 0
-438 313 0
-438 364 0
-439 194 440 0
-439 440 444 0
439 -440 0
439 -194 -444 0
-440 371 441 442 0
-440 441 311 442 0
440 -442 0
440 -441 0
440 -371 -311 0
441 -312 -367 0
-441 312 0
-441 367 0
442 -307 -443 0
-442 307 0
-442 443 0
443 -251 -311 0
-443 251 0
-443 311 0
444 -309 -443 0
-444 309 0
-444 443 0
445 -446 513 0
445 446 -513 0
-445 446 513 0
-445 -446 -513 0
446 -447 510 0
446 447 -510 0
-446 447 510 0
-446 -447 -510 0
447 -448 507 0
447 448 -507 0
-447 448 507 0
-447 -448 -507 0
448 -449 504 0
448 449 -504 0
-448 449 504 0
-448 -449 -504 0
449 450 -487 0
449 -450 487 0
-449 -450 -487 0
-449 450 487 0
450 -451 484 0
450 451 -484 0
-450 451 484 0
-450 -451 -484 0
451 452 -471 0
451 -452 471 0
-451 -452 -471 0
-451 452 471 0
452 -453 468 0
452 453 -468 0
-452 453 468 0
-452 -453 -468 0
453 454 -463 0
453 -454 463 0
-453 -454 -463 0
-453 454 463 0
454 -455 460 0
454 455 -460 0
-454 455 460 0
-454 -455 -460 0
455 456 -459 0
455 -456 459 0
-455 -456 -459 0
-455 456 459 0
456 457 -458 0
456 -457 458 0
-456 -457 -458 0
-456 457 458 0
457 -992 -1016 0
-457 992 0
-457 1016 0
458 -993 -1015 0
-458 993 0
-458 1015 0
459 -994 -1014 0
-459 994 0
-459 1014 0
-460 461 462 0
460 -461 0
460 -462 0
461 -991 -992 -1015 -1016 0
-461 1016 0
-461 991 0
-461 1015 0
-461 992 0
462 -993 -1014 -386 0
-462 993 0
-462 1014 0
-462 386 0
463 464 -467 0
463 -464 467 0
-463 -464 -467 0
-463 464 467 0
464 465 -466 0
464 -465 466 0
-464 -465 -466 0
-464 465 466 0
465 -995 -1013 0
-465 995 0
-465 1013 0
466 -996 -1012 0
-466 996 0
-466 1012 0
467 -997 -1011 0
-467 997 0
-467 1011 0
-468 469 470 0
468 -469 0
468 -470 0
469 -384 -385 0
-469 384 0
-469 385 0
470 -383 -390 0
-470 383 0
-470 390 0
471 -472 481 0
471 472 -481 0
-471 472 481 0
-471 -472 -481 0
472 473 -476 0
472 -473 476 0
-472 -473 -476 0
-472 473 476 0
-473 474 475 0
473 -474 0
473 -475 0
474 -994 -995 -1012 -1013 0
-474 1013 0
-474 994 0
-474 1012 0
-474 995 0
475 -996 -1011 -391 0
-475 996 0
-475 1011 0
-475 391 0
476 477 -480 0
476 -477 480 0
-476 -477 -480 0
-476 477 480 0
477 478 -479 0
477 -478 479 0
-477 -478 -479 0
-477 478 479 0
478 -998 -1010 0
-478 998 0
-478 1010 0
479 -999 -1009 0
-479 999 0
-479 1009 0
480 -1000 -1008 0
-480 1000 0
-480 1008 0
-481 482 483 0
481 -482 0
481 -483 0
482 -997 -998 -1009 -1010 0
-482 1010 0
-482 997 0
-482 1009 0
-482 998 0
483 -999 -1008 -401 0
-483 999 0
-483 1008 0
-483 401 0
-484 485 486 0
484 -485 0
484 -486 0
485 -381 -382 0
-485 381 0
-485 382 0
486 -380 -395 0
-486 380 0
-486 395 0
487 -488 501 0
487 488 -501 0
-487 488 501 0
-487 -488 -501 0
488 489 -492 0
488 -489 492 0
-488 -489 -492 0
-488 489 492 0
-489 490 491 0
489 -490 0
489 -491 0
490 -397 -400 0
-490 397 0
-490 400 0
491 -396 -405 0
-491 396 0
-491 405 0
492 -493 498 0
492 493 -498 0
-492 493 498 0
-492 -493 -498 0
493 494 -497 0
493 -494 497 0
-493 -494 -497 0
-493 494 497 0
494 495 -496 0
494 -495 496 0
-494 -495 -496 0
-494 495 496 0
495 -1001 -1007 0
-495 1001 0
-495 1007 0
496 -1002 -1006 0
-496 1002 0
-496 1006 0
497 -1003 -1005 0
-497 1003 0
-497 1005 0
-498 499 500 0
498 -499 0
498 -500 0
499 -1000 -1001 -1006 -1007 0
-499 1007 0
-499 1000 0
-499 1006 0
-499 1001 0
500 -1002 -1005 -419 0
-500 1002 0
-500 1005 0
-500 419 0
-501 502 503 0
501 -502 0
501 -503 0
502 -418 -423 0
-502 418 0
-502 423 0
503 -1003 -1004 -417 0
-503 1003 0
-503 1004 0
-503 417 0
-504 505 506 0
504 -505 0
504 -506 0
505 -379 -408 0
-505 379 0
-505 408 0
506 -378 -411 0
-506 378 0
-506 411 0
-507 508 509 0
507 -508 0
507 -509 0
508 -413 -416 0
-508 413 0
-508 416 0
509 -412 -427 0
-509 412 0
-509 427 0
-510 511 512 0
510 -511 0
510 -512 0
511 -377 -430 0
-511 377 0
-511 430 0
512 -376 -433 0
-512 376 0
-512 433 0
-513 514 515 0
513 -514 0
513 -515 0
514 -375 -436 0
-514 375 0
-514 436 0
515 -374 -439 0
-515 374 0
-515 439 0
516 -517 580 0
516 517 -580 0
-516 517 580 0
-516 -517 -580 0
517 -518 577 0
517 518 -577 0
-517 518 577 0
-517 -518 -577 0
518 -519 574 0
518 519 -574 0
-518 519 574 0
-518 -519 -574 0
519 -520 571 0
519 520 -571 0
-519 520 571 0
-519 -520 -571 0
520 521 -558 0
520 -521 558 0
-520 -521 -558 0
-520 521 558 0
521 -522 555 0
521 522 -555 0
-521 522 555 0
-521 -522 -555 0
522 523 -542 0
522 -523 542 0
-522 -523 -542 0
-522 523 542 0
523 -524 539 0
523 524 -539 0
-523 524 539 0
-523 -524 -539 0
524 525 -534 0
524 -525 534 0
-524 -525 -534 0
-524 525 534 0
525 -526 531 0
525 526 -531 0
-525 526 531 0
-525 -526 -531 0
526 527 -530 0
526 -527 530 0
-526 -527 -530 0
-526 527 530 0
527 528 -529 0
527 -528 529 0
-527 -528 -529 0
-527 528 529 0
528 -993 -1016 0
-528 993 0
-528 1016 0
529 -994 -1015 0
-529 994 0
-529 1015 0
530 -995 -1014 0
-530 995 0
-530 1014 0
-531 532 533 0
531 -532 0
531 -533 0
532 -992 -993 -1015 -1016 0
-532 1016 0
-532 992 0
-532 1015 0
-532 993 0
533 -994 -1014 -456 0
-533 994 0
-533 1014 0
-533 456 0
534 535 -538 0
534 -535 538 0
-534 -535 -538 0
-534 535 538 0
535 536 -537 0
535 -536 537 0
-535 -536 -537 0
-535 536 537 0
536 -996 -1013 0
-536 996 0
-536 1013 0
537 -997 -1012 0
-537 997 0
-537 1012 0
538 -998 -1011 0
-538 998 0
-538 1011 0
-539 540 541 0
539 -540 0
539 -541 0
540 -455 -460 0
-540 455 0
-540 460 0
541 -454 -463 0
-541 454 0
-541 463 0
542 -543 552 0
542 543 -552 0
-542 543 552 0
-542 -543 -552 0
543 544 -547 0
543 -544 547 0
-543 -544 -547 0
-543 544 547 0
-544 545 546 0
544 -545 0
544 -546 0
545 -995 -996 -1012 -1013 0
-545 1013 0
-545 995 0
-545 1012 0
-545 996 0
546 -997 -1011 -464 0
-546 997 0
-546 1011 0
-546 464 0
547 548 -551 0
547 -548 551 0
-547 -548 -551 0
-547 548 551 0
548 549 -550 0
548 -549 550 0
-548 -549 -550 0
-548 549 550 0
549 -999 -1010 0
-549 999 0
-549 1010 0
550 -1000 -1009 0
-550 1000 0
-550 1009 0
551 -1001 -1008 0
-551 1001 0
-551 1008 0
-552 553 554 0
552 -553 0
552 -554 0
553 -998 -999 -1009 -1010 0
-553 1010 0
-553 998 0
-553 1009 0
-553 999 0
554 -1000 -1008 -477 0
-554 1000 0
-554 1008 0
-554 477 0
-555 556 557 0
555 -556 0
555 -557 0
556 -453 -468 0
-556 453 0
-556 468 0
557 -452 -471 0
-557 452 0
-557 471 0
558 559 -560 0
558 -559 560 0
-558 -559 -560 0
-558 559 560 0
559 -493 -498 0
-559 493 0
-559 498 0
560 561 -564 0
560 -561 564 0
-560 -561 -564 0
-560 561 564 0
-561 562 563 0
561 -562 0
561 -563 0
562 -473 -476 0
-562 473 0
-562 476 0
563 -472 -481 0
-563 472 0
-563 481 0
564 -565 568 0
564 565 -568 0
-564 565 568 0
-564 -565 -568 0
565 566 -567 0
565 -566 567 0
-565 -566 -567 0
-565 566 567 0
566 -1002 -1007 0
-566 1002 0
-566 1007 0
567 -1003 -1006 0
-567 1003 0
-567 1006 0
-568 569 570 0
568 -569 0
568 -570 0
569 -1001 -1002 -1006 -1007 0
-569 1007 0
-569 1001 0
-569 1006 0
-569 1002 0
570 -1003 -1005 -494 0
-570 1003 0
-570 1005 0
-570 494 0
-571 572 573 0
571 -572 0
571 -573 0
572 -451 -484 0
-572 451 0
-572 484 0
573 -450 -487 0
-573 450 0
-573 487 0
-574 575 576 0
574 -575 0
574 -576 0
575 -489 -492 0
-575 489 0
-575 492 0
576 -488 -501 0
-576 488 0
-576 501 0
-577 578 579 0
577 -578 0
577 -579 0
578 -449 -504 0
-578 449 0
-578 504 0
579 -448 -507 0
-579 448 0
-579 507 0
-580 439 581 0
-580 581 583 0
580 -581 0
580 -439 -583 0
-581 582 446 0
-581 514 582 0
581 -582 0
581 -514 -446 0
582 -447 -510 0
-582 447 0
-582 510 0
583 -374 -446 0
-583 374 0
-583 446 0
584 -585 642 0
584 585 -642 0
-584 585 642 0
-584 -585 -642 0
585 -586 639 0
585 586 -639 0
-585 586 639 0
-585 -586 -639 0
586 -587 636 0
586 587 -636 0
-586 587 636 0
-586 -587 -636 0
587 -588 633 0
587 588 -633 0
-587 588 633 0
-587 -588 -633 0
588 589 -626 0
588 -589 626 0
-588 -589 -626 0
-588 589 626 0
589 -590 623 0
589 590 -623 0
-589 590 623 0
-589 -590 -623 0
590 591 -610 0
590 -591 610 0
-590 -591 -610 0
-590 591 610 0
591 -592 607 0
591 592 -607 0
-591 592 607 0
-591 -592 -607 0
592 593 -602 0
592 -593 602 0
-592 -593 -602 0
-592 593 602 0
593 -594 599 0
593 594 -599 0
-593 594 599 0
-593 -594 -599 0
594 595 -598 0
594 -595 598 0
-594 -595 -598 0
-594 595 598 0
595 596 -597 0
595 -596 597 0
-595 -596 -597 0
-595 596 597 0
596 -994 -1016 0
-596 994 0
-596 1016 0
597 -995 -1015 0
-597 995 0
-597 1015 0
598 -996 -1014 0
-598 996 0
-598 1014 0
-599 600 601 0
599 -600 0
599 -601 0
600 -993 -994 -1015 -1016 0
-600 1016 0
-600 993 0
-600 1015 0
-600 994 0
601 -995 -1014 -527 0
-601 995 0
-601 1014 0
-601 527 0
602 603 -606 0
602 -603 606 0
-602 -603 -606 0
-602 603 606 0
603 604 -605 0
603 -604 605 0
-603 -604 -605 0
-603 604 605 0
604 -997 -1013 0
-604 997 0
-604 1013 0
605 -998 -1012 0
-605 998 0
-605 1012 0
606 -999 -1011 0
-606 999 0
-606 1011 0
-607 608 609 0
607 -608 0
607 -609 0
608 -526 -531 0
-608 526 0
-608 531 0
609 -525 -534 0
-609 525 0
-609 534 0
610 -611 620 0
610 611 -620 0
-610 611 620 0
-610 -611 -620 0
611 612 -615 0
611 -612 615 0
-611 -612 -615 0
-611 612 615 0
-612 613 614 0
612 -613 0
612 -614 0
613 -996 -997 -1012 -1013 0
-613 1013 0
-613 996 0
-613 1012 0
-613 997 0
614 -998 -1011 -535 0
-614 998 0
-614 1011 0
-614 535 0
615 616 -619 0
615 -616 619 0
-615 -616 -619 0
-615 616 619 0
616 617 -618 0
616 -617 618 0
-616 -617 -618 0
-616 617 618 0
617 -1000 -1010 0
-617 1000 0
-617 1010 0
618 -1001 -1009 0
-618 1001 0
-618 1009 0
619 -1002 -1008 0
-619 1002 0
-619 1008 0
-620 621 622 0
620 -621 0
620 -622 0
621 -999 -1000 -1009 -1010 0
-621 1010 0
-621 999 0
-621 1009 0
-621 1000 0
622 -1001 -1008 -548 0
-622 1001 0
-622 1008 0
-622 548 0
-623 624 625 0
623 -624 0
623 -625 0
624 -524 -539 0
-624 524 0
-624 539 0
625 -523 -542 0
-625 523 0
-625 542 0
626 627 -628 0
626 -627 628 0
-626 -627 -628 0
-626 627 628 0
627 -565 -568 0
-627 565 0
-627 568 0
628 629 -632 0
628 -629 632 0
-628 -629 -632 0
-628 629 632 0
-629 630 631 0
629 -630 0
629 -631 0
630 -544 -547 0
-630 544 0
-630 547 0
631 -543 -552 0
-631 543 0
-631 552 0
632 1002 -1003 -1007 0
632 -1003 1006 -1007 0
-632 1007 0
-632 1003 0
-632 -1002 -1006 0
-633 634 635 0
633 -634 0
633 -635 0
634 -522 -555 0
-634 522 0
-634 555 0
635 -521 -558 0
-635 521 0
-635 558 0
-636 637 638 0
636 -637 0
636 -638 0
637 -561 -564 0
-637 561 0
-637 564 0
638 -559 -560 0
-638 559 0
-638 560 0
-639 640 641 0
639 -640 0
639 -641 0
640 -520 -571 0
-640 520 0
-640 571 0
641 -519 -574 0
-641 519 0
-641 574 0
-642 643 644 0
642 -643 0
642 -644 0
643 -518 -577 0
-643 518 0
-643 577 0
644 -517 -580 0
-644 517 0
-644 580 0
645 -646 701 0
645 646 -701 0
-645 646 701 0
-645 -646 -701 0
646 -647 698 0
646 647 -698 0
-646 647 698 0
-646 -647 -698 0
647 -648 695 0
647 648 -695 0
-647 648 695 0
-647 -648 -695 0
648 -649 692 0
648 649 -692 0
-648 649 692 0
-648 -649 -692 0
649 650 -687 0
649 -650 687 0
-649 -650 -687 0
-649 650 687 0
650 -651 684 0
650 651 -684 0
-650 651 684 0
-650 -651 -684 0
651 652 -671 0
651 -652 671 0
-651 -652 -671 0
-651 652 671 0
652 -653 668 0
652 653 -668 0
-652 653 668 0
-652 -653 -668 0
653 654 -663 0
653 -654 663 0
-653 -654 -663 0
-653 654 663 0
654 -655 660 0
654 655 -660 0
-654 655 660 0
-654 -655 -660 0
655 656 -659 0
655 -656 659 0
-655 -656 -659 0
-655 656 659 0
656 657 -658 0
656 -657 658 0
-656 -657 -658 0
-656 657 658 0
657 -995 -1016 0
-657 995 0
-657 1016 0
658 -996 -1015 0
-658 996 0
-658 1015 0
659 -997 -1014 0
-659 997 0
-659 1014 0
-660 661 662 0
660 -661 0
660 -662 0
661 -994 -995 -1015 -1016 0
-661 1016 0
-661 994 0
-661 1015 0
-661 995 0
662 -996 -1014 -595 0
-662 996 0
-662 1014 0
-662 595 0
663 664 -667 0
663 -664 667 0
-663 -664 -667 0
-663 664 667 0
664 665 -666 0
664 -665 666 0
-664 -665 -666 0
-664 665 666 0
665 -998 -1013 0
-665 998 0
-665 1013 0
666 -999 -1012 0
-666 999 0
-666 1012 0
667 -1000 -1011 0
-667 1000 0
-667 1011 0
-668 669 670 0
668 -669 0
668 -670 0
669 -594 -599 0
-669 594 0
-669 599 0
670 -593 -602 0
-670 593 0
-670 602 0
671 -672 681 0
671 672 -681 0
-671 672 681 0
-671 -672 -681 0
672 673 -676 0
672 -673 676 0
-672 -673 -676 0
-672 673 676 0
-673 674 675 0
673 -674 0
673 -675 0
674 -997 -998 -1012 -1013 0
-674 1013 0
-674 997 0
-674 1012 0
-674 998 0
675 -999 -1011 -603 0
-675 999 0
-675 1011 0
-675 603 0
676 677 -680 0
676 -677 680 0
-676 -677 -680 0
-676 677 680 0
677 678 -679 0
677 -678 679 0
-677 -678 -679 0
-677 678 679 0
678 -1001 -1010 0
-678 1001 0
-678 1010 0
679 -1002 -1009 0
-679 1002 0
-679 1009 0
680 -1003 -1008 0
-680 1003 0
-680 1008 0
-681 682 683 0
681 -682 0
681 -683 0
682 -1000 -1001 -1009 -1010 0
-682 1010 0
-682 1000 0
-682 1009 0
-682 1001 0
683 -1002 -1008 -616 0
-683 1002 0
-683 1008 0
-683 616 0
-684 685 686 0
684 -685 0
684 -686 0
685 -592 -607 0
-685 592 0
-685 607 0
686 -591 -610 0
-686 591 0
-686 610 0
687 -688 689 0
687 688 -689 0
-687 688 689 0
-687 -688 -689 0
688 -1002 -1003 -1006 -1007 0
-688 1007 0
-688 1002 0
-688 1006 0
-688 1003 0
-689 690 691 0
689 -690 0
689 -691 0
690 -612 -615 0
-690 612 0
-690 615 0
691 -611 -620 0
-691 611 0
-691 620 0
-692 693 694 0
692 -693 0
692 -694 0
693 -590 -623 0
-693 590 0
-693 623 0
694 -589 -626 0
-694 589 0
-694 626 0
-695 696 697 0
695 -696 0
695 -697 0
696 -629 -632 0
-696 629 0
-696 632 0
697 -627 -628 0
-697 627 0
-697 628 0
-698 699 700 0
698 -699 0
698 -700 0
699 -588 -633 0
-699 588 0
-699 633 0
700 -587 -636 0
-700 587 0
-700 636 0
-701 444 704 0
-701 702 704 0
-701 194 704 0
701 -704 0
701 -194 -444 -702 0
702 -583 -703 0
-702 583 0
-702 703 0
703 -517 -585 0
-703 517 0
-703 585 0
-704 440 705 707 0
-704 705 707 702 0
704 -705 0
704 -707 0
704 -440 -702 0
-705 706 585 0
-705 643 706 0
705 -706 0
705 -643 -585 0
706 -586 -639 0
-706 586 0
-706 639 0
707 -581 -703 0
-707 581 0
-707 703 0
708 -709 758 0
708 709 -758 0
-708 709 758 0
-708 -709 -758 0
709 -710 755 0
709 710 -755 0
-709 710 755 0
-709 -710 -755 0
710 711 -712 0
710 -711 712 0
-710 -711 -712 0
-710 711 712 0
711 -688 -689 0
-711 688 0
-711 689 0
712 -713 752 0
712 713 -752 0
-712 713 752 0
-712 -713 -752 0
713 -714 749 0
713 714 -749 0
-713 714 749 0
-713 -714 -749 0
714 -715 746 0
714 715 -746 0
-714 715 746 0
-714 -715 -746 0
715 716 -735 0
715 -716 735 0
-715 -716 -735 0
-715 716 735 0
716 -717 732 0
716 717 -732 0
-716 717 732 0
-716 -717 -732 0
717 718 -727 0
717 -718 727 0
-717 -718 -727 0
-717 718 727 0
718 -719 724 0
718 719 -724 0
-718 719 724 0
-718 -719 -724 0
719 720 -723 0
719 -720 723 0
-719 -720 -723 0
-719 720 723 0
720 721 -722 0
720 -721 722 0
-720 -721 -722 0
-720 721 722 0
721 -996 -1016 0
-721 996 0
-721 1016 0
722 -997 -1015 0
-722 997 0
-722 1015 0
723 -998 -1014 0
-723 998 0
-723 1014 0
-724 725 726 0
724 -725 0
724 -726 0
725 -995 -996 -1015 -1016 0
-725 1016 0
-725 995 0
-725 1015 0
-725 996 0
726 -997 -1014 -656 0
-726 997 0
-726 1014 0
-726 656 0
727 728 -731 0
727 -728 731 0
-727 -728 -731 0
-727 728 731 0
728 729 -730 0
728 -729 730 0
-728 -729 -730 0
-728 729 730 0
729 -999 -1013 0
-729 999 0
-729 1013 0
730 -1000 -1012 0
-730 1000 0
-730 1012 0
731 -1001 -1011 0
-731 1001 0
-731 1011 0
-732 733 734 0
732 -733 0
732 -734 0
733 -655 -660 0
-733 655 0
-733 660 0
734 -654 -663 0
-734 654 0
-734 663 0
735 -736 743 0
735 736 -743 0
-735 736 743 0
-735 -736 -743 0
736 737 -740 0
736 -737 740 0
-736 -737 -740 0
-736 737 740 0
-737 738 739 0
737 -738 0
737 -739 0
738 -998 -999 -1012 -1013 0
-738 1013 0
-738 998 0
-738 1012 0
-738 999 0
739 -1000 -1011 -664 0
-739 1000 0
-739 1011 0
-739 664 0
740 741 -742 0
740 -741 742 0
-740 -741 -742 0
-740 741 742 0
741 -1002 -1010 0
-741 1002 0
-741 1010 0
742 -1003 -1009 0
-742 1003 0
-742 1009 0
-743 744 745 0
743 -744 0
743 -745 0
744 -1001 -1002 -1009 -1010 0
-744 1010 0
-744 1001 0
-744 1009 0
-744 1002 0
745 -1003 -1008 -677 0
-745 1003 0
-745 1008 0
-745 677 0
-746 747 748 0
746 -747 0
746 -748 0
747 -653 -668 0
-747 653 0
-747 668 0
748 -652 -671 0
-748 652 0
-748 671 0
-749 750 751 0
749 -750 0
749 -751 0
750 -673 -676 0
-750 673 0
-750 676 0
751 -672 -681 0
-751 672 0
-751 681 0
-752 753 754 0
752 -753 0
752 -754 0
753 -651 -684 0
-753 651 0
-753 684 0
754 -650 -687 0
-754 650 0
-754 687 0
-755 756 757 0
755 -756 0
755 -757 0
756 -649 -692 0
-756 649 0
-756 692 0
757 -648 -695 0
-757 648 0
-757 695 0
-758 759 760 0
758 -759 0
758 -760 0
759 -647 -698 0
-759 647 0
-759 698 0
760 -646 -701 0
-760 646 0
-760 701 0
761 -762 805 0
761 762 -805 0
-761 762 805 0
-761 -762 -805 0
762 -763 802 0
762 763 -802 0
-762 763 802 0
-762 -763 -802 0
763 -764 799 0
763 764 -799 0
-763 764 799 0
-763 -764 -799 0
764 -765 796 0
764 765 -796 0
-764 765 796 0
-764 -765 -796 0
765 -766 793 0
765 766 -793 0
-765 766 793 0
-765 -766 -793 0
766 767 -786 0
766 -767 786 0
-766 -767 -786 0
-766 767 786 0
767 -768 783 0
767 768 -783 0
-767 768 783 0
-767 -768 -783 0
768 769 -778 0
768 -769 778 0
-768 -769 -778 0
-768 769 778 0
769 -770 775 0
769 770 -775 0
-769 770 775 0
-769 -770 -775 0
770 771 -774 0
770 -771 774 0
-770 -771 -774 0
-770 771 774 0
771 772 -773 0
771 -772 773 0
-771 -772 -773 0
-771 772 773 0
772 -997 -1016 0
-772 997 0
-772 1016 0
773 -998 -1015 0
-773 998 0
-773 1015 0
774 -999 -1014 0
-774 999 0
-774 1014 0
-775 776 777 0
775 -776 0
775 -777 0
776 -996 -997 -1015 -1016 0
-776 1016 0
-776 996 0
-776 1015 0
-776 997 0
777 -998 -1014 -720 0
-777 998 0
-777 1014 0
-777 720 0
778 779 -782 0
778 -779 782 0
-778 -779 -782 0
-778 779 782 0
779 780 -781 0
779 -780 781 0
-779 -780 -781 0
-779 780 781 0
780 -1000 -1013 0
-780 1000 0
-780 1013 0
781 -1001 -1012 0
-781 1001 0
-781 1012 0
782 -1002 -1011 0
-782 1002 0
-782 1011 0
-783 784 785 0
783 -784 0
783 -785 0
784 -719 -724 0
-784 719 0
-784 724 0
785 -718 -727 0
-785 718 0
-785 727 0
786 787 -788 0
786 -787 788 0
-786 -787 -788 0
-786 787 788 0
787 -1002 -1003 -1009 -1010 0
-787 1010 0
-787 1002 0
-787 1009 0
-787 1003 0
788 789 -792 0
788 -789 792 0
-788 -789 -792 0
-788 789 792 0
-789 790 791 0
789 -790 0
789 -791 0
790 -999 -1000 -1012 -1013 0
-790 1013 0
-790 999 0
-790 1012 0
-790 1000 0
791 -1001 -1011 -728 0
-791 1001 0
-791 1011 0
-791 728 0
792 -1003 -1010 0
-792 1003 0
-792 1010 0
-793 794 795 0
793 -794 0
793 -795 0
794 -717 -732 0
-794 717 0
-794 732 0
795 -716 -735 0
-795 716 0
-795 735 0
-796 797 798 0
796 -797 0
796 -798 0
797 -737 -740 0
-797 737 0
-797 740 0
798 -736 -743 0
-798 736 0
-798 743 0
-799 800 801 0
799 -800 0
799 -801 0
800 -715 -746 0
-800 715 0
-800 746 0
801 -714 -749 0
-801 714 0
-801 749 0
-802 803 804 0
802 -803 0
802 -804 0
803 -713 -752 0
-803 713 0
-803 752 0
804 -711 -712 0
-804 711 0
-804 712 0
-805 701 806 0
-805 806 808 0
805 -806 0
805 -701 -808 0
-806 807 709 0
-806 759 807 0
806 -807 0
806 -759 -709 0
807 -710 -755 0
-807 710 0
-807 755 0
808 -646 -709 0
-808 646 0
-808 709 0
809 -810 847 0
809 810 -847 0
-809 810 847 0
-809 -810 -847 0
810 811 -812 0
810 -811 812 0
-810 -811 -812 0
-810 811 812 0
811 -764 -799 0
-811 764 0
-811 799 0
812 -813 844 0
812 813 -844 0
-812 813 844 0
-812 -813 -844 0
813 -814 841 0
813 814 -841 0
-813 814 841 0
-813 -814 -841 0
814 -815 838 0
814 815 -838 0
-814 815 838 0
-814 -815 -838 0
815 -816 835 0
815 816 -835 0
-815 816 835 0
-815 -816 -835 0
816 -817 832 0
816 817 -832 0
-816 817 832 0
-816 -817 -832 0
817 818 -827 0
817 -818 827 0
-817 -818 -827 0
-817 818 827 0
818 -819 824 0
818 819 -824 0
-818 819 824 0
-818 -819 -824 0
819 820 -823 0
819 -820 823 0
-819 -820 -823 0
-819 820 823 0
820 821 -822 0
820 -821 822 0
-820 -821 -822 0
-820 821 822 0
821 -998 -1016 0
-821 998 0
-821 1016 0
822 -999 -1015 0
-822 999 0
-822 1015 0
823 -1000 -1014 0
-823 1000 0
-823 1014 0
-824 825 826 0
824 -825 0
824 -826 0
825 -997 -998 -1015 -1016 0
-825 1016 0
-825 997 0
-825 1015 0
-825 998 0
826 -999 -1014 -771 0
-826 999 0
-826 1014 0
-826 771 0
827 828 -831 0
827 -828 831 0
-827 -828 -831 0
-827 828 831 0
828 829 -830 0
828 -829 830 0
-828 -829 -830 0
-828 829 830 0
829 -1001 -1013 0
-829 1001 0
-829 1013 0
830 -1002 -1012 0
-830 1002 0
-830 1012 0
831 -1003 -1011 0
-831 1003 0
-831 1011 0
-832 833 834 0
832 -833 0
832 -834 0
833 -770 -775 0
-833 770 0
-833 775 0
834 -769 -778 0
-834 769 0
-834 778 0
-835 836 837 0
835 -836 0
835 -837 0
836 -1000 -1001 -1012 -1013 0
-836 1013 0
-836 1000 0
-836 1012 0
-836 1001 0
837 -1002 -1011 -779 0
-837 1002 0
-837 1011 0
-837 779 0
-838 839 840 0
838 -839 0
838 -840 0
839 -768 -783 0
-839 768 0
-839 783 0
840 -767 -786 0
-840 767 0
-840 786 0
-841 842 843 0
841 -842 0
841 -843 0
842 -1003 -1010 -789 0
-842 1003 0
-842 1010 0
-842 789 0
843 -787 -788 0
-843 787 0
-843 788 0
-844 845 846 0
844 -845 0
844 -846 0
845 -766 -793 0
-845 766 0
-845 793 0
846 -765 -796 0
-846 765 0
-846 796 0
-847 848 849 0
847 -848 0
847 -849 0
848 -763 -802 0
-848 763 0
-848 802 0
849 -762 -805 0
-849 762 0
-849 805 0
850 -851 882 0
850 851 -882 0
-850 851 882 0
-850 -851 -882 0
851 852 -853 0
851 -852 853 0
-851 -852 -853 0
-851 852 853 0
852 -813 -844 0
-852 813 0
-852 844 0
853 -854 879 0
853 854 -879 0
-853 854 879 0
-853 -854 -879 0
854 -855 876 0
854 855 -876 0
-854 855 876 0
-854 -855 -876 0
855 -856 873 0
855 856 -873 0
-855 856 873 0
-855 -856 -873 0
856 -857 870 0
856 857 -870 0
-856 857 870 0
-856 -857 -870 0
857 858 -867 0
857 -858 867 0
-857 -858 -867 0
-857 858 867 0
858 -859 864 0
858 859 -864 0
-858 859 864 0
-858 -859 -864 0
859 860 -863 0
859 -860 863 0
-859 -860 -863 0
-859 860 863 0
860 861 -862 0
860 -861 862 0
-860 -861 -862 0
-860 861 862 0
861 -999 -1016 0
-861 999 0
-861 1016 0
862 -1000 -1015 0
-862 1000 0
-862 1015 0
863 -1001 -1014 0
-863 1001 0
-863 1014 0
-864 865 866 0
864 -865 0
864 -866 0
865 -998 -999 -1015 -1016 0
-865 1016 0
-865 998 0
-865 1015 0
-865 999 0
866 -1000 -1014 -820 0
-866 1000 0
-866 1014 0
-866 820 0
867 868 -869 0
867 -868 869 0
-867 -868 -869 0
-867 868 869 0
868 -1002 -1013 0
-868 1002 0
-868 1013 0
869 -1003 -1012 0
-869 1003 0
-869 1012 0
-870 871 872 0
870 -871 0
870 -872 0
871 -819 -824 0
-871 819 0
-871 824 0
872 -818 -827 0
-872 818 0
-872 827 0
-873 874 875 0
873 -874 0
873 -875 0
874 -1001 -1002 -1012 -1013 0
-874 1013 0
-874 1001 0
-874 1012 0
-874 1002 0
875 -1003 -1011 -828 0
-875 1003 0
-875 1011 0
-875 828 0
-876 877 878 0
876 -877 0
876 -878 0
877 -817 -832 0
-877 817 0
-877 832 0
878 -816 -835 0
-878 816 0
-878 835 0
-879 880 881 0
879 -880 0
879 -881 0
880 -815 -838 0
-880 815 0
-880 838 0
881 -814 -841 0
-881 814 0
-881 841 0
-882 701 883 0
-882 883 887 0
882 -883 0
882 -701 -887 0
-883 848 884 885 0
-883 884 810 885 0
883 -885 0
883 -884 0
883 -848 -810 0
884 -811 -812 0
-884 811 0
-884 812 0
885 -806 -886 0
-885 806 0
-885 886 0
886 -762 -810 0
-886 762 0
-886 810 0
887 -808 -886 0
-887 808 0
-887 886 0
888 -889 914 0
888 889 -914 0
-888 889 914 0
-888 -889 -914 0
889 890 -891 0
889 -890 891 0
-889 -890 -891 0
-889 890 891 0
890 -854 -879 0
-890 854 0
-890 879 0
891 892 -893 0
891 -892 893 0
-891 -892 -893 0
-891 892 893 0
892 -855 -876 0
-892 855 0
-892 876 0
893 -894 911 0
893 894 -911 0
-893 894 911 0
-893 -894 -911 0
894 895 -896 0
894 -895 896 0
-894 -895 -896 0
-894 895 896 0
895 -1002 -1003 -1012 -1013 0
-895 1013 0
-895 1002 0
-895 1012 0
-895 1003 0
896 -897 908 0
896 897 -908 0
-896 897 908 0
-896 -897 -908 0
897 898 -907 0
897 -898 907 0
-897 -898 -907 0
-897 898 907 0
898 -899 904 0
898 899 -904 0
-898 899 904 0
-898 -899 -904 0
899 900 -903 0
899 -900 903 0
-899 -900 -903 0
-899 900 903 0
900 901 -902 0
900 -901 902 0
-900 -901 -902 0
-900 901 902 0
901 -1000 -1016 0
-901 1000 0
-901 1016 0
902 -1001 -1015 0
-902 1001 0
-902 1015 0
903 -1002 -1014 0
-903 1002 0
-903 1014 0
-904 905 906 0
904 -905 0
904 -906 0
905 -999 -1000 -1015 -1016 0
-905 1016 0
-905 999 0
-905 1015 0
-905 1000 0
906 -1001 -1014 -860 0
-906 1001 0
-906 1014 0
-906 860 0
907 -1003 -1013 0
-907 1003 0
-907 1013 0
-908 909 910 0
908 -909 0
908 -910 0
909 -859 -864 0
-909 859 0
-909 864 0
910 -858 -867 0
-910 858 0
-910 867 0
-911 912 913 0
911 -912 0
911 -913 0
912 -857 -870 0
-912 857 0
-912 870 0
913 -856 -873 0
-913 856 0
-913 873 0
-914 915 916 0
914 -915 0
914 -916 0
915 -852 -853 0
-915 852 0
-915 853 0
916 -851 -882 0
-916 851 0
-916 882 0
917 -918 939 0
917 918 -939 0
-917 918 939 0
-917 -918 -939 0
918 919 -920 0
918 -919 920 0
-918 -919 -920 0
-918 919 920 0
919 -892 -893 0
-919 892 0
-919 893 0
920 921 -922 0
920 -921 922 0
-920 -921 -922 0
-920 921 922 0
921 -894 -911 0
-921 894 0
-921 911 0
922 -923 936 0
922 923 -936 0
-922 923 936 0
-922 -923 -936 0
923 -924 933 0
923 924 -933 0
-923 924 933 0
-923 -924 -933 0
924 -925 930 0
924 925 -930 0
-924 925 930 0
-924 -925 -930 0
925 926 -929 0
925 -926 929 0
-925 -926 -929 0
-925 926 929 0
926 927 -928 0
926 -927 928 0
-926 -927 -928 0
-926 927 928 0
927 -1001 -1016 0
-927 1001 0
-927 1016 0
928 -1002 -1015 0
-928 1002 0
-928 1015 0
929 -1003 -1014 0
-929 1003 0
-929 1014 0
-930 931 932 0
930 -931 0
930 -932 0
931 -1000 -1001 -1015 -1016 0
-931 1016 0
-931 1000 0
-931 1015 0
-931 1001 0
932 -1002 -1014 -900 0
-932 1002 0
-932 1014 0
-932 900 0
-933 934 935 0
933 -934 0
933 -935 0
934 -899 -904 0
-934 899 0
-934 904 0
935 -1003 -1013 -898 0
-935 1003 0
-935 1013 0
-935 898 0
-936 937 938 0
936 -937 0
936 -938 0
937 -897 -908 0
-937 897 0
-937 908 0
938 -895 -896 0
-938 895 0
-938 896 0
-939 882 940 0
-939 940 942 0
939 -940 0
939 -882 -942 0
-940 941 889 0
-940 915 941 0
940 -941 0
940 -915 -889 0
941 -890 -891 0
-941 890 0
-941 891 0
942 -851 -889 0
-942 851 0
-942 889 0
943 -944 959 0
943 944 -959 0
-943 944 959 0
-943 -944 -959 0
944 945 -946 0
944 -945 946 0
-944 -945 -946 0
-944 945 946 0
945 -921 -922 0
-945 921 0
-945 922 0
946 947 -948 0
946 -947 948 0
-946 -947 -948 0
-946 947 948 0
947 -923 -936 0
-947 923 0
-947 936 0
948 949 -950 0
948 -949 950 0
-948 -949 -950 0
-948 949 950 0
949 -924 -933 0
-949 924 0
-949 933 0
950 951 -952 0
950 -951 952 0
-950 -951 -952 0
-950 951 952 0
951 -925 -930 0
-951 925 0
-951 930 0
952 -953 956 0
952 953 -956 0
-952 953 956 0
-952 -953 -956 0
953 954 -955 0
953 -954 955 0
-953 -954 -955 0
-953 954 955 0
954 -1002 -1016 0
-954 1002 0
-954 1016 0
955 -1003 -1015 0
-955 1003 0
-955 1015 0
-956 957 958 0
956 -957 0
956 -958 0
957 -1001 -1002 -1015 -1016 0
-957 1016 0
-957 1001 0
-957 1015 0
-957 1002 0
958 -1003 -1014 -926 0
-958 1003 0
-958 1014 0
-958 926 0
-959 960 961 0
959 -960 0
959 -961 0
960 -919 -920 0
-960 919 0
-960 920 0
961 -918 -939 0
-961 918 0
-961 939 0
962 -963 972 0
962 963 -972 0
-962 963 972 0
-962 -963 -972 0
963 964 -965 0
963 -964 965 0
-963 -964 -965 0
-963 964 965 0
964 -947 -948 0
-964 947 0
-964 948 0
965 966 -967 0
965 -966 967 0
-965 -966 -967 0
-965 966 967 0
966 -949 -950 0
-966 949 0
-966 950 0
967 968 -969 0
967 -968 969 0
-967 -968 -969 0
-967 968 969 0
968 -951 -952 0
-968 951 0
-968 952 0
969 970 -971 0
969 -970 971 0
-969 -970 -971 0
-969 970 971 0
970 -953 -956 0
-970 953 0
-970 956 0
971 1002 -1003 -1016 0
971 -1003 1015 -1016 0
-971 1016 0
-971 1003 0
-971 -1002 -1015 0
-972 887 975 0
-972 973 975 0
-972 701 975 0
972 -975 0
972 -701 -887 -973 0
973 -942 -974 0
-973 942 0
-973 974 0
974 -918 -944 0
-974 918 0
-974 944 0
-975 883 976 978 0
-975 976 978 973 0
975 -976 0
975 -978 0
975 -883 -973 0
-976 977 944 0
-976 960 977 0
976 -977 0
976 -960 -944 0
977 -945 -946 0
-977 945 0
-977 946 0
978 -940 -974 0
-978 940 0
-978 974 0
979 -980 988 0
979 980 -988 0
-979 980 988 0
-979 -980 -988 0
980 981 -982 0
980 -981 982 0
-980 -981 -982 0
-980 981 982 0
981 -966 -967 0
-981 966 0
-981 967 0
982 983 -984 0
982 -983 984 0
-982 -983 -984 0
-982 983 984 0
983 -968 -969 0
-983 968 0
-983 969 0
984 -985 0
-984 985 0
-985 986 987 0
985 -986 0
985 -987 0
986 -1002 -1003 -1015 -1016 0
-986 1016 0
-986 1002 0
-986 1015 0
-986 1003 0
987 -970 -971 0
-987 970 0
-987 971 0
-988 989 990 0
988 -989 0
988 -990 0
989 -964 -965 0
-989 964 0
-989 965 0
990 -963 -972 0
-990 963 0
-990 972 0
-1017 0
2 0
3 0
6 0
13 0
26 0
47 0
74 0
109 0
150 0
197 0
250 0
310 0
373 0
445 0
516 0
584 0
645 0
708 0
761 0
809 0
850 0
888 0
917 0
943 0
962 0
979 0

