c Result of efficient AIG-to-CNF conversion using package CNF
p cnf 134 447
2 -124 -129 0
-2 124 0
-2 129 0
3 4 -5 0
3 -4 5 0
-3 -4 -5 0
-3 4 5 0
4 -124 -130 0
-4 124 0
-4 130 0
5 -125 -129 0
-5 125 0
-5 129 0
6 7 -8 0
6 -7 8 0
-6 -7 -8 0
-6 7 8 0
7 -124 -125 -129 -130 0
-7 130 0
-7 124 0
-7 129 0
-7 125 0
8 9 -12 0
8 -9 12 0
-8 -9 -12 0
-8 9 12 0
9 10 -11 0
9 -10 11 0
-9 -10 -11 0
-9 10 11 0
10 -124 -131 0
-10 124 0
-10 131 0
11 -125 -130 0
-11 125 0
-11 130 0
12 -126 -129 0
-12 126 0
-12 129 0
13 14 -15 0
13 -14 15 0
-13 -14 -15 0
-13 14 15 0
14 -7 -8 0
-14 7 0
-14 8 0
15 16 -17 0
15 -16 17 0
-15 -16 -17 0
-15 16 17 0
16 -126 -129 -9 0
-16 126 0
-16 129 0
-16 9 0
17 18 -25 0
17 -18 25 0
-17 -18 -25 0
-17 18 25 0
18 19 -20 0
18 -19 20 0
-18 -19 -20 0
-18 19 20 0
19 -124 -125 -130 -131 0
-19 131 0
-19 124 0
-19 130 0
-19 125 0
20 21 -24 0
20 -21 24 0
-20 -21 -24 0
-20 21 24 0
21 22 -23 0
21 -22 23 0
-21 -22 -23 0
-21 22 23 0
22 -124 -132 0
-22 124 0
-22 132 0
23 -125 -131 0
-23 125 0
-23 131 0
24 -126 -130 0
-24 126 0
-24 130 0
25 -127 -129 0
-25 127 0
-25 129 0
26 -27 44 0
26 27 -44 0
-26 27 44 0
-26 -27 -44 0
27 -28 41 0
27 28 -41 0
-27 28 41 0
-27 -28 -41 0
28 29 -40 0
28 -29 40 0
-28 -29 -40 0
-28 29 40 0
29 30 -31 0
29 -30 31 0
-29 -30 -31 0
-29 30 31 0
30 -126 -130 -21 0
-30 126 0
-30 130 0
-30 21 0
31 32 -39 0
31 -32 39 0
-31 -32 -39 0
-31 32 39 0
32 33 -34 0
32 -33 34 0
-32 -33 -34 0
-32 33 34 0
33 -124 -125 -131 -132 0
-33 132 0
-33 124 0
-33 131 0
-33 125 0
34 35 -38 0
34 -35 38 0
-34 -35 -38 0
-34 35 38 0
35 36 -37 0
35 -36 37 0
-35 -36 -37 0
-35 36 37 0
36 -124 -133 0
-36 124 0
-36 133 0
37 -125 -132 0
-37 125 0
-37 132 0
38 -126 -131 0
-38 126 0
-38 131 0
39 -127 -130 0
-39 127 0
-39 130 0
40 -128 -129 0
-40 128 0
-40 129 0
-41 42 43 0
41 -42 0
41 -43 0
42 -19 -20 0
-42 19 0
-42 20 0
43 -127 -129 -18 0
-43 127 0
-43 129 0
-43 18 0
-44 45 46 0
44 -45 0
44 -46 0
45 -16 -17 0
-45 16 0
-45 17 0
46 -14 -15 0
-46 14 0
-46 15 0
47 -48 67 0
47 48 -67 0
-47 48 67 0
-47 -48 -67 0
48 -49 64 0
48 49 -64 0
-48 49 64 0
-48 -49 -64 0
49 -50 61 0
49 50 -61 0
-49 50 61 0
-49 -50 -61 0
50 51 -60 0
50 -51 60 0
-50 -51 -60 0
-50 51 60 0
51 -52 57 0
51 52 -57 0
-51 52 57 0
-51 -52 -57 0
52 53 -56 0
52 -53 56 0
-52 -53 -56 0
-52 53 56 0
53 54 -55 0
53 -54 55 0
-53 -54 -55 0
-53 54 55 0
54 -125 -133 0
-54 125 0
-54 133 0
55 -126 -132 0
-55 126 0
-55 132 0
56 -127 -131 0
-56 127 0
-56 131 0
-57 58 59 0
57 -58 0
57 -59 0
58 -124 -125 -132 -133 0
-58 133 0
-58 124 0
-58 132 0
-58 125 0
59 -126 -131 -35 0
-59 126 0
-59 131 0
-59 35 0
60 -128 -130 0
-60 128 0
-60 130 0
-61 62 63 0
61 -62 0
61 -63 0
62 -33 -34 0
-62 33 0
-62 34 0
63 -127 -130 -32 0
-63 127 0
-63 130 0
-63 32 0
-64 65 66 0
64 -65 0
64 -66 0
65 -30 -31 0
-65 30 0
-65 31 0
66 -128 -129 -29 0
-66 128 0
-66 129 0
-66 29 0
-67 68 69 0
67 -68 0
67 -69 0
68 -28 -41 0
-68 28 0
-68 41 0
69 -27 -44 0
-69 27 0
-69 44 0
70 -71 86 0
70 71 -86 0
-70 71 86 0
-70 -71 -86 0
71 72 -73 0
71 -72 73 0
-71 -72 -73 0
-71 72 73 0
72 -50 -61 0
-72 50 0
-72 61 0
73 -74 83 0
73 74 -83 0
-73 74 83 0
-73 -74 -83 0
74 -75 80 0
74 75 -80 0
-74 75 80 0
-74 -75 -80 0
75 76 -79 0
75 -76 79 0
-75 -76 -79 0
-75 76 79 0
76 77 -78 0
76 -77 78 0
-76 -77 -78 0
-76 77 78 0
77 -126 -133 0
-77 126 0
-77 133 0
78 -127 -132 0
-78 127 0
-78 132 0
79 -128 -131 0
-79 128 0
-79 131 0
-80 81 82 0
80 -81 0
80 -82 0
81 -125 -126 -132 -133 0
-81 133 0
-81 125 0
-81 132 0
-81 126 0
82 -127 -131 -53 0
-82 127 0
-82 131 0
-82 53 0
-83 84 85 0
83 -84 0
83 -85 0
84 -52 -57 0
-84 52 0
-84 57 0
85 -128 -130 -51 0
-85 128 0
-85 130 0
-85 51 0
-86 44 87 0
-86 87 89 0
86 -87 0
86 -44 -89 0
-87 88 48 0
-87 68 88 0
87 -88 0
87 -68 -48 0
88 -49 -64 0
-88 49 0
-88 64 0
89 -27 -48 0
-89 27 0
-89 48 0
90 -91 102 0
90 91 -102 0
-90 91 102 0
-90 -91 -102 0
91 92 -93 0
91 -92 93 0
-91 -92 -93 0
-91 92 93 0
92 -74 -83 0
-92 74 0
-92 83 0
93 94 -95 0
93 -94 95 0
-93 -94 -95 0
-93 94 95 0
94 -75 -80 0
-94 75 0
-94 80 0
95 -96 99 0
95 96 -99 0
-95 96 99 0
-95 -96 -99 0
96 97 -98 0
96 -97 98 0
-96 -97 -98 0
-96 97 98 0
97 -127 -133 0
-97 127 0
-97 133 0
98 -128 -132 0
-98 128 0
-98 132 0
-99 100 101 0
99 -100 0
99 -101 0
100 -126 -127 -132 -133 0
-100 133 0
-100 126 0
-100 132 0
-100 127 0
101 -128 -131 -76 0
-101 128 0
-101 131 0
-101 76 0
-102 103 104 0
102 -103 0
102 -104 0
103 -72 -73 0
-103 72 0
-103 73 0
104 -71 -86 0
-104 71 0
-104 86 0
105 -106 111 0
105 106 -111 0
-105 106 111 0
-105 -106 -111 0
106 107 -108 0
106 -107 108 0
-106 -107 -108 0
-106 107 108 0
107 -94 -95 0
-107 94 0
-107 95 0
108 109 -110 0
108 -109 110 0
-108 -109 -110 0
-108 109 110 0
109 -96 -99 0
-109 96 0
-109 99 0
110 127 -128 -133 0
110 -128 132 -133 0
-110 133 0
-110 128 0
-110 -127 -132 0
-111 89 113 0
-111 112 113 0
-111 44 113 0
111 -113 0
111 -44 -89 -112 0
112 -71 -91 0
-112 71 0
-112 91 0
-113 103 114 115 0
-113 114 91 115 0
113 -115 0
113 -114 0
113 -103 -91 0
114 -92 -93 0
-114 92 0
-114 93 0
115 -87 -112 0
-115 87 0
-115 112 0
116 -117 121 0
116 117 -121 0
-116 117 121 0
-116 -117 -121 0
117 -118 0
-117 118 0
-118 119 120 0
118 -119 0
118 -120 0
119 -127 -128 -132 -133 0
-119 133 0
-119 127 0
-119 132 0
-119 128 0
120 -109 -110 0
-120 109 0
-120 110 0
-121 122 123 0
121 -122 0
121 -123 0
122 -107 -108 0
-122 107 0
-122 108 0
123 -106 -111 0
-123 106 0
-123 111 0
-134 0
2 0
3 0
6 0
13 0
26 0
47 0
70 0
90 0
105 0
116 0

