c Result of efficient AIG-to-CNF conversion using package CNF
p cnf 57 159
2 39 -48 0
2 -39 48 0
-2 -39 -48 0
-2 39 48 0
3 4 -5 0
3 -4 5 0
-3 -4 -5 0
-3 4 5 0
4 -39 -48 0
-4 39 0
-4 48 0
5 40 -49 0
5 -40 49 0
-5 -40 -49 0
-5 40 49 0
6 -7 8 0
6 7 -8 0
-6 7 8 0
-6 -7 -8 0
7 41 -50 0
7 -41 50 0
-7 -41 -50 0
-7 41 50 0
-8 40 4 0
-8 49 4 0
-8 40 49 0
8 -40 -49 0
8 -49 -4 0
8 -40 -4 0
9 -10 11 0
9 10 -11 0
-9 10 11 0
-9 -10 -11 0
10 42 -51 0
10 -42 51 0
-10 -42 -51 0
-10 42 51 0
-11 41 12 0
-11 50 12 0
11 -12 0
11 -41 -50 0
12 -7 -8 0
-12 7 0
-12 8 0
13 -14 15 0
13 14 -15 0
-13 14 15 0
-13 -14 -15 0
14 43 -52 0
14 -43 52 0
-14 -43 -52 0
-14 43 52 0
-15 7 16 0
-15 8 16 0
-15 10 16 0
15 -16 0
15 -7 -8 -10 0
-16 42 17 0
-16 51 17 0
-16 42 51 0
16 -42 -51 0
16 -51 -17 0
16 -42 -17 0
17 -41 -50 0
-17 41 0
-17 50 0
18 -19 20 0
18 19 -20 0
-18 19 20 0
-18 -19 -20 0
19 44 -53 0
19 -44 53 0
-19 -44 -53 0
-19 44 53 0
-20 43 21 0
-20 52 21 0
20 -21 0
20 -43 -52 0
21 -14 -15 0
-21 14 0
-21 15 0
22 -23 24 0
22 23 -24 0
-22 23 24 0
-22 -23 -24 0
23 45 -54 0
23 -45 54 0
-23 -45 -54 0
-23 45 54 0
-24 15 25 0
-24 25 27 0
24 -25 0
24 -15 -27 0
-25 44 26 0
-25 53 26 0
-25 44 53 0
25 -44 -53 0
25 -53 -26 0
25 -44 -26 0
26 -43 -52 0
-26 43 0
-26 52 0
27 -14 -19 0
-27 14 0
-27 19 0
28 -29 30 0
28 29 -30 0
-28 29 30 0
-28 -29 -30 0
29 46 -55 0
29 -46 55 0
-29 -46 -55 0
-29 46 55 0
-30 45 31 0
-30 54 31 0
30 -31 0
30 -45 -54 0
31 -23 -24 0
-31 23 0
-31 24 0
32 -33 34 0
32 33 -34 0
-32 33 34 0
-32 -33 -34 0
33 47 -56 0
33 -47 56 0
-33 -47 -56 0
-33 47 56 0
-34 27 36 0
-34 35 36 0
-34 15 36 0
34 -36 0
34 -15 -27 -35 0
35 -23 -29 0
-35 23 0
-35 29 0
-36 46 55 38 0
-36 46 37 38 0
-36 55 37 38 0
36 -46 -55 0
36 -55 -37 0
36 -38 0
36 -46 -37 0
37 -45 -54 0
-37 45 0
-37 54 0
38 -25 -35 0
-38 25 0
-38 35 0
-57 0
2 0
3 0
6 0
9 0
13 0
18 0
22 0
28 0
32 0

