c Result of efficient AIG-to-CNF conversion using package CNF
p cnf 92 264
2 64 -78 0
2 -64 78 0
-2 -64 -78 0
-2 64 78 0
3 4 -5 0
3 -4 5 0
-3 -4 -5 0
-3 4 5 0
4 -64 -78 0
-4 64 0
-4 78 0
5 65 -79 0
5 -65 79 0
-5 -65 -79 0
-5 65 79 0
6 -7 8 0
6 7 -8 0
-6 7 8 0
-6 -7 -8 0
7 66 -80 0
7 -66 80 0
-7 -66 -80 0
-7 66 80 0
-8 65 4 0
-8 79 4 0
-8 65 79 0
8 -65 -79 0
8 -79 -4 0
8 -65 -4 0
9 -10 11 0
9 10 -11 0
-9 10 11 0
-9 -10 -11 0
10 67 -81 0
10 -67 81 0
-10 -67 -81 0
-10 67 81 0
-11 66 12 0
-11 80 12 0
11 -12 0
11 -66 -80 0
12 -7 -8 0
-12 7 0
-12 8 0
13 -14 15 0
13 14 -15 0
-13 14 15 0
-13 -14 -15 0
14 68 -82 0
14 -68 82 0
-14 -68 -82 0
-14 68 82 0
-15 7 16 0
-15 8 16 0
-15 10 16 0
15 -16 0
15 -7 -8 -10 0
-16 67 17 0
-16 81 17 0
-16 67 81 0
16 -67 -81 0
16 -81 -17 0
16 -67 -17 0
17 -66 -80 0
-17 66 0
-17 80 0
18 -19 20 0
18 19 -20 0
-18 19 20 0
-18 -19 -20 0
19 69 -83 0
19 -69 83 0
-19 -69 -83 0
-19 69 83 0
-20 68 21 0
-20 82 21 0
20 -21 0
20 -68 -82 0
21 -14 -15 0
-21 14 0
-21 15 0
22 -23 24 0
22 23 -24 0
-22 23 24 0
-22 -23 -24 0
23 70 -84 0
23 -70 84 0
-23 -70 -84 0
-23 70 84 0
-24 15 25 0
-24 25 27 0
24 -25 0
24 -15 -27 0
-25 69 26 0
-25 83 26 0
-25 69 83 0
25 -69 -83 0
25 -83 -26 0
25 -69 -26 0
26 -68 -82 0
-26 68 0
-26 82 0
27 -14 -19 0
-27 14 0
-27 19 0
28 -29 30 0
28 29 -30 0
-28 29 30 0
-28 -29 -30 0
29 71 -85 0
29 -71 85 0
-29 -71 -85 0
-29 71 85 0
-30 70 31 0
-30 84 31 0
30 -31 0
30 -70 -84 0
31 -23 -24 0
-31 23 0
-31 24 0
32 -33 34 0
32 33 -34 0
-32 33 34 0
-32 -33 -34 0
33 72 -86 0
33 -72 86 0
-33 -72 -86 0
-33 72 86 0
-34 27 36 0
-34 35 36 0
-34 15 36 0
34 -36 0
34 -15 -27 -35 0
35 -23 -29 0
-35 23 0
-35 29 0
-36 71 85 38 0
-36 71 37 38 0
-36 85 37 38 0
36 -71 -85 0
36 -85 -37 0
36 -38 0
36 -71 -37 0
37 -70 -84 0
-37 70 0
-37 84 0
38 -25 -35 0
-38 25 0
-38 35 0
39 -40 41 0
39 40 -41 0
-39 40 41 0
-39 -40 -41 0
40 73 -87 0
40 -73 87 0
-40 -73 -87 0
-40 73 87 0
-41 72 42 0
-41 86 42 0
41 -42 0
41 -72 -86 0
42 -33 -34 0
-42 33 0
-42 34 0
43 -44 45 0
43 44 -45 0
-43 44 45 0
-43 -44 -45 0
44 74 -88 0
44 -74 88 0
-44 -74 -88 0
-44 74 88 0
-45 34 46 0
-45 46 48 0
45 -46 0
45 -34 -48 0
-46 73 47 0
-46 87 47 0
-46 73 87 0
46 -73 -87 0
46 -87 -47 0
46 -73 -47 0
47 -72 -86 0
-47 72 0
-47 86 0
48 -33 -40 0
-48 33 0
-48 40 0
49 -50 51 0
49 50 -51 0
-49 50 51 0
-49 -50 -51 0
50 75 -89 0
50 -75 89 0
-50 -75 -89 0
-50 75 89 0
-51 74 52 0
-51 88 52 0
51 -52 0
51 -74 -88 0
52 -44 -45 0
-52 44 0
-52 45 0
53 -54 55 0
53 54 -55 0
-53 54 55 0
-53 -54 -55 0
54 76 -90 0
54 -76 90 0
-54 -76 -90 0
-54 76 90 0
-55 48 57 0
-55 56 57 0
-55 34 57 0
55 -57 0
55 -34 -48 -56 0
56 -44 -50 0
-56 44 0
-56 50 0
-57 75 89 59 0
-57 75 58 59 0
-57 89 58 59 0
57 -75 -89 0
57 -89 -58 0
57 -59 0
57 -75 -58 0
58 -74 -88 0
-58 74 0
-58 88 0
59 -46 -56 0
-59 46 0
-59 56 0
60 -61 62 0
60 61 -62 0
-60 61 62 0
-60 -61 -62 0
61 77 -91 0
61 -77 91 0
-61 -77 -91 0
-61 77 91 0
-62 76 63 0
-62 90 63 0
62 -63 0
62 -76 -90 0
63 76 -90 -55 0
63 -76 90 -55 0
-63 55 0
-63 76 90 0
-63 -76 -90 0
-92 0
2 0
3 0
6 0
9 0
13 0
18 0
22 0
28 0
32 0
39 0
43 0
49 0
53 0
60 0

