c Result of efficient AIG-to-CNF conversion using package CNF
p cnf 599 2067
2 -579 -589 0
-2 579 0
-2 589 0
3 4 -5 0
3 -4 5 0
-3 -4 -5 0
-3 4 5 0
4 -579 -590 0
-4 579 0
-4 590 0
5 -580 -589 0
-5 580 0
-5 589 0
6 7 -8 0
6 -7 8 0
-6 -7 -8 0
-6 7 8 0
7 -579 -580 -589 -590 0
-7 590 0
-7 579 0
-7 589 0
-7 580 0
8 9 -12 0
8 -9 12 0
-8 -9 -12 0
-8 9 12 0
9 10 -11 0
9 -10 11 0
-9 -10 -11 0
-9 10 11 0
10 -579 -591 0
-10 579 0
-10 591 0
11 -580 -590 0
-11 580 0
-11 590 0
12 -581 -589 0
-12 581 0
-12 589 0
13 14 -15 0
13 -14 15 0
-13 -14 -15 0
-13 14 15 0
14 -7 -8 0
-14 7 0
-14 8 0
15 16 -17 0
15 -16 17 0
-15 -16 -17 0
-15 16 17 0
16 -581 -589 -9 0
-16 581 0
-16 589 0
-16 9 0
17 18 -25 0
17 -18 25 0
-17 -18 -25 0
-17 18 25 0
18 19 -20 0
18 -19 20 0
-18 -19 -20 0
-18 19 20 0
19 -579 -580 -590 -591 0
-19 591 0
-19 579 0
-19 590 0
-19 580 0
20 21 -24 0
20 -21 24 0
-20 -21 -24 0
-20 21 24 0
21 22 -23 0
21 -22 23 0
-21 -22 -23 0
-21 22 23 0
22 -579 -592 0
-22 579 0
-22 592 0
23 -580 -591 0
-23 580 0
-23 591 0
24 -581 -590 0
-24 581 0
-24 590 0
25 -582 -589 0
-25 582 0
-25 589 0
26 -27 44 0
26 27 -44 0
-26 27 44 0
-26 -27 -44 0
27 28 -29 0
27 -28 29 0
-27 -28 -29 0
-27 28 29 0
28 -582 -589 -18 0
-28 582 0
-28 589 0
-28 18 0
29 30 -43 0
29 -30 43 0
-29 -30 -43 0
-29 30 43 0
30 31 -32 0
30 -31 32 0
-30 -31 -32 0
-30 31 32 0
31 -19 -20 0
-31 19 0
-31 20 0
32 33 -34 0
32 -33 34 0
-32 -33 -34 0
-32 33 34 0
33 -579 -593 0
-33 579 0
-33 593 0
34 -35 40 0
34 35 -40 0
-34 35 40 0
-34 -35 -40 0
35 36 -39 0
35 -36 39 0
-35 -36 -39 0
-35 36 39 0
36 37 -38 0
36 -37 38 0
-36 -37 -38 0
-36 37 38 0
37 -580 -592 0
-37 580 0
-37 592 0
38 -581 -591 0
-38 581 0
-38 591 0
39 -582 -590 0
-39 582 0
-39 590 0
-40 41 42 0
40 -41 0
40 -42 0
41 -579 -580 -591 -592 0
-41 592 0
-41 579 0
-41 591 0
-41 580 0
42 -581 -590 -21 0
-42 581 0
-42 590 0
-42 21 0
43 -583 -589 0
-43 583 0
-43 589 0
-44 45 46 0
44 -45 0
44 -46 0
45 -16 -17 0
-45 16 0
-45 17 0
46 -14 -15 0
-46 14 0
-46 15 0
47 -48 71 0
47 48 -71 0
-47 48 71 0
-47 -48 -71 0
48 49 -50 0
48 -49 50 0
-48 -49 -50 0
-48 49 50 0
49 -583 -589 -30 0
-49 583 0
-49 589 0
-49 30 0
50 51 -70 0
50 -51 70 0
-50 -51 -70 0
-50 51 70 0
51 52 -53 0
51 -52 53 0
-51 -52 -53 0
-51 52 53 0
52 -31 -32 0
-52 31 0
-52 32 0
53 54 -55 0
53 -54 55 0
-53 -54 -55 0
-53 54 55 0
54 -35 -40 0
-54 35 0
-54 40 0
55 56 -57 0
55 -56 57 0
-55 -56 -57 0
-55 56 57 0
56 -579 -593 -34 0
-56 579 0
-56 593 0
-56 34 0
57 58 -61 0
57 -58 61 0
-57 -58 -61 0
-57 58 61 0
58 59 -60 0
58 -59 60 0
-58 -59 -60 0
-58 59 60 0
59 -579 -594 0
-59 579 0
-59 594 0
60 -580 -593 0
-60 580 0
-60 593 0
61 -62 67 0
61 62 -67 0
-61 62 67 0
-61 -62 -67 0
62 63 -66 0
62 -63 66 0
-62 -63 -66 0
-62 63 66 0
63 64 -65 0
63 -64 65 0
-63 -64 -65 0
-63 64 65 0
64 -581 -592 0
-64 581 0
-64 592 0
65 -582 -591 0
-65 582 0
-65 591 0
66 -583 -590 0
-66 583 0
-66 590 0
-67 68 69 0
67 -68 0
67 -69 0
68 -580 -581 -591 -592 0
-68 592 0
-68 580 0
-68 591 0
-68 581 0
69 -582 -590 -36 0
-69 582 0
-69 590 0
-69 36 0
70 -584 -589 0
-70 584 0
-70 589 0
-71 72 73 0
71 -72 0
71 -73 0
72 -28 -29 0
-72 28 0
-72 29 0
73 -27 -44 0
-73 27 0
-73 44 0
74 -75 106 0
74 75 -106 0
-74 75 106 0
-74 -75 -106 0
75 -76 103 0
75 76 -103 0
-75 76 103 0
-75 -76 -103 0
76 77 -102 0
76 -77 102 0
-76 -77 -102 0
-76 77 102 0
77 -78 99 0
77 78 -99 0
-77 78 99 0
-77 -78 -99 0
78 79 -80 0
78 -79 80 0
-78 -79 -80 0
-78 79 80 0
79 -62 -67 0
-79 62 0
-79 67 0
80 81 -82 0
80 -81 82 0
-80 -81 -82 0
-80 81 82 0
81 -58 -61 0
-81 58 0
-81 61 0
82 83 -88 0
82 -83 88 0
-82 -83 -88 0
-82 83 88 0
83 84 -87 0
83 -84 87 0
-83 -84 -87 0
-83 84 87 0
84 85 -86 0
84 -85 86 0
-84 -85 -86 0
-84 85 86 0
85 -579 -595 0
-85 579 0
-85 595 0
86 -580 -594 0
-86 580 0
-86 594 0
87 -581 -593 0
-87 581 0
-87 593 0
88 -89 96 0
88 89 -96 0
-88 89 96 0
-88 -89 -96 0
89 90 -91 0
89 -90 91 0
-89 -90 -91 0
-89 90 91 0
90 -579 -580 -593 -594 0
-90 594 0
-90 579 0
-90 593 0
-90 580 0
91 92 -95 0
91 -92 95 0
-91 -92 -95 0
-91 92 95 0
92 93 -94 0
92 -93 94 0
-92 -93 -94 0
-92 93 94 0
93 -582 -592 0
-93 582 0
-93 592 0
94 -583 -591 0
-94 583 0
-94 591 0
95 -584 -590 0
-95 584 0
-95 590 0
-96 97 98 0
96 -97 0
96 -98 0
97 -581 -582 -591 -592 0
-97 592 0
-97 581 0
-97 591 0
-97 582 0
98 -583 -590 -63 0
-98 583 0
-98 590 0
-98 63 0
-99 100 101 0
99 -100 0
99 -101 0
100 -56 -57 0
-100 56 0
-100 57 0
101 -54 -57 0
-101 54 0
-101 57 0
102 -585 -589 0
-102 585 0
-102 589 0
-103 104 105 0
103 -104 0
103 -105 0
104 -52 -53 0
-104 52 0
-104 53 0
105 -584 -589 -51 0
-105 584 0
-105 589 0
-105 51 0
-106 44 107 0
-106 107 109 0
106 -107 0
106 -44 -109 0
-107 108 48 0
-107 72 108 0
107 -108 0
107 -72 -48 0
108 -49 -50 0
-108 49 0
-108 50 0
109 -27 -48 0
-109 27 0
-109 48 0
110 -111 148 0
110 111 -148 0
-110 111 148 0
-110 -111 -148 0
111 -112 145 0
111 112 -145 0
-111 112 145 0
-111 -112 -145 0
112 113 -144 0
112 -113 144 0
-112 -113 -144 0
-112 113 144 0
113 -114 141 0
113 114 -141 0
-113 114 141 0
-113 -114 -141 0
114 -115 138 0
114 115 -138 0
-114 115 138 0
-114 -115 -138 0
115 116 -117 0
115 -116 117 0
-115 -116 -117 0
-115 116 117 0
116 -83 -88 0
-116 83 0
-116 88 0
117 118 -125 0
117 -118 125 0
-117 -118 -125 0
-117 118 125 0
118 119 -120 0
118 -119 120 0
-118 -119 -120 0
-118 119 120 0
119 -579 -596 0
-119 579 0
-119 596 0
120 121 -124 0
120 -121 124 0
-120 -121 -124 0
-120 121 124 0
121 122 -123 0
121 -122 123 0
-121 -122 -123 0
-121 122 123 0
122 -580 -595 0
-122 580 0
-122 595 0
123 -581 -594 0
-123 581 0
-123 594 0
124 -582 -593 0
-124 582 0
-124 593 0
125 -126 135 0
125 126 -135 0
-125 126 135 0
-125 -126 -135 0
126 127 -130 0
126 -127 130 0
-126 -127 -130 0
-126 127 130 0
-127 128 129 0
127 -128 0
127 -129 0
128 -579 -580 -594 -595 0
-128 595 0
-128 579 0
-128 594 0
-128 580 0
129 -581 -593 -84 0
-129 581 0
-129 593 0
-129 84 0
130 131 -134 0
130 -131 134 0
-130 -131 -134 0
-130 131 134 0
131 132 -133 0
131 -132 133 0
-131 -132 -133 0
-131 132 133 0
132 -583 -592 0
-132 583 0
-132 592 0
133 -584 -591 0
-133 584 0
-133 591 0
134 -585 -590 0
-134 585 0
-134 590 0
-135 136 137 0
135 -136 0
135 -137 0
136 -582 -583 -591 -592 0
-136 592 0
-136 582 0
-136 591 0
-136 583 0
137 -584 -590 -92 0
-137 584 0
-137 590 0
-137 92 0
-138 139 140 0
138 -139 0
138 -140 0
139 -90 -91 0
-139 90 0
-139 91 0
140 -89 -96 0
-140 89 0
-140 96 0
-141 142 143 0
141 -142 0
141 -143 0
142 -81 -82 0
-142 81 0
-142 82 0
143 -79 -80 0
-143 79 0
-143 80 0
144 -586 -589 0
-144 586 0
-144 589 0
-145 146 147 0
145 -146 0
145 -147 0
146 -78 -99 0
-146 78 0
-146 99 0
147 -585 -589 -77 0
-147 585 0
-147 589 0
-147 77 0
-148 149 150 0
148 -149 0
148 -150 0
149 -76 -103 0
-149 76 0
-149 103 0
150 -75 -106 0
-150 75 0
-150 106 0
151 -152 193 0
151 152 -193 0
-151 152 193 0
-151 -152 -193 0
152 -153 190 0
152 153 -190 0
-152 153 190 0
-152 -153 -190 0
153 154 -189 0
153 -154 189 0
-153 -154 -189 0
-153 154 189 0
154 -155 186 0
154 155 -186 0
-154 155 186 0
-154 -155 -186 0
155 -156 183 0
155 156 -183 0
-155 156 183 0
-155 -156 -183 0
156 157 -158 0
156 -157 158 0
-156 -157 -158 0
-156 157 158 0
157 -118 -125 0
-157 118 0
-157 125 0
158 159 -170 0
158 -159 170 0
-158 -159 -170 0
-158 159 170 0
159 160 -161 0
159 -160 161 0
-159 -160 -161 0
-159 160 161 0
160 -579 -596 -120 0
-160 579 0
-160 596 0
-160 120 0
161 162 -165 0
161 -162 165 0
-161 -162 -165 0
-161 162 165 0
162 163 -164 0
162 -163 164 0
-162 -163 -164 0
-162 163 164 0
163 -579 -597 0
-163 579 0
-163 597 0
164 -580 -596 0
-164 580 0
-164 596 0
165 166 -169 0
165 -166 169 0
-165 -166 -169 0
-165 166 169 0
166 167 -168 0
166 -167 168 0
-166 -167 -168 0
-166 167 168 0
167 -581 -595 0
-167 581 0
-167 595 0
168 -582 -594 0
-168 582 0
-168 594 0
169 -583 -593 0
-169 583 0
-169 593 0
170 -171 180 0
170 171 -180 0
-170 171 180 0
-170 -171 -180 0
171 172 -175 0
171 -172 175 0
-171 -172 -175 0
-171 172 175 0
-172 173 174 0
172 -173 0
172 -174 0
173 -580 -581 -594 -595 0
-173 595 0
-173 580 0
-173 594 0
-173 581 0
174 -582 -593 -121 0
-174 582 0
-174 593 0
-174 121 0
175 176 -179 0
175 -176 179 0
-175 -176 -179 0
-175 176 179 0
176 177 -178 0
176 -177 178 0
-176 -177 -178 0
-176 177 178 0
177 -584 -592 0
-177 584 0
-177 592 0
178 -585 -591 0
-178 585 0
-178 591 0
179 -586 -590 0
-179 586 0
-179 590 0
-180 181 182 0
180 -181 0
180 -182 0
181 -583 -584 -591 -592 0
-181 592 0
-181 583 0
-181 591 0
-181 584 0
182 -585 -590 -131 0
-182 585 0
-182 590 0
-182 131 0
-183 184 185 0
183 -184 0
183 -185 0
184 -127 -130 0
-184 127 0
-184 130 0
185 -126 -135 0
-185 126 0
-185 135 0
-186 187 188 0
186 -187 0
186 -188 0
187 -116 -117 0
-187 116 0
-187 117 0
188 -115 -138 0
-188 115 0
-188 138 0
189 -587 -589 0
-189 587 0
-189 589 0
-190 191 192 0
190 -191 0
190 -192 0
191 -114 -141 0
-191 114 0
-191 141 0
192 -586 -589 -113 0
-192 586 0
-192 589 0
-192 113 0
-193 109 195 0
-193 194 195 0
-193 44 195 0
193 -195 0
193 -44 -109 -194 0
194 -75 -111 0
-194 75 0
-194 111 0
-195 149 196 197 0
-195 196 111 197 0
195 -197 0
195 -196 0
195 -149 -111 0
196 -112 -145 0
-196 112 0
-196 145 0
197 -107 -194 0
-197 107 0
-197 194 0
198 -199 246 0
198 199 -246 0
-198 199 246 0
-198 -199 -246 0
199 -200 243 0
199 200 -243 0
-199 200 243 0
-199 -200 -243 0
200 201 -242 0
200 -201 242 0
-200 -201 -242 0
-200 201 242 0
201 -202 239 0
201 202 -239 0
-201 202 239 0
-201 -202 -239 0
202 -203 236 0
202 203 -236 0
-202 203 236 0
-202 -203 -236 0
203 -204 233 0
203 204 -233 0
-203 204 233 0
-203 -204 -233 0
204 205 -220 0
204 -205 220 0
-204 -205 -220 0
-204 205 220 0
205 206 -207 0
205 -206 207 0
-205 -206 -207 0
-205 206 207 0
206 -162 -165 0
-206 162 0
-206 165 0
207 208 -215 0
207 -208 215 0
-207 -208 -215 0
-207 208 215 0
208 209 -210 0
208 -209 210 0
-208 -209 -210 0
-208 209 210 0
209 -579 -580 -596 -597 0
-209 597 0
-209 579 0
-209 596 0
-209 580 0
210 211 -214 0
210 -211 214 0
-210 -211 -214 0
-210 211 214 0
211 212 -213 0
211 -212 213 0
-211 -212 -213 0
-211 212 213 0
212 -579 -598 0
-212 579 0
-212 598 0
213 -580 -597 0
-213 580 0
-213 597 0
214 -581 -596 0
-214 581 0
-214 596 0
215 216 -219 0
215 -216 219 0
-215 -216 -219 0
-215 216 219 0
216 217 -218 0
216 -217 218 0
-216 -217 -218 0
-216 217 218 0
217 -582 -595 0
-217 582 0
-217 595 0
218 -583 -594 0
-218 583 0
-218 594 0
219 -584 -593 0
-219 584 0
-219 593 0
220 -221 230 0
220 221 -230 0
-220 221 230 0
-220 -221 -230 0
221 222 -225 0
221 -222 225 0
-221 -222 -225 0
-221 222 225 0
-222 223 224 0
222 -223 0
222 -224 0
223 -581 -582 -594 -595 0
-223 595 0
-223 581 0
-223 594 0
-223 582 0
224 -583 -593 -166 0
-224 583 0
-224 593 0
-224 166 0
225 226 -229 0
225 -226 229 0
-225 -226 -229 0
-225 226 229 0
226 227 -228 0
226 -227 228 0
-226 -227 -228 0
-226 227 228 0
227 -585 -592 0
-227 585 0
-227 592 0
228 -586 -591 0
-228 586 0
-228 591 0
229 -587 -590 0
-229 587 0
-229 590 0
-230 231 232 0
230 -231 0
230 -232 0
231 -584 -585 -591 -592 0
-231 592 0
-231 584 0
-231 591 0
-231 585 0
232 -586 -590 -176 0
-232 586 0
-232 590 0
-232 176 0
-233 234 235 0
233 -234 0
233 -235 0
234 -160 -161 0
-234 160 0
-234 161 0
235 -159 -170 0
-235 159 0
-235 170 0
-236 237 238 0
236 -237 0
236 -238 0
237 -172 -175 0
-237 172 0
-237 175 0
238 -171 -180 0
-238 171 0
-238 180 0
-239 240 241 0
239 -240 0
239 -241 0
240 -157 -158 0
-240 157 0
-240 158 0
241 -156 -183 0
-241 156 0
-241 183 0
242 -588 -589 0
-242 588 0
-242 589 0
-243 244 245 0
243 -244 0
243 -245 0
244 -155 -186 0
-244 155 0
-244 186 0
245 -587 -589 -154 0
-245 587 0
-245 589 0
-245 154 0
-246 247 248 0
246 -247 0
246 -248 0
247 -153 -190 0
-247 153 0
-247 190 0
248 -152 -193 0
-248 152 0
-248 193 0
249 -250 299 0
249 250 -299 0
-249 250 299 0
-249 -250 -299 0
250 -251 296 0
250 251 -296 0
-250 251 296 0
-250 -251 -296 0
251 -252 293 0
251 252 -293 0
-251 252 293 0
-251 -252 -293 0
252 -253 290 0
252 253 -290 0
-252 253 290 0
-252 -253 -290 0
253 -254 287 0
253 254 -287 0
-253 254 287 0
-253 -254 -287 0
254 255 -274 0
254 -255 274 0
-254 -255 -274 0
-254 255 274 0
255 -256 271 0
255 256 -271 0
-255 256 271 0
-255 -256 -271 0
256 257 -266 0
256 -257 266 0
-256 -257 -266 0
-256 257 266 0
257 -258 263 0
257 258 -263 0
-257 258 263 0
-257 -258 -263 0
258 259 -262 0
258 -259 262 0
-258 -259 -262 0
-258 259 262 0
259 260 -261 0
259 -260 261 0
-259 -260 -261 0
-259 260 261 0
260 -580 -598 0
-260 580 0
-260 598 0
261 -581 -597 0
-261 581 0
-261 597 0
262 -582 -596 0
-262 582 0
-262 596 0
-263 264 265 0
263 -264 0
263 -265 0
264 -579 -580 -597 -598 0
-264 598 0
-264 579 0
-264 597 0
-264 580 0
265 -581 -596 -211 0
-265 581 0
-265 596 0
-265 211 0
266 267 -270 0
266 -267 270 0
-266 -267 -270 0
-266 267 270 0
267 268 -269 0
267 -268 269 0
-267 -268 -269 0
-267 268 269 0
268 -583 -595 0
-268 583 0
-268 595 0
269 -584 -594 0
-269 584 0
-269 594 0
270 -585 -593 0
-270 585 0
-270 593 0
-271 272 273 0
271 -272 0
271 -273 0
272 -209 -210 0
-272 209 0
-272 210 0
273 -208 -215 0
-273 208 0
-273 215 0
274 -275 284 0
274 275 -284 0
-274 275 284 0
-274 -275 -284 0
275 276 -279 0
275 -276 279 0
-275 -276 -279 0
-275 276 279 0
-276 277 278 0
276 -277 0
276 -278 0
277 -582 -583 -594 -595 0
-277 595 0
-277 582 0
-277 594 0
-277 583 0
278 -584 -593 -216 0
-278 584 0
-278 593 0
-278 216 0
279 280 -283 0
279 -280 283 0
-279 -280 -283 0
-279 280 283 0
280 281 -282 0
280 -281 282 0
-280 -281 -282 0
-280 281 282 0
281 -586 -592 0
-281 586 0
-281 592 0
282 -587 -591 0
-282 587 0
-282 591 0
283 -588 -590 0
-283 588 0
-283 590 0
-284 285 286 0
284 -285 0
284 -286 0
285 -585 -586 -591 -592 0
-285 592 0
-285 585 0
-285 591 0
-285 586 0
286 -587 -590 -226 0
-286 587 0
-286 590 0
-286 226 0
-287 288 289 0
287 -288 0
287 -289 0
288 -206 -207 0
-288 206 0
-288 207 0
289 -205 -220 0
-289 205 0
-289 220 0
-290 291 292 0
290 -291 0
290 -292 0
291 -222 -225 0
-291 222 0
-291 225 0
292 -221 -230 0
-292 221 0
-292 230 0
-293 294 295 0
293 -294 0
293 -295 0
294 -204 -233 0
-294 204 0
-294 233 0
295 -203 -236 0
-295 203 0
-295 236 0
-296 297 298 0
296 -297 0
296 -298 0
297 -202 -239 0
-297 202 0
-297 239 0
298 -588 -589 -201 0
-298 588 0
-298 589 0
-298 201 0
-299 193 300 0
-299 300 302 0
299 -300 0
299 -193 -302 0
-300 301 199 0
-300 247 301 0
300 -301 0
300 -247 -199 0
301 -200 -243 0
-301 200 0
-301 243 0
302 -152 -199 0
-302 152 0
-302 199 0
303 -304 349 0
303 304 -349 0
-303 304 349 0
-303 -304 -349 0
304 305 -306 0
304 -305 306 0
-304 -305 -306 0
-304 305 306 0
305 -252 -293 0
-305 252 0
-305 293 0
306 -307 346 0
306 307 -346 0
-306 307 346 0
-306 -307 -346 0
307 -308 343 0
307 308 -343 0
-307 308 343 0
-307 -308 -343 0
308 -309 340 0
308 309 -340 0
-308 309 340 0
-308 -309 -340 0
309 310 -329 0
309 -310 329 0
-309 -310 -329 0
-309 310 329 0
310 -311 326 0
310 311 -326 0
-310 311 326 0
-310 -311 -326 0
311 312 -321 0
311 -312 321 0
-311 -312 -321 0
-311 312 321 0
312 -313 318 0
312 313 -318 0
-312 313 318 0
-312 -313 -318 0
313 314 -317 0
313 -314 317 0
-313 -314 -317 0
-313 314 317 0
314 315 -316 0
314 -315 316 0
-314 -315 -316 0
-314 315 316 0
315 -581 -598 0
-315 581 0
-315 598 0
316 -582 -597 0
-316 582 0
-316 597 0
317 -583 -596 0
-317 583 0
-317 596 0
-318 319 320 0
318 -319 0
318 -320 0
319 -580 -581 -597 -598 0
-319 598 0
-319 580 0
-319 597 0
-319 581 0
320 -582 -596 -259 0
-320 582 0
-320 596 0
-320 259 0
321 322 -325 0
321 -322 325 0
-321 -322 -325 0
-321 322 325 0
322 323 -324 0
322 -323 324 0
-322 -323 -324 0
-322 323 324 0
323 -584 -595 0
-323 584 0
-323 595 0
324 -585 -594 0
-324 585 0
-324 594 0
325 -586 -593 0
-325 586 0
-325 593 0
-326 327 328 0
326 -327 0
326 -328 0
327 -258 -263 0
-327 258 0
-327 263 0
328 -257 -266 0
-328 257 0
-328 266 0
329 -330 337 0
329 330 -337 0
-329 330 337 0
-329 -330 -337 0
330 331 -334 0
330 -331 334 0
-330 -331 -334 0
-330 331 334 0
-331 332 333 0
331 -332 0
331 -333 0
332 -583 -584 -594 -595 0
-332 595 0
-332 583 0
-332 594 0
-332 584 0
333 -585 -593 -267 0
-333 585 0
-333 593 0
-333 267 0
334 335 -336 0
334 -335 336 0
-334 -335 -336 0
-334 335 336 0
335 -587 -592 0
-335 587 0
-335 592 0
336 -588 -591 0
-336 588 0
-336 591 0
-337 338 339 0
337 -338 0
337 -339 0
338 -586 -587 -591 -592 0
-338 592 0
-338 586 0
-338 591 0
-338 587 0
339 -588 -590 -280 0
-339 588 0
-339 590 0
-339 280 0
-340 341 342 0
340 -341 0
340 -342 0
341 -256 -271 0
-341 256 0
-341 271 0
342 -255 -274 0
-342 255 0
-342 274 0
-343 344 345 0
343 -344 0
343 -345 0
344 -276 -279 0
-344 276 0
-344 279 0
345 -275 -284 0
-345 275 0
-345 284 0
-346 347 348 0
346 -347 0
346 -348 0
347 -254 -287 0
-347 254 0
-347 287 0
348 -253 -290 0
-348 253 0
-348 290 0
-349 350 351 0
349 -350 0
349 -351 0
350 -251 -296 0
-350 251 0
-350 296 0
351 -250 -299 0
-351 250 0
-351 299 0
352 -353 394 0
352 353 -394 0
-352 353 394 0
-352 -353 -394 0
353 354 -355 0
353 -354 355 0
-353 -354 -355 0
-353 354 355 0
354 -307 -346 0
-354 307 0
-354 346 0
355 -356 391 0
355 356 -391 0
-355 356 391 0
-355 -356 -391 0
356 -357 388 0
356 357 -388 0
-356 357 388 0
-356 -357 -388 0
357 -358 385 0
357 358 -385 0
-357 358 385 0
-357 -358 -385 0
358 359 -378 0
358 -359 378 0
-358 -359 -378 0
-358 359 378 0
359 -360 375 0
359 360 -375 0
-359 360 375 0
-359 -360 -375 0
360 361 -370 0
360 -361 370 0
-360 -361 -370 0
-360 361 370 0
361 -362 367 0
361 362 -367 0
-361 362 367 0
-361 -362 -367 0
362 363 -366 0
362 -363 366 0
-362 -363 -366 0
-362 363 366 0
363 364 -365 0
363 -364 365 0
-363 -364 -365 0
-363 364 365 0
364 -582 -598 0
-364 582 0
-364 598 0
365 -583 -597 0
-365 583 0
-365 597 0
366 -584 -596 0
-366 584 0
-366 596 0
-367 368 369 0
367 -368 0
367 -369 0
368 -581 -582 -597 -598 0
-368 598 0
-368 581 0
-368 597 0
-368 582 0
369 -583 -596 -314 0
-369 583 0
-369 596 0
-369 314 0
370 371 -374 0
370 -371 374 0
-370 -371 -374 0
-370 371 374 0
371 372 -373 0
371 -372 373 0
-371 -372 -373 0
-371 372 373 0
372 -585 -595 0
-372 585 0
-372 595 0
373 -586 -594 0
-373 586 0
-373 594 0
374 -587 -593 0
-374 587 0
-374 593 0
-375 376 377 0
375 -376 0
375 -377 0
376 -313 -318 0
-376 313 0
-376 318 0
377 -312 -321 0
-377 312 0
-377 321 0
378 379 -380 0
378 -379 380 0
-378 -379 -380 0
-378 379 380 0
379 -587 -588 -591 -592 0
-379 592 0
-379 587 0
-379 591 0
-379 588 0
380 381 -384 0
380 -381 384 0
-380 -381 -384 0
-380 381 384 0
-381 382 383 0
381 -382 0
381 -383 0
382 -584 -585 -594 -595 0
-382 595 0
-382 584 0
-382 594 0
-382 585 0
383 -586 -593 -322 0
-383 586 0
-383 593 0
-383 322 0
384 -588 -592 0
-384 588 0
-384 592 0
-385 386 387 0
385 -386 0
385 -387 0
386 -311 -326 0
-386 311 0
-386 326 0
387 -310 -329 0
-387 310 0
-387 329 0
-388 389 390 0
388 -389 0
388 -390 0
389 -331 -334 0
-389 331 0
-389 334 0
390 -330 -337 0
-390 330 0
-390 337 0
-391 392 393 0
391 -392 0
391 -393 0
392 -309 -340 0
-392 309 0
-392 340 0
393 -308 -343 0
-393 308 0
-393 343 0
-394 193 395 0
-394 395 399 0
394 -395 0
394 -193 -399 0
-395 350 396 397 0
-395 396 304 397 0
395 -397 0
395 -396 0
395 -350 -304 0
396 -305 -306 0
-396 305 0
-396 306 0
397 -300 -398 0
-397 300 0
-397 398 0
398 -250 -304 0
-398 250 0
-398 304 0
399 -302 -398 0
-399 302 0
-399 398 0
400 -401 438 0
400 401 -438 0
-400 401 438 0
-400 -401 -438 0
401 402 -403 0
401 -402 403 0
-401 -402 -403 0
-401 402 403 0
402 -356 -391 0
-402 356 0
-402 391 0
403 -404 435 0
403 404 -435 0
-403 404 435 0
-403 -404 -435 0
404 -405 432 0
404 405 -432 0
-404 405 432 0
-404 -405 -432 0
405 -406 429 0
405 406 -429 0
-405 406 429 0
-405 -406 -429 0
406 -407 426 0
406 407 -426 0
-406 407 426 0
-406 -407 -426 0
407 -408 423 0
407 408 -423 0
-407 408 423 0
-407 -408 -423 0
408 409 -418 0
408 -409 418 0
-408 -409 -418 0
-408 409 418 0
409 -410 415 0
409 410 -415 0
-409 410 415 0
-409 -410 -415 0
410 411 -414 0
410 -411 414 0
-410 -411 -414 0
-410 411 414 0
411 412 -413 0
411 -412 413 0
-411 -412 -413 0
-411 412 413 0
412 -583 -598 0
-412 583 0
-412 598 0
413 -584 -597 0
-413 584 0
-413 597 0
414 -585 -596 0
-414 585 0
-414 596 0
-415 416 417 0
415 -416 0
415 -417 0
416 -582 -583 -597 -598 0
-416 598 0
-416 582 0
-416 597 0
-416 583 0
417 -584 -596 -363 0
-417 584 0
-417 596 0
-417 363 0
418 419 -422 0
418 -419 422 0
-418 -419 -422 0
-418 419 422 0
419 420 -421 0
419 -420 421 0
-419 -420 -421 0
-419 420 421 0
420 -586 -595 0
-420 586 0
-420 595 0
421 -587 -594 0
-421 587 0
-421 594 0
422 -588 -593 0
-422 588 0
-422 593 0
-423 424 425 0
423 -424 0
423 -425 0
424 -362 -367 0
-424 362 0
-424 367 0
425 -361 -370 0
-425 361 0
-425 370 0
-426 427 428 0
426 -427 0
426 -428 0
427 -585 -586 -594 -595 0
-427 595 0
-427 585 0
-427 594 0
-427 586 0
428 -587 -593 -371 0
-428 587 0
-428 593 0
-428 371 0
-429 430 431 0
429 -430 0
429 -431 0
430 -360 -375 0
-430 360 0
-430 375 0
431 -359 -378 0
-431 359 0
-431 378 0
-432 433 434 0
432 -433 0
432 -434 0
433 -588 -592 -381 0
-433 588 0
-433 592 0
-433 381 0
434 -379 -380 0
-434 379 0
-434 380 0
-435 436 437 0
435 -436 0
435 -437 0
436 -358 -385 0
-436 358 0
-436 385 0
437 -357 -388 0
-437 357 0
-437 388 0
-438 439 440 0
438 -439 0
438 -440 0
439 -354 -355 0
-439 354 0
-439 355 0
440 -353 -394 0
-440 353 0
-440 394 0
441 -442 473 0
441 442 -473 0
-441 442 473 0
-441 -442 -473 0
442 443 -444 0
442 -443 444 0
-442 -443 -444 0
-442 443 444 0
443 -404 -435 0
-443 404 0
-443 435 0
444 -445 470 0
444 445 -470 0
-444 445 470 0
-444 -445 -470 0
445 -446 467 0
445 446 -467 0
-445 446 467 0
-445 -446 -467 0
446 -447 464 0
446 447 -464 0
-446 447 464 0
-446 -447 -464 0
447 -448 461 0
447 448 -461 0
-447 448 461 0
-447 -448 -461 0
448 449 -458 0
448 -449 458 0
-448 -449 -458 0
-448 449 458 0
449 -450 455 0
449 450 -455 0
-449 450 455 0
-449 -450 -455 0
450 451 -454 0
450 -451 454 0
-450 -451 -454 0
-450 451 454 0
451 452 -453 0
451 -452 453 0
-451 -452 -453 0
-451 452 453 0
452 -584 -598 0
-452 584 0
-452 598 0
453 -585 -597 0
-453 585 0
-453 597 0
454 -586 -596 0
-454 586 0
-454 596 0
-455 456 457 0
455 -456 0
455 -457 0
456 -583 -584 -597 -598 0
-456 598 0
-456 583 0
-456 597 0
-456 584 0
457 -585 -596 -411 0
-457 585 0
-457 596 0
-457 411 0
458 459 -460 0
458 -459 460 0
-458 -459 -460 0
-458 459 460 0
459 -587 -595 0
-459 587 0
-459 595 0
460 -588 -594 0
-460 588 0
-460 594 0
-461 462 463 0
461 -462 0
461 -463 0
462 -410 -415 0
-462 410 0
-462 415 0
463 -409 -418 0
-463 409 0
-463 418 0
-464 465 466 0
464 -465 0
464 -466 0
465 -586 -587 -594 -595 0
-465 595 0
-465 586 0
-465 594 0
-465 587 0
466 -588 -593 -419 0
-466 588 0
-466 593 0
-466 419 0
-467 468 469 0
467 -468 0
467 -469 0
468 -408 -423 0
-468 408 0
-468 423 0
469 -407 -426 0
-469 407 0
-469 426 0
-470 471 472 0
470 -471 0
470 -472 0
471 -406 -429 0
-471 406 0
-471 429 0
472 -405 -432 0
-472 405 0
-472 432 0
-473 394 474 0
-473 474 476 0
473 -474 0
473 -394 -476 0
-474 475 401 0
-474 439 475 0
474 -475 0
474 -439 -401 0
475 -402 -403 0
-475 402 0
-475 403 0
476 -353 -401 0
-476 353 0
-476 401 0
477 -478 503 0
477 478 -503 0
-477 478 503 0
-477 -478 -503 0
478 479 -480 0
478 -479 480 0
-478 -479 -480 0
-478 479 480 0
479 -445 -470 0
-479 445 0
-479 470 0
480 481 -482 0
480 -481 482 0
-480 -481 -482 0
-480 481 482 0
481 -446 -467 0
-481 446 0
-481 467 0
482 -483 500 0
482 483 -500 0
-482 483 500 0
-482 -483 -500 0
483 484 -485 0
483 -484 485 0
-483 -484 -485 0
-483 484 485 0
484 -587 -588 -594 -595 0
-484 595 0
-484 587 0
-484 594 0
-484 588 0
485 -486 497 0
485 486 -497 0
-485 486 497 0
-485 -486 -497 0
486 487 -496 0
486 -487 496 0
-486 -487 -496 0
-486 487 496 0
487 -488 493 0
487 488 -493 0
-487 488 493 0
-487 -488 -493 0
488 489 -492 0
488 -489 492 0
-488 -489 -492 0
-488 489 492 0
489 490 -491 0
489 -490 491 0
-489 -490 -491 0
-489 490 491 0
490 -585 -598 0
-490 585 0
-490 598 0
491 -586 -597 0
-491 586 0
-491 597 0
492 -587 -596 0
-492 587 0
-492 596 0
-493 494 495 0
493 -494 0
493 -495 0
494 -584 -585 -597 -598 0
-494 598 0
-494 584 0
-494 597 0
-494 585 0
495 -586 -596 -451 0
-495 586 0
-495 596 0
-495 451 0
496 -588 -595 0
-496 588 0
-496 595 0
-497 498 499 0
497 -498 0
497 -499 0
498 -450 -455 0
-498 450 0
-498 455 0
499 -449 -458 0
-499 449 0
-499 458 0
-500 501 502 0
500 -501 0
500 -502 0
501 -448 -461 0
-501 448 0
-501 461 0
502 -447 -464 0
-502 447 0
-502 464 0
-503 504 505 0
503 -504 0
503 -505 0
504 -443 -444 0
-504 443 0
-504 444 0
505 -442 -473 0
-505 442 0
-505 473 0
506 -507 528 0
506 507 -528 0
-506 507 528 0
-506 -507 -528 0
507 508 -509 0
507 -508 509 0
-507 -508 -509 0
-507 508 509 0
508 -481 -482 0
-508 481 0
-508 482 0
509 510 -511 0
509 -510 511 0
-509 -510 -511 0
-509 510 511 0
510 -483 -500 0
-510 483 0
-510 500 0
511 -512 525 0
511 512 -525 0
-511 512 525 0
-511 -512 -525 0
512 -513 522 0
512 513 -522 0
-512 513 522 0
-512 -513 -522 0
513 -514 519 0
513 514 -519 0
-513 514 519 0
-513 -514 -519 0
514 515 -518 0
514 -515 518 0
-514 -515 -518 0
-514 515 518 0
515 516 -517 0
515 -516 517 0
-515 -516 -517 0
-515 516 517 0
516 -586 -598 0
-516 586 0
-516 598 0
517 -587 -597 0
-517 587 0
-517 597 0
518 -588 -596 0
-518 588 0
-518 596 0
-519 520 521 0
519 -520 0
519 -521 0
520 -585 -586 -597 -598 0
-520 598 0
-520 585 0
-520 597 0
-520 586 0
521 -587 -596 -489 0
-521 587 0
-521 596 0
-521 489 0
-522 523 524 0
522 -523 0
522 -524 0
523 -488 -493 0
-523 488 0
-523 493 0
524 -588 -595 -487 0
-524 588 0
-524 595 0
-524 487 0
-525 526 527 0
525 -526 0
525 -527 0
526 -486 -497 0
-526 486 0
-526 497 0
527 -484 -485 0
-527 484 0
-527 485 0
-528 399 531 0
-528 529 531 0
-528 193 531 0
528 -531 0
528 -193 -399 -529 0
529 -476 -530 0
-529 476 0
-529 530 0
530 -442 -478 0
-530 442 0
-530 478 0
-531 395 532 534 0
-531 532 534 529 0
531 -532 0
531 -534 0
531 -395 -529 0
-532 533 478 0
-532 504 533 0
532 -533 0
532 -504 -478 0
533 -479 -480 0
-533 479 0
-533 480 0
534 -474 -530 0
-534 474 0
-534 530 0
535 -536 551 0
535 536 -551 0
-535 536 551 0
-535 -536 -551 0
536 537 -538 0
536 -537 538 0
-536 -537 -538 0
-536 537 538 0
537 -510 -511 0
-537 510 0
-537 511 0
538 539 -540 0
538 -539 540 0
-538 -539 -540 0
-538 539 540 0
539 -512 -525 0
-539 512 0
-539 525 0
540 541 -542 0
540 -541 542 0
-540 -541 -542 0
-540 541 542 0
541 -513 -522 0
-541 513 0
-541 522 0
542 543 -544 0
542 -543 544 0
-542 -543 -544 0
-542 543 544 0
543 -514 -519 0
-543 514 0
-543 519 0
544 -545 548 0
544 545 -548 0
-544 545 548 0
-544 -545 -548 0
545 546 -547 0
545 -546 547 0
-545 -546 -547 0
-545 546 547 0
546 -587 -598 0
-546 587 0
-546 598 0
547 -588 -597 0
-547 588 0
-547 597 0
-548 549 550 0
548 -549 0
548 -550 0
549 -586 -587 -597 -598 0
-549 598 0
-549 586 0
-549 597 0
-549 587 0
550 -588 -596 -515 0
-550 588 0
-550 596 0
-550 515 0
-551 552 553 0
551 -552 0
551 -553 0
552 -508 -509 0
-552 508 0
-552 509 0
553 -507 -528 0
-553 507 0
-553 528 0
554 -555 564 0
554 555 -564 0
-554 555 564 0
-554 -555 -564 0
555 556 -557 0
555 -556 557 0
-555 -556 -557 0
-555 556 557 0
556 -539 -540 0
-556 539 0
-556 540 0
557 558 -559 0
557 -558 559 0
-557 -558 -559 0
-557 558 559 0
558 -541 -542 0
-558 541 0
-558 542 0
559 560 -561 0
559 -560 561 0
-559 -560 -561 0
-559 560 561 0
560 -543 -544 0
-560 543 0
-560 544 0
561 562 -563 0
561 -562 563 0
-561 -562 -563 0
-561 562 563 0
562 -545 -548 0
-562 545 0
-562 548 0
563 587 -588 -598 0
563 -588 597 -598 0
-563 598 0
-563 588 0
-563 -587 -597 0
-564 507 565 0
-564 528 565 0
-564 536 565 0
564 -565 0
564 -507 -528 -536 0
-565 566 536 0
-565 552 566 0
565 -566 0
565 -552 -536 0
566 -537 -538 0
-566 537 0
-566 538 0
567 -568 576 0
567 568 -576 0
-567 568 576 0
-567 -568 -576 0
568 569 -570 0
568 -569 570 0
-568 -569 -570 0
-568 569 570 0
569 -558 -559 0
-569 558 0
-569 559 0
570 571 -572 0
570 -571 572 0
-570 -571 -572 0
-570 571 572 0
571 -560 -561 0
-571 560 0
-571 561 0
572 -573 0
-572 573 0
-573 574 575 0
573 -574 0
573 -575 0
574 -587 -588 -597 -598 0
-574 598 0
-574 587 0
-574 597 0
-574 588 0
575 -562 -563 0
-575 562 0
-575 563 0
-576 577 578 0
576 -577 0
576 -578 0
577 -556 -557 0
-577 556 0
-577 557 0
578 -555 -564 0
-578 555 0
-578 564 0
-599 0
2 0
3 0
6 0
13 0
26 0
47 0
74 0
110 0
151 0
198 0
249 0
303 0
352 0
400 0
441 0
477 0
506 0
535 0
554 0
567 0

