c Result of efficient AIG-to-CNF conversion using package CNF
p cnf 477 1419
2 349 -413 0
2 -349 413 0
-2 -349 -413 0
-2 349 413 0
3 4 -5 0
3 -4 5 0
-3 -4 -5 0
-3 4 5 0
4 -349 -413 0
-4 349 0
-4 413 0
5 350 -414 0
5 -350 414 0
-5 -350 -414 0
-5 350 414 0
6 -7 8 0
6 7 -8 0
-6 7 8 0
-6 -7 -8 0
7 351 -415 0
7 -351 415 0
-7 -351 -415 0
-7 351 415 0
-8 350 4 0
-8 414 4 0
-8 350 414 0
8 -350 -414 0
8 -414 -4 0
8 -350 -4 0
9 -10 11 0
9 10 -11 0
-9 10 11 0
-9 -10 -11 0
10 352 -416 0
10 -352 416 0
-10 -352 -416 0
-10 352 416 0
-11 351 12 0
-11 415 12 0
11 -12 0
11 -351 -415 0
12 -7 -8 0
-12 7 0
-12 8 0
13 -14 15 0
13 14 -15 0
-13 14 15 0
-13 -14 -15 0
14 353 -417 0
14 -353 417 0
-14 -353 -417 0
-14 353 417 0
-15 7 16 0
-15 8 16 0
-15 10 16 0
15 -16 0
15 -7 -8 -10 0
-16 352 17 0
-16 416 17 0
-16 352 416 0
16 -352 -416 0
16 -416 -17 0
16 -352 -17 0
17 -351 -415 0
-17 351 0
-17 415 0
18 -19 20 0
18 19 -20 0
-18 19 20 0
-18 -19 -20 0
19 354 -418 0
19 -354 418 0
-19 -354 -418 0
-19 354 418 0
-20 353 21 0
-20 417 21 0
20 -21 0
20 -353 -417 0
21 -14 -15 0
-21 14 0
-21 15 0
22 -23 24 0
22 23 -24 0
-22 23 24 0
-22 -23 -24 0
23 355 -419 0
23 -355 419 0
-23 -355 -419 0
-23 355 419 0
-24 15 25 0
-24 25 27 0
24 -25 0
24 -15 -27 0
-25 354 26 0
-25 418 26 0
-25 354 418 0
25 -354 -418 0
25 -418 -26 0
25 -354 -26 0
26 -353 -417 0
-26 353 0
-26 417 0
27 -14 -19 0
-27 14 0
-27 19 0
28 -29 30 0
28 29 -30 0
-28 29 30 0
-28 -29 -30 0
29 356 -420 0
29 -356 420 0
-29 -356 -420 0
-29 356 420 0
-30 355 31 0
-30 419 31 0
30 -31 0
30 -355 -419 0
31 -23 -24 0
-31 23 0
-31 24 0
32 -33 34 0
32 33 -34 0
-32 33 34 0
-32 -33 -34 0
33 357 -421 0
33 -357 421 0
-33 -357 -421 0
-33 357 421 0
-34 27 36 0
-34 35 36 0
-34 15 36 0
34 -36 0
34 -15 -27 -35 0
35 -23 -29 0
-35 23 0
-35 29 0
-36 356 420 38 0
-36 356 37 38 0
-36 420 37 38 0
36 -356 -420 0
36 -420 -37 0
36 -38 0
36 -356 -37 0
37 -355 -419 0
-37 355 0
-37 419 0
38 -25 -35 0
-38 25 0
-38 35 0
39 -40 41 0
39 40 -41 0
-39 40 41 0
-39 -40 -41 0
40 358 -422 0
40 -358 422 0
-40 -358 -422 0
-40 358 422 0
-41 357 42 0
-41 421 42 0
41 -42 0
41 -357 -421 0
42 -33 -34 0
-42 33 0
-42 34 0
43 -44 45 0
43 44 -45 0
-43 44 45 0
-43 -44 -45 0
44 359 -423 0
44 -359 423 0
-44 -359 -423 0
-44 359 423 0
-45 34 46 0
-45 46 48 0
45 -46 0
45 -34 -48 0
-46 358 47 0
-46 422 47 0
-46 358 422 0
46 -358 -422 0
46 -422 -47 0
46 -358 -47 0
47 -357 -421 0
-47 357 0
-47 421 0
48 -33 -40 0
-48 33 0
-48 40 0
49 -50 51 0
49 50 -51 0
-49 50 51 0
-49 -50 -51 0
50 360 -424 0
50 -360 424 0
-50 -360 -424 0
-50 360 424 0
-51 359 52 0
-51 423 52 0
51 -52 0
51 -359 -423 0
52 -44 -45 0
-52 44 0
-52 45 0
53 -54 55 0
53 54 -55 0
-53 54 55 0
-53 -54 -55 0
54 361 -425 0
54 -361 425 0
-54 -361 -425 0
-54 361 425 0
-55 34 56 0
-55 56 60 0
55 -56 0
55 -34 -60 0
-56 360 424 58 0
-56 360 57 58 0
-56 424 57 58 0
56 -360 -424 0
56 -424 -57 0
56 -58 0
56 -360 -57 0
57 -359 -423 0
-57 359 0
-57 423 0
58 -46 -59 0
-58 46 0
-58 59 0
59 -44 -50 0
-59 44 0
-59 50 0
60 -48 -59 0
-60 48 0
-60 59 0
61 -62 63 0
61 62 -63 0
-61 62 63 0
-61 -62 -63 0
62 362 -426 0
62 -362 426 0
-62 -362 -426 0
-62 362 426 0
-63 361 64 0
-63 425 64 0
63 -64 0
63 -361 -425 0
64 -54 -55 0
-64 54 0
-64 55 0
65 -66 67 0
65 66 -67 0
-65 66 67 0
-65 -66 -67 0
66 363 -427 0
66 -363 427 0
-66 -363 -427 0
-66 363 427 0
-67 55 68 0
-67 68 70 0
67 -68 0
67 -55 -70 0
-68 362 69 0
-68 426 69 0
-68 362 426 0
68 -362 -426 0
68 -426 -69 0
68 -362 -69 0
69 -361 -425 0
-69 361 0
-69 425 0
70 -54 -62 0
-70 54 0
-70 62 0
71 -72 73 0
71 72 -73 0
-71 72 73 0
-71 -72 -73 0
72 364 -428 0
72 -364 428 0
-72 -364 -428 0
-72 364 428 0
-73 363 74 0
-73 427 74 0
73 -74 0
73 -363 -427 0
74 -66 -67 0
-74 66 0
-74 67 0
75 -76 77 0
75 76 -77 0
-75 76 77 0
-75 -76 -77 0
76 365 -429 0
76 -365 429 0
-76 -365 -429 0
-76 365 429 0
-77 60 80 0
-77 78 80 0
-77 34 80 0
77 -80 0
77 -34 -60 -78 0
78 -70 -79 0
-78 70 0
-78 79 0
79 -66 -72 0
-79 66 0
-79 72 0
-80 56 81 83 0
-80 81 83 78 0
80 -81 0
80 -83 0
80 -56 -78 0
-81 364 82 0
-81 428 82 0
-81 364 428 0
81 -364 -428 0
81 -428 -82 0
81 -364 -82 0
82 -363 -427 0
-82 363 0
-82 427 0
83 -68 -79 0
-83 68 0
-83 79 0
84 -85 86 0
84 85 -86 0
-84 85 86 0
-84 -85 -86 0
85 366 -430 0
85 -366 430 0
-85 -366 -430 0
-85 366 430 0
-86 365 87 0
-86 429 87 0
86 -87 0
86 -365 -429 0
87 -76 -77 0
-87 76 0
-87 77 0
88 -89 90 0
88 89 -90 0
-88 89 90 0
-88 -89 -90 0
89 367 -431 0
89 -367 431 0
-89 -367 -431 0
-89 367 431 0
-90 77 91 0
-90 91 93 0
90 -91 0
90 -77 -93 0
-91 366 92 0
-91 430 92 0
-91 366 430 0
91 -366 -430 0
91 -430 -92 0
91 -366 -92 0
92 -365 -429 0
-92 365 0
-92 429 0
93 -76 -85 0
-93 76 0
-93 85 0
94 -95 96 0
94 95 -96 0
-94 95 96 0
-94 -95 -96 0
95 368 -432 0
95 -368 432 0
-95 -368 -432 0
-95 368 432 0
-96 367 97 0
-96 431 97 0
96 -97 0
96 -367 -431 0
97 -89 -90 0
-97 89 0
-97 90 0
98 -99 100 0
98 99 -100 0
-98 99 100 0
-98 -99 -100 0
99 369 -433 0
99 -369 433 0
-99 -369 -433 0
-99 369 433 0
-100 77 101 0
-100 101 105 0
100 -101 0
100 -77 -105 0
-101 368 432 103 0
-101 368 102 103 0
-101 432 102 103 0
101 -368 -432 0
101 -432 -102 0
101 -103 0
101 -368 -102 0
102 -367 -431 0
-102 367 0
-102 431 0
103 -91 -104 0
-103 91 0
-103 104 0
104 -89 -95 0
-104 89 0
-104 95 0
105 -93 -104 0
-105 93 0
-105 104 0
106 -107 108 0
106 107 -108 0
-106 107 108 0
-106 -107 -108 0
107 370 -434 0
107 -370 434 0
-107 -370 -434 0
-107 370 434 0
-108 369 109 0
-108 433 109 0
108 -109 0
108 -369 -433 0
109 -99 -100 0
-109 99 0
-109 100 0
110 -111 112 0
110 111 -112 0
-110 111 112 0
-110 -111 -112 0
111 371 -435 0
111 -371 435 0
-111 -371 -435 0
-111 371 435 0
-112 100 113 0
-112 113 115 0
112 -113 0
112 -100 -115 0
-113 370 114 0
-113 434 114 0
-113 370 434 0
113 -370 -434 0
113 -434 -114 0
113 -370 -114 0
114 -369 -433 0
-114 369 0
-114 433 0
115 -99 -107 0
-115 99 0
-115 107 0
116 -117 118 0
116 117 -118 0
-116 117 118 0
-116 -117 -118 0
117 372 -436 0
117 -372 436 0
-117 -372 -436 0
-117 372 436 0
-118 371 119 0
-118 435 119 0
118 -119 0
118 -371 -435 0
119 -111 -112 0
-119 111 0
-119 112 0
120 -121 122 0
120 121 -122 0
-120 121 122 0
-120 -121 -122 0
121 373 -437 0
121 -373 437 0
-121 -373 -437 0
-121 373 437 0
-122 77 123 0
-122 123 129 0
122 -123 0
122 -77 -129 0
-123 101 124 126 0
-123 124 126 128 0
123 -124 0
123 -126 0
123 -101 -128 0
-124 372 125 0
-124 436 125 0
-124 372 436 0
124 -372 -436 0
124 -436 -125 0
124 -372 -125 0
125 -371 -435 0
-125 371 0
-125 435 0
126 -113 -127 0
-126 113 0
-126 127 0
127 -111 -117 0
-127 111 0
-127 117 0
128 -115 -127 0
-128 115 0
-128 127 0
129 -105 -128 0
-129 105 0
-129 128 0
130 -131 132 0
130 131 -132 0
-130 131 132 0
-130 -131 -132 0
131 374 -438 0
131 -374 438 0
-131 -374 -438 0
-131 374 438 0
-132 373 133 0
-132 437 133 0
132 -133 0
132 -373 -437 0
133 -121 -122 0
-133 121 0
-133 122 0
134 -135 136 0
134 135 -136 0
-134 135 136 0
-134 -135 -136 0
135 375 -439 0
135 -375 439 0
-135 -375 -439 0
-135 375 439 0
-136 122 137 0
-136 137 139 0
136 -137 0
136 -122 -139 0
-137 374 138 0
-137 438 138 0
-137 374 438 0
137 -374 -438 0
137 -438 -138 0
137 -374 -138 0
138 -373 -437 0
-138 373 0
-138 437 0
139 -121 -131 0
-139 121 0
-139 131 0
140 -141 142 0
140 141 -142 0
-140 141 142 0
-140 -141 -142 0
141 376 -440 0
141 -376 440 0
-141 -376 -440 0
-141 376 440 0
-142 375 143 0
-142 439 143 0
142 -143 0
142 -375 -439 0
143 -135 -136 0
-143 135 0
-143 136 0
144 -145 146 0
144 145 -146 0
-144 145 146 0
-144 -145 -146 0
145 377 -441 0
145 -377 441 0
-145 -377 -441 0
-145 377 441 0
-146 122 147 0
-146 147 151 0
146 -147 0
146 -122 -151 0
-147 376 440 149 0
-147 376 148 149 0
-147 440 148 149 0
147 -376 -440 0
147 -440 -148 0
147 -149 0
147 -376 -148 0
148 -375 -439 0
-148 375 0
-148 439 0
149 -137 -150 0
-149 137 0
-149 150 0
150 -135 -141 0
-150 135 0
-150 141 0
151 -139 -150 0
-151 139 0
-151 150 0
152 -153 154 0
152 153 -154 0
-152 153 154 0
-152 -153 -154 0
153 378 -442 0
153 -378 442 0
-153 -378 -442 0
-153 378 442 0
-154 377 155 0
-154 441 155 0
154 -155 0
154 -377 -441 0
155 -145 -146 0
-155 145 0
-155 146 0
156 -157 158 0
156 157 -158 0
-156 157 158 0
-156 -157 -158 0
157 379 -443 0
157 -379 443 0
-157 -379 -443 0
-157 379 443 0
-158 146 159 0
-158 159 161 0
158 -159 0
158 -146 -161 0
-159 378 160 0
-159 442 160 0
-159 378 442 0
159 -378 -442 0
159 -442 -160 0
159 -378 -160 0
160 -377 -441 0
-160 377 0
-160 441 0
161 -145 -153 0
-161 145 0
-161 153 0
162 -163 164 0
162 163 -164 0
-162 163 164 0
-162 -163 -164 0
163 380 -444 0
163 -380 444 0
-163 -380 -444 0
-163 380 444 0
-164 379 165 0
-164 443 165 0
164 -165 0
164 -379 -443 0
165 -157 -158 0
-165 157 0
-165 158 0
166 -167 168 0
166 167 -168 0
-166 167 168 0
-166 -167 -168 0
167 381 -445 0
167 -381 445 0
-167 -381 -445 0
-167 381 445 0
-168 129 172 0
-168 169 172 0
-168 77 172 0
168 -172 0
168 -77 -129 -169 0
169 -151 -170 0
-169 151 0
-169 170 0
170 -161 -171 0
-170 161 0
-170 171 0
171 -157 -163 0
-171 157 0
-171 163 0
-172 123 173 176 0
-172 173 176 169 0
172 -173 0
172 -176 0
172 -123 -169 0
-173 380 444 175 0
-173 380 174 175 0
-173 444 174 175 0
173 -380 -444 0
173 -444 -174 0
173 -175 0
173 -380 -174 0
174 -379 -443 0
-174 379 0
-174 443 0
175 -159 -171 0
-175 159 0
-175 171 0
176 -147 -170 0
-176 147 0
-176 170 0
177 -178 179 0
177 178 -179 0
-177 178 179 0
-177 -178 -179 0
178 382 -446 0
178 -382 446 0
-178 -382 -446 0
-178 382 446 0
-179 381 180 0
-179 445 180 0
179 -180 0
179 -381 -445 0
180 -167 -168 0
-180 167 0
-180 168 0
181 -182 183 0
181 182 -183 0
-181 182 183 0
-181 -182 -183 0
182 383 -447 0
182 -383 447 0
-182 -383 -447 0
-182 383 447 0
-183 168 184 0
-183 184 186 0
183 -184 0
183 -168 -186 0
-184 382 185 0
-184 446 185 0
-184 382 446 0
184 -382 -446 0
184 -446 -185 0
184 -382 -185 0
185 -381 -445 0
-185 381 0
-185 445 0
186 -167 -178 0
-186 167 0
-186 178 0
187 -188 189 0
187 188 -189 0
-187 188 189 0
-187 -188 -189 0
188 384 -448 0
188 -384 448 0
-188 -384 -448 0
-188 384 448 0
-189 383 190 0
-189 447 190 0
189 -190 0
189 -383 -447 0
190 -182 -183 0
-190 182 0
-190 183 0
191 -192 193 0
191 192 -193 0
-191 192 193 0
-191 -192 -193 0
192 385 -449 0
192 -385 449 0
-192 -385 -449 0
-192 385 449 0
-193 168 194 0
-193 194 198 0
193 -194 0
193 -168 -198 0
-194 384 448 196 0
-194 384 195 196 0
-194 448 195 196 0
194 -384 -448 0
194 -448 -195 0
194 -196 0
194 -384 -195 0
195 -383 -447 0
-195 383 0
-195 447 0
196 -184 -197 0
-196 184 0
-196 197 0
197 -182 -188 0
-197 182 0
-197 188 0
198 -186 -197 0
-198 186 0
-198 197 0
199 -200 201 0
199 200 -201 0
-199 200 201 0
-199 -200 -201 0
200 386 -450 0
200 -386 450 0
-200 -386 -450 0
-200 386 450 0
-201 385 202 0
-201 449 202 0
201 -202 0
201 -385 -449 0
202 -192 -193 0
-202 192 0
-202 193 0
203 -204 205 0
203 204 -205 0
-203 204 205 0
-203 -204 -205 0
204 387 -451 0
204 -387 451 0
-204 -387 -451 0
-204 387 451 0
-205 193 206 0
-205 206 208 0
205 -206 0
205 -193 -208 0
-206 386 207 0
-206 450 207 0
-206 386 450 0
206 -386 -450 0
206 -450 -207 0
206 -386 -207 0
207 -385 -449 0
-207 385 0
-207 449 0
208 -192 -200 0
-208 192 0
-208 200 0
209 -210 211 0
209 210 -211 0
-209 210 211 0
-209 -210 -211 0
210 388 -452 0
210 -388 452 0
-210 -388 -452 0
-210 388 452 0
-211 387 212 0
-211 451 212 0
211 -212 0
211 -387 -451 0
212 -204 -205 0
-212 204 0
-212 205 0
213 -214 215 0
213 214 -215 0
-213 214 215 0
-213 -214 -215 0
214 389 -453 0
214 -389 453 0
-214 -389 -453 0
-214 389 453 0
-215 168 216 0
-215 216 222 0
215 -216 0
215 -168 -222 0
-216 194 217 219 0
-216 217 219 221 0
216 -217 0
216 -219 0
216 -194 -221 0
-217 388 218 0
-217 452 218 0
-217 388 452 0
217 -388 -452 0
217 -452 -218 0
217 -388 -218 0
218 -387 -451 0
-218 387 0
-218 451 0
219 -206 -220 0
-219 206 0
-219 220 0
220 -204 -210 0
-220 204 0
-220 210 0
221 -208 -220 0
-221 208 0
-221 220 0
222 -198 -221 0
-222 198 0
-222 221 0
223 -224 225 0
223 224 -225 0
-223 224 225 0
-223 -224 -225 0
224 390 -454 0
224 -390 454 0
-224 -390 -454 0
-224 390 454 0
-225 389 226 0
-225 453 226 0
225 -226 0
225 -389 -453 0
226 -214 -215 0
-226 214 0
-226 215 0
227 -228 229 0
227 228 -229 0
-227 228 229 0
-227 -228 -229 0
228 391 -455 0
228 -391 455 0
-228 -391 -455 0
-228 391 455 0
-229 215 230 0
-229 230 232 0
229 -230 0
229 -215 -232 0
-230 390 231 0
-230 454 231 0
-230 390 454 0
230 -390 -454 0
230 -454 -231 0
230 -390 -231 0
231 -389 -453 0
-231 389 0
-231 453 0
232 -214 -224 0
-232 214 0
-232 224 0
233 -234 235 0
233 234 -235 0
-233 234 235 0
-233 -234 -235 0
234 392 -456 0
234 -392 456 0
-234 -392 -456 0
-234 392 456 0
-235 391 236 0
-235 455 236 0
235 -236 0
235 -391 -455 0
236 -228 -229 0
-236 228 0
-236 229 0
237 -238 239 0
237 238 -239 0
-237 238 239 0
-237 -238 -239 0
238 393 -457 0
238 -393 457 0
-238 -393 -457 0
-238 393 457 0
-239 215 240 0
-239 240 244 0
239 -240 0
239 -215 -244 0
-240 392 456 242 0
-240 392 241 242 0
-240 456 241 242 0
240 -392 -456 0
240 -456 -241 0
240 -242 0
240 -392 -241 0
241 -391 -455 0
-241 391 0
-241 455 0
242 -230 -243 0
-242 230 0
-242 243 0
243 -228 -234 0
-243 228 0
-243 234 0
244 -232 -243 0
-244 232 0
-244 243 0
245 -246 247 0
245 246 -247 0
-245 246 247 0
-245 -246 -247 0
246 394 -458 0
246 -394 458 0
-246 -394 -458 0
-246 394 458 0
-247 393 248 0
-247 457 248 0
247 -248 0
247 -393 -457 0
248 -238 -239 0
-248 238 0
-248 239 0
249 -250 251 0
249 250 -251 0
-249 250 251 0
-249 -250 -251 0
250 395 -459 0
250 -395 459 0
-250 -395 -459 0
-250 395 459 0
-251 239 252 0
-251 252 254 0
251 -252 0
251 -239 -254 0
-252 394 253 0
-252 458 253 0
-252 394 458 0
252 -394 -458 0
252 -458 -253 0
252 -394 -253 0
253 -393 -457 0
-253 393 0
-253 457 0
254 -238 -246 0
-254 238 0
-254 246 0
255 -256 257 0
255 256 -257 0
-255 256 257 0
-255 -256 -257 0
256 396 -460 0
256 -396 460 0
-256 -396 -460 0
-256 396 460 0
-257 395 258 0
-257 459 258 0
257 -258 0
257 -395 -459 0
258 -250 -251 0
-258 250 0
-258 251 0
259 -260 261 0
259 260 -261 0
-259 260 261 0
-259 -260 -261 0
260 397 -461 0
260 -397 461 0
-260 -397 -461 0
-260 397 461 0
-261 222 265 0
-261 262 265 0
-261 168 265 0
261 -265 0
261 -168 -222 -262 0
262 -244 -263 0
-262 244 0
-262 263 0
263 -254 -264 0
-263 254 0
-263 264 0
264 -250 -256 0
-264 250 0
-264 256 0
-265 216 266 269 0
-265 266 269 262 0
265 -266 0
265 -269 0
265 -216 -262 0
-266 396 460 268 0
-266 396 267 268 0
-266 460 267 268 0
266 -396 -460 0
266 -460 -267 0
266 -268 0
266 -396 -267 0
267 -395 -459 0
-267 395 0
-267 459 0
268 -252 -264 0
-268 252 0
-268 264 0
269 -240 -263 0
-269 240 0
-269 263 0
270 -271 272 0
270 271 -272 0
-270 271 272 0
-270 -271 -272 0
271 398 -462 0
271 -398 462 0
-271 -398 -462 0
-271 398 462 0
-272 397 273 0
-272 461 273 0
272 -273 0
272 -397 -461 0
273 -260 -261 0
-273 260 0
-273 261 0
274 -275 276 0
274 275 -276 0
-274 275 276 0
-274 -275 -276 0
275 399 -463 0
275 -399 463 0
-275 -399 -463 0
-275 399 463 0
-276 261 277 0
-276 277 279 0
276 -277 0
276 -261 -279 0
-277 398 278 0
-277 462 278 0
-277 398 462 0
277 -398 -462 0
277 -462 -278 0
277 -398 -278 0
278 -397 -461 0
-278 397 0
-278 461 0
279 -260 -271 0
-279 260 0
-279 271 0
280 -281 282 0
280 281 -282 0
-280 281 282 0
-280 -281 -282 0
281 400 -464 0
281 -400 464 0
-281 -400 -464 0
-281 400 464 0
-282 399 283 0
-282 463 283 0
282 -283 0
282 -399 -463 0
283 -275 -276 0
-283 275 0
-283 276 0
284 -285 286 0
284 285 -286 0
-284 285 286 0
-284 -285 -286 0
285 401 -465 0
285 -401 465 0
-285 -401 -465 0
-285 401 465 0
-286 261 287 0
-286 287 291 0
286 -287 0
286 -261 -291 0
-287 400 464 289 0
-287 400 288 289 0
-287 464 288 289 0
287 -400 -464 0
287 -464 -288 0
287 -289 0
287 -400 -288 0
288 -399 -463 0
-288 399 0
-288 463 0
289 -277 -290 0
-289 277 0
-289 290 0
290 -275 -281 0
-290 275 0
-290 281 0
291 -279 -290 0
-291 279 0
-291 290 0
292 -293 294 0
292 293 -294 0
-292 293 294 0
-292 -293 -294 0
293 402 -466 0
293 -402 466 0
-293 -402 -466 0
-293 402 466 0
-294 401 295 0
-294 465 295 0
294 -295 0
294 -401 -465 0
295 -285 -286 0
-295 285 0
-295 286 0
296 -297 298 0
296 297 -298 0
-296 297 298 0
-296 -297 -298 0
297 403 -467 0
297 -403 467 0
-297 -403 -467 0
-297 403 467 0
-298 286 299 0
-298 299 301 0
298 -299 0
298 -286 -301 0
-299 402 300 0
-299 466 300 0
-299 402 466 0
299 -402 -466 0
299 -466 -300 0
299 -402 -300 0
300 -401 -465 0
-300 401 0
-300 465 0
301 -285 -293 0
-301 285 0
-301 293 0
302 -303 304 0
302 303 -304 0
-302 303 304 0
-302 -303 -304 0
303 404 -468 0
303 -404 468 0
-303 -404 -468 0
-303 404 468 0
-304 403 305 0
-304 467 305 0
304 -305 0
304 -403 -467 0
305 -297 -298 0
-305 297 0
-305 298 0
306 -307 308 0
306 307 -308 0
-306 307 308 0
-306 -307 -308 0
307 405 -469 0
307 -405 469 0
-307 -405 -469 0
-307 405 469 0
-308 291 311 0
-308 309 311 0
-308 261 311 0
308 -311 0
308 -261 -291 -309 0
309 -301 -310 0
-309 301 0
-309 310 0
310 -297 -303 0
-310 297 0
-310 303 0
-311 287 312 314 0
-311 312 314 309 0
311 -312 0
311 -314 0
311 -287 -309 0
-312 404 313 0
-312 468 313 0
-312 404 468 0
312 -404 -468 0
312 -468 -313 0
312 -404 -313 0
313 -403 -467 0
-313 403 0
-313 467 0
314 -299 -310 0
-314 299 0
-314 310 0
315 -316 317 0
315 316 -317 0
-315 316 317 0
-315 -316 -317 0
316 406 -470 0
316 -406 470 0
-316 -406 -470 0
-316 406 470 0
-317 405 318 0
-317 469 318 0
317 -318 0
317 -405 -469 0
318 -307 -308 0
-318 307 0
-318 308 0
319 -320 321 0
319 320 -321 0
-319 320 321 0
-319 -320 -321 0
320 407 -471 0
320 -407 471 0
-320 -407 -471 0
-320 407 471 0
-321 308 322 0
-321 322 324 0
321 -322 0
321 -308 -324 0
-322 406 323 0
-322 470 323 0
-322 406 470 0
322 -406 -470 0
322 -470 -323 0
322 -406 -323 0
323 -405 -469 0
-323 405 0
-323 469 0
324 -307 -316 0
-324 307 0
-324 316 0
325 -326 327 0
325 326 -327 0
-325 326 327 0
-325 -326 -327 0
326 408 -472 0
326 -408 472 0
-326 -408 -472 0
-326 408 472 0
-327 407 328 0
-327 471 328 0
327 -328 0
327 -407 -471 0
328 -320 -321 0
-328 320 0
-328 321 0
329 -330 331 0
329 330 -331 0
-329 330 331 0
-329 -330 -331 0
330 409 -473 0
330 -409 473 0
-330 -409 -473 0
-330 409 473 0
-331 324 333 0
-331 332 333 0
-331 308 333 0
331 -333 0
331 -308 -324 -332 0
332 -320 -326 0
-332 320 0
-332 326 0
-333 408 472 335 0
-333 408 334 335 0
-333 472 334 335 0
333 -408 -472 0
333 -472 -334 0
333 -335 0
333 -408 -334 0
334 -407 -471 0
-334 407 0
-334 471 0
335 -322 -332 0
-335 322 0
-335 332 0
336 -337 338 0
336 337 -338 0
-336 337 338 0
-336 -337 -338 0
337 410 -474 0
337 -410 474 0
-337 -410 -474 0
-337 410 474 0
-338 409 339 0
-338 473 339 0
338 -339 0
338 -409 -473 0
339 -330 -331 0
-339 330 0
-339 331 0
340 -341 342 0
340 341 -342 0
-340 341 342 0
-340 -341 -342 0
341 411 -475 0
341 -411 475 0
-341 -411 -475 0
-341 411 475 0
-342 330 343 0
-342 331 343 0
-342 337 343 0
342 -343 0
342 -330 -331 -337 0
-343 410 344 0
-343 474 344 0
-343 410 474 0
343 -410 -474 0
343 -474 -344 0
343 -410 -344 0
344 -409 -473 0
-344 409 0
-344 473 0
345 -346 347 0
345 346 -347 0
-345 346 347 0
-345 -346 -347 0
346 412 -476 0
346 -412 476 0
-346 -412 -476 0
-346 412 476 0
-347 411 348 0
-347 475 348 0
347 -348 0
347 -411 -475 0
348 411 -475 -342 0
348 -411 475 -342 0
-348 342 0
-348 411 475 0
-348 -411 -475 0
-477 0
2 0
3 0
6 0
9 0
13 0
18 0
22 0
28 0
32 0
39 0
43 0
49 0
53 0
61 0
65 0
71 0
75 0
84 0
88 0
94 0
98 0
106 0
110 0
116 0
120 0
130 0
134 0
140 0
144 0
152 0
156 0
162 0
166 0
177 0
181 0
187 0
191 0
199 0
203 0
209 0
213 0
223 0
227 0
233 0
237 0
245 0
249 0
255 0
259 0
270 0
274 0
280 0
284 0
292 0
296 0
302 0
306 0
315 0
319 0
325 0
329 0
336 0
340 0
345 0

