c Result of efficient AIG-to-CNF conversion using package CNF
p cnf 63 177
2 43 -53 0
2 -43 53 0
-2 -43 -53 0
-2 43 53 0
3 4 -5 0
3 -4 5 0
-3 -4 -5 0
-3 4 5 0
4 -43 -53 0
-4 43 0
-4 53 0
5 44 -54 0
5 -44 54 0
-5 -44 -54 0
-5 44 54 0
6 -7 8 0
6 7 -8 0
-6 7 8 0
-6 -7 -8 0
7 45 -55 0
7 -45 55 0
-7 -45 -55 0
-7 45 55 0
-8 44 4 0
-8 54 4 0
-8 44 54 0
8 -44 -54 0
8 -54 -4 0
8 -44 -4 0
9 -10 11 0
9 10 -11 0
-9 10 11 0
-9 -10 -11 0
10 46 -56 0
10 -46 56 0
-10 -46 -56 0
-10 46 56 0
-11 45 12 0
-11 55 12 0
11 -12 0
11 -45 -55 0
12 -7 -8 0
-12 7 0
-12 8 0
13 -14 15 0
13 14 -15 0
-13 14 15 0
-13 -14 -15 0
14 47 -57 0
14 -47 57 0
-14 -47 -57 0
-14 47 57 0
-15 7 16 0
-15 8 16 0
-15 10 16 0
15 -16 0
15 -7 -8 -10 0
-16 46 17 0
-16 56 17 0
-16 46 56 0
16 -46 -56 0
16 -56 -17 0
16 -46 -17 0
17 -45 -55 0
-17 45 0
-17 55 0
18 -19 20 0
18 19 -20 0
-18 19 20 0
-18 -19 -20 0
19 48 -58 0
19 -48 58 0
-19 -48 -58 0
-19 48 58 0
-20 47 21 0
-20 57 21 0
20 -21 0
20 -47 -57 0
21 -14 -15 0
-21 14 0
-21 15 0
22 -23 24 0
22 23 -24 0
-22 23 24 0
-22 -23 -24 0
23 49 -59 0
23 -49 59 0
-23 -49 -59 0
-23 49 59 0
-24 15 25 0
-24 25 27 0
24 -25 0
24 -15 -27 0
-25 48 26 0
-25 58 26 0
-25 48 58 0
25 -48 -58 0
25 -58 -26 0
25 -48 -26 0
26 -47 -57 0
-26 47 0
-26 57 0
27 -14 -19 0
-27 14 0
-27 19 0
28 -29 30 0
28 29 -30 0
-28 29 30 0
-28 -29 -30 0
29 50 -60 0
29 -50 60 0
-29 -50 -60 0
-29 50 60 0
-30 49 31 0
-30 59 31 0
30 -31 0
30 -49 -59 0
31 -23 -24 0
-31 23 0
-31 24 0
32 -33 34 0
32 33 -34 0
-32 33 34 0
-32 -33 -34 0
33 51 -61 0
33 -51 61 0
-33 -51 -61 0
-33 51 61 0
-34 27 36 0
-34 35 36 0
-34 15 36 0
34 -36 0
34 -15 -27 -35 0
35 -23 -29 0
-35 23 0
-35 29 0
-36 50 60 38 0
-36 50 37 38 0
-36 60 37 38 0
36 -50 -60 0
36 -60 -37 0
36 -38 0
36 -50 -37 0
37 -49 -59 0
-37 49 0
-37 59 0
38 -25 -35 0
-38 25 0
-38 35 0
39 -40 41 0
39 40 -41 0
-39 40 41 0
-39 -40 -41 0
40 52 -62 0
40 -52 62 0
-40 -52 -62 0
-40 52 62 0
-41 51 42 0
-41 61 42 0
41 -42 0
41 -51 -61 0
42 51 -61 -34 0
42 -51 61 -34 0
-42 34 0
-42 51 61 0
-42 -51 -61 0
-63 0
2 0
3 0
6 0
9 0
13 0
18 0
22 0
28 0
32 0
39 0

