c Result of efficient AIG-to-CNF conversion using package CNF
p cnf 873 3299
-2 3 363 529 680 0
2 -680 0
2 -3 0
2 -529 0
2 -363 0
-3 4 23 65 150 0
3 -150 0
3 -4 0
3 -65 0
3 -23 0
-4 -5 -6 13 21 0
-4 5 6 -13 -21 0
-4 -5 -6 -13 -21 0
-4 5 6 13 21 0
4 -5 6 0
4 5 -6 0
4 -13 21 0
4 13 -21 0
5 -855 -864 0
-5 855 0
-5 864 0
-6 7 0
6 -7 0
-7 8 0
7 -8 0
-8 9 0
8 -9 0
-9 10 0
9 -10 0
-10 11 0
10 -11 0
-11 12 0
11 -12 0
-12 5 0
12 -5 0
-13 14 0
13 -14 0
-14 15 0
14 -15 0
-15 16 0
15 -16 0
-16 17 0
16 -17 0
-17 18 0
17 -18 0
-18 19 0
18 -19 0
-19 855 20 0
-19 865 20 0
-19 -855 -865 -20 0
19 855 -20 0
19 -855 -865 20 0
19 865 -20 0
20 -856 -864 0
-20 856 0
-20 864 0
21 20 -22 0
21 -20 22 0
-21 -20 -22 0
-21 20 22 0
22 -855 -865 0
-22 855 0
-22 865 0
-23 24 34 40 53 0
-23 -24 -34 -40 -53 0
-23 24 34 -40 -53 0
-23 -24 -34 40 53 0
23 24 -34 0
23 -24 34 0
23 -40 53 0
23 40 -53 0
-24 25 0
24 -25 0
-25 26 0
25 -26 0
-26 27 0
26 -27 0
-27 28 0
27 -28 0
-28 29 0
28 -29 0
-29 855 30 0
-29 -855 -866 -30 0
-29 866 30 0
29 855 -30 0
29 866 -30 0
29 -855 -866 30 0
-30 865 32 0
-30 -865 -31 -33 0
-30 -865 31 33 0
30 865 -32 0
30 -865 -31 33 0
30 -865 31 -33 0
31 -855 -20 0
-31 855 0
-31 20 0
32 -857 -864 0
-32 857 0
-32 864 0
33 856 -32 0
33 -856 32 0
-33 -856 -32 0
-33 856 32 0
34 35 -36 0
34 -35 36 0
-34 -35 -36 0
-34 35 36 0
35 -855 -865 -20 0
-35 855 0
-35 865 0
-35 20 0
36 32 -37 0
36 -32 37 0
-36 -32 -37 0
-36 32 37 0
37 38 -39 0
37 -38 39 0
-37 -38 -39 0
-37 38 39 0
38 -855 -866 0
-38 855 0
-38 866 0
39 -856 -865 0
-39 856 0
-39 865 0
-40 41 0
40 -41 0
-41 42 0
41 -42 0
-42 43 0
42 -43 0
-43 44 0
43 -44 0
-44 45 0
44 -45 0
-45 855 46 0
-45 -855 -867 -46 0
-45 867 46 0
45 855 -46 0
45 867 -46 0
45 -855 -867 46 0
-46 866 48 0
-46 -866 -47 -52 0
-46 -866 47 52 0
46 866 -48 0
46 -866 -47 52 0
46 -866 47 -52 0
47 -855 -30 0
-47 855 0
-47 30 0
-48 865 49 0
-48 -865 50 51 0
-48 -865 -50 -51 0
48 865 -49 0
48 -865 50 -51 0
48 -865 -50 51 0
49 -858 -864 0
-49 858 0
-49 864 0
50 857 -49 0
50 -857 49 0
-50 -857 -49 0
-50 857 49 0
-51 864 0
-51 856 0
-51 855 857 0
51 -855 -856 -864 0
51 -856 -857 -864 0
52 -856 48 0
52 856 -48 0
-52 856 48 0
-52 -856 -48 0
53 54 -55 0
53 -54 55 0
-53 -54 -55 0
-53 54 55 0
54 -35 -36 0
-54 35 0
-54 36 0
55 56 -57 0
55 -56 57 0
-55 -56 -57 0
-55 56 57 0
56 -855 -867 0
-56 855 0
-56 867 0
57 -58 62 0
57 58 -62 0
-57 58 62 0
-57 -58 -62 0
58 49 -59 0
58 -49 59 0
-58 -49 -59 0
-58 49 59 0
59 60 -61 0
59 -60 61 0
-59 -60 -61 0
-59 60 61 0
60 -856 -866 0
-60 856 0
-60 866 0
61 -857 -865 0
-61 857 0
-61 865 0
-62 63 64 0
62 -63 0
62 -64 0
63 -855 -856 -865 -866 0
-63 866 0
-63 855 0
-63 865 0
-63 856 0
64 -32 -37 0
-64 32 0
-64 37 0
-65 66 84 102 124 0
-65 -66 -84 -102 -124 0
-65 66 84 -102 -124 0
-65 -66 -84 102 124 0
65 66 -84 0
65 -66 84 0
65 -102 124 0
65 102 -124 0
-66 67 0
66 -67 0
-67 68 0
67 -68 0
-68 69 0
68 -69 0
-69 70 0
69 -70 0
-70 855 71 0
-70 -855 -868 -71 0
-70 868 71 0
70 855 -71 0
70 868 -71 0
70 -855 -868 71 0
-71 867 73 0
-71 -867 -72 -83 0
-71 -867 72 83 0
71 867 -73 0
71 -867 -72 83 0
71 -867 72 -83 0
72 -855 -46 0
-72 855 0
-72 46 0
-73 866 74 0
-73 -866 79 80 0
-73 -866 -79 -80 0
73 866 -74 0
73 -866 79 -80 0
73 -866 -79 80 0
-74 865 75 0
-74 -865 76 77 0
-74 -865 -76 -77 0
74 865 -75 0
74 -865 76 -77 0
74 -865 -76 77 0
75 -859 -864 0
-75 859 0
-75 864 0
76 858 -75 0
76 -858 75 0
-76 -858 -75 0
-76 858 75 0
-77 33 78 0
-77 31 78 0
-77 50 78 0
77 -78 0
77 -31 -33 -50 0
-78 864 0
-78 857 0
-78 856 858 0
78 -856 -857 -864 0
78 -857 -858 -864 0
79 -857 74 0
79 857 -74 0
-79 857 74 0
-79 -857 -74 0
-80 81 82 0
80 -81 0
80 -82 0
81 -856 -48 0
-81 856 0
-81 48 0
82 -47 -52 0
-82 47 0
-82 52 0
83 -856 73 0
83 856 -73 0
-83 856 73 0
-83 -856 -73 0
84 85 -86 0
84 -85 86 0
-84 -85 -86 0
-84 85 86 0
85 -54 -55 0
-85 54 0
-85 55 0
86 87 -88 0
86 -87 88 0
-86 -87 -88 0
-86 87 88 0
87 -58 -62 0
-87 58 0
-87 62 0
88 89 -90 0
88 -89 90 0
-88 -89 -90 0
-88 89 90 0
89 -855 -867 -57 0
-89 855 0
-89 867 0
-89 57 0
90 91 -94 0
90 -91 94 0
-90 -91 -94 0
-90 91 94 0
91 92 -93 0
91 -92 93 0
-91 -92 -93 0
-91 92 93 0
92 -855 -868 0
-92 855 0
-92 868 0
93 -856 -867 0
-93 856 0
-93 867 0
94 -95 99 0
94 95 -99 0
-94 95 99 0
-94 -95 -99 0
95 75 -96 0
95 -75 96 0
-95 -75 -96 0
-95 75 96 0
96 97 -98 0
96 -97 98 0
-96 -97 -98 0
-96 97 98 0
97 -857 -866 0
-97 857 0
-97 866 0
98 -858 -865 0
-98 858 0
-98 865 0
-99 100 101 0
99 -100 0
99 -101 0
100 -856 -857 -865 -866 0
-100 866 0
-100 856 0
-100 865 0
-100 857 0
101 -49 -59 0
-101 49 0
-101 59 0
-102 103 0
102 -103 0
-103 104 0
103 -104 0
-104 105 0
104 -105 0
-105 855 106 0
-105 -855 -869 -106 0
-105 869 106 0
105 855 -106 0
105 869 -106 0
105 -855 -869 106 0
-106 868 108 0
-106 856 107 108 0
-106 -856 -107 108 0
-106 856 -868 -107 -108 0
-106 -856 -868 107 -108 0
106 868 -108 0
106 -856 -107 -108 0
106 856 107 -108 0
106 856 -868 -107 108 0
106 -856 -868 107 108 0
107 -855 -71 0
-107 855 0
-107 71 0
-108 867 109 0
-108 -867 120 121 0
-108 -867 -120 -121 0
108 867 -109 0
108 -867 120 -121 0
108 -867 -120 121 0
-109 866 110 0
-109 -866 116 117 0
-109 -866 -116 -117 0
109 866 -110 0
109 -866 116 -117 0
109 -866 -116 117 0
-110 865 111 0
-110 -865 112 113 0
-110 -865 -112 -113 0
110 865 -111 0
110 -865 112 -113 0
110 -865 -112 113 0
111 -860 -864 0
-111 860 0
-111 864 0
112 859 -111 0
112 -859 111 0
-112 -859 -111 0
-112 859 111 0
-113 114 115 0
113 -114 0
113 -115 0
114 -858 -75 0
-114 858 0
-114 75 0
115 -76 -77 0
-115 76 0
-115 77 0
116 -858 110 0
116 858 -110 0
-116 858 110 0
-116 -858 -110 0
-117 118 119 0
117 -118 0
117 -119 0
118 -857 -74 0
-118 857 0
-118 74 0
119 -79 -80 0
-119 79 0
-119 80 0
120 -857 109 0
120 857 -109 0
-120 857 109 0
-120 -857 -109 0
-121 122 123 0
121 -122 0
121 -123 0
122 -856 -73 0
-122 856 0
-122 73 0
123 -72 -83 0
-123 72 0
-123 83 0
124 125 -126 0
124 -125 126 0
-124 -125 -126 0
-124 125 126 0
125 -85 -86 0
-125 85 0
-125 86 0
126 -127 147 0
126 127 -147 0
-126 127 147 0
-126 -127 -147 0
127 128 -129 0
127 -128 129 0
-127 -128 -129 0
-127 128 129 0
128 -95 -99 0
-128 95 0
-128 99 0
129 130 -131 0
129 -130 131 0
-129 -130 -131 0
-129 130 131 0
130 -91 -94 0
-130 91 0
-130 94 0
131 132 -137 0
131 -132 137 0
-131 -132 -137 0
-131 132 137 0
132 133 -136 0
132 -133 136 0
-132 -133 -136 0
-132 133 136 0
133 134 -135 0
133 -134 135 0
-133 -134 -135 0
-133 134 135 0
134 -855 -869 0
-134 855 0
-134 869 0
135 -856 -868 0
-135 856 0
-135 868 0
136 -857 -867 0
-136 857 0
-136 867 0
137 -138 144 0
137 138 -144 0
-137 138 144 0
-137 -138 -144 0
138 139 -140 0
138 -139 140 0
-138 -139 -140 0
-138 139 140 0
139 -855 -856 -867 -868 0
-139 868 0
-139 855 0
-139 867 0
-139 856 0
140 111 -141 0
140 -111 141 0
-140 -111 -141 0
-140 111 141 0
141 142 -143 0
141 -142 143 0
-141 -142 -143 0
-141 142 143 0
142 -858 -866 0
-142 858 0
-142 866 0
143 -859 -865 0
-143 859 0
-143 865 0
-144 145 146 0
144 -145 0
144 -146 0
145 -857 -858 -865 -866 0
-145 866 0
-145 857 0
-145 865 0
-145 858 0
146 -75 -96 0
-146 75 0
-146 96 0
-147 148 149 0
147 -148 0
147 -149 0
148 -89 -90 0
-148 89 0
-148 90 0
149 -87 -90 0
-149 87 0
-149 90 0
-150 -151 -179 213 0
-150 151 179 213 0
150 -213 0
150 -151 179 0
150 151 -179 0
-151 152 0
151 -152 0
-152 153 0
152 -153 0
-153 855 154 0
-153 -855 -870 -154 0
-153 870 154 0
153 855 -154 0
153 870 -154 0
153 -855 -870 154 0
-154 869 156 0
-154 -869 -155 -178 0
-154 -869 155 178 0
154 869 -156 0
154 -869 -155 178 0
154 -869 155 -178 0
155 -855 -106 0
-155 855 0
-155 106 0
-156 868 157 0
-156 -857 157 -174 0
-156 857 157 174 0
-156 -857 -868 -157 174 0
-156 857 -868 -157 -174 0
156 868 -157 0
156 857 -868 157 -174 0
156 857 -157 174 0
156 -857 -157 -174 0
156 -857 -868 157 174 0
-157 867 158 0
-157 -867 170 171 0
-157 -867 -170 -171 0
157 867 -158 0
157 -867 170 -171 0
157 -867 -170 171 0
-158 866 159 0
-158 -866 165 166 0
-158 -866 -165 -166 0
158 866 -159 0
158 -866 165 -166 0
158 -866 -165 166 0
-159 865 160 0
-159 -865 161 162 0
-159 -865 -161 -162 0
159 865 -160 0
159 -865 161 -162 0
159 -865 -161 162 0
160 -861 -864 0
-160 861 0
-160 864 0
161 860 -160 0
161 -860 160 0
-161 -860 -160 0
-161 860 160 0
-162 77 163 0
-162 163 164 0
162 -163 0
162 -77 -164 0
-163 864 0
-163 859 0
-163 858 860 0
163 -858 -859 -864 0
163 -859 -860 -864 0
164 -76 -112 0
-164 76 0
-164 112 0
165 -859 159 0
165 859 -159 0
-165 859 159 0
-165 -859 -159 0
-166 80 167 0
-166 167 169 0
166 -167 0
166 -80 -169 0
-167 168 116 0
-167 118 168 0
167 -168 0
167 -118 -116 0
168 -858 -110 0
-168 858 0
-168 110 0
169 -79 -116 0
-169 79 0
-169 116 0
170 -858 158 0
170 858 -158 0
-170 858 158 0
-170 -858 -158 0
-171 72 172 0
-171 172 173 0
171 -172 0
171 -72 -173 0
-172 122 109 0
-172 857 122 0
-172 857 109 0
172 -857 -122 0
172 -122 -109 0
172 -857 -109 0
173 -83 -120 0
-173 83 0
-173 120 0
-174 175 176 0
174 -175 0
174 -176 0
175 -856 -108 0
-175 856 0
-175 108 0
176 -107 -177 0
-176 107 0
-176 177 0
177 -856 108 0
177 856 -108 0
-177 856 108 0
-177 -856 -108 0
178 -856 156 0
178 856 -156 0
-178 856 156 0
-178 -856 -156 0
179 -180 210 0
179 180 -210 0
-179 180 210 0
-179 -180 -210 0
180 -181 207 0
180 181 -207 0
-180 181 207 0
-180 -181 -207 0
181 -182 204 0
181 182 -204 0
-181 182 204 0
-181 -182 -204 0
182 183 -184 0
182 -183 184 0
-182 -183 -184 0
-182 183 184 0
183 -132 -137 0
-183 132 0
-183 137 0
184 185 -192 0
184 -185 192 0
-184 -185 -192 0
-184 185 192 0
185 186 -187 0
185 -186 187 0
-185 -186 -187 0
-185 186 187 0
186 -855 -870 0
-186 855 0
-186 870 0
187 188 -191 0
187 -188 191 0
-187 -188 -191 0
-187 188 191 0
188 189 -190 0
188 -189 190 0
-188 -189 -190 0
-188 189 190 0
189 -856 -869 0
-189 856 0
-189 869 0
190 -857 -868 0
-190 857 0
-190 868 0
191 -858 -867 0
-191 858 0
-191 867 0
192 -193 201 0
192 193 -201 0
-192 193 201 0
-192 -193 -201 0
193 194 -197 0
193 -194 197 0
-193 -194 -197 0
-193 194 197 0
-194 195 196 0
194 -195 0
194 -196 0
195 -855 -856 -868 -869 0
-195 869 0
-195 855 0
-195 868 0
-195 856 0
196 -857 -867 -133 0
-196 857 0
-196 867 0
-196 133 0
197 160 -198 0
197 -160 198 0
-197 -160 -198 0
-197 160 198 0
198 199 -200 0
198 -199 200 0
-198 -199 -200 0
-198 199 200 0
199 -859 -866 0
-199 859 0
-199 866 0
200 -860 -865 0
-200 860 0
-200 865 0
-201 202 203 0
201 -202 0
201 -203 0
202 -858 -859 -865 -866 0
-202 866 0
-202 858 0
-202 865 0
-202 859 0
203 -111 -141 0
-203 111 0
-203 141 0
-204 205 206 0
204 -205 0
204 -206 0
205 -139 -140 0
-205 139 0
-205 140 0
206 -138 -144 0
-206 138 0
-206 144 0
-207 208 209 0
207 -208 0
207 -209 0
208 -130 -131 0
-208 130 0
-208 131 0
209 -128 -129 0
-209 128 0
-209 129 0
-210 211 212 0
210 -211 0
210 -212 0
211 -127 -147 0
-211 127 0
-211 147 0
212 -125 -126 0
-212 125 0
-212 126 0
-213 214 245 283 319 0
-213 -214 -245 -283 -319 0
-213 214 245 -283 -319 0
-213 -214 -245 283 319 0
213 214 -245 0
213 -214 245 0
213 -283 319 0
213 283 -319 0
-214 215 0
214 -215 0
-215 855 216 0
-215 -855 -871 -216 0
-215 871 216 0
215 855 -216 0
215 871 -216 0
215 -855 -871 216 0
-216 870 218 0
-216 856 217 218 0
-216 -856 -217 218 0
-216 856 -870 -217 -218 0
-216 -856 -870 217 -218 0
216 870 -218 0
216 -856 -217 -218 0
216 856 217 -218 0
216 856 -870 -217 218 0
216 -856 -870 217 218 0
217 -855 -154 0
-217 855 0
-217 154 0
-218 869 219 0
-218 -869 241 242 0
-218 -869 -241 -242 0
218 869 -219 0
218 -869 241 -242 0
218 -869 -241 242 0
-219 868 220 0
-219 -868 236 237 0
-219 -868 -236 -237 0
219 868 -220 0
219 -868 236 -237 0
219 -868 -236 237 0
-220 867 221 0
-220 -867 232 233 0
-220 -867 -232 -233 0
220 867 -221 0
220 -867 232 -233 0
220 -867 -232 233 0
-221 866 222 0
-221 -866 228 229 0
-221 -866 -228 -229 0
221 866 -222 0
221 -866 228 -229 0
221 -866 -228 229 0
-222 865 223 0
-222 -865 224 225 0
-222 -865 -224 -225 0
222 865 -223 0
222 -865 224 -225 0
222 -865 -224 225 0
223 -862 -864 0
-223 862 0
-223 864 0
224 861 -223 0
224 -861 223 0
-224 -861 -223 0
-224 861 223 0
-225 226 227 0
225 -226 0
225 -227 0
226 -860 -160 0
-226 860 0
-226 160 0
227 -161 -162 0
-227 161 0
-227 162 0
228 -860 222 0
228 860 -222 0
-228 860 222 0
-228 -860 -222 0
-229 230 231 0
229 -230 0
229 -231 0
230 -859 -159 0
-230 859 0
-230 159 0
231 -165 -166 0
-231 165 0
-231 166 0
232 -859 221 0
232 859 -221 0
-232 859 221 0
-232 -859 -221 0
-233 234 235 0
233 -234 0
233 -235 0
234 -858 -158 0
-234 858 0
-234 158 0
235 -170 -171 0
-235 170 0
-235 171 0
236 -858 220 0
236 858 -220 0
-236 858 220 0
-236 -858 -220 0
-237 238 239 0
237 -238 0
237 -239 0
238 -857 -157 0
-238 857 0
-238 157 0
239 -240 -174 0
-239 240 0
-239 174 0
240 -857 157 0
240 857 -157 0
-240 857 157 0
-240 -857 -157 0
241 -857 219 0
241 857 -219 0
-241 857 219 0
-241 -857 -219 0
-242 243 244 0
242 -243 0
242 -244 0
243 -856 -156 0
-243 856 0
-243 156 0
244 -155 -178 0
-244 155 0
-244 178 0
245 -246 280 0
245 246 -280 0
-245 246 280 0
-245 -246 -280 0
246 -247 277 0
246 247 -277 0
-246 247 277 0
-246 -247 -277 0
247 -248 274 0
247 248 -274 0
-247 248 274 0
-247 -248 -274 0
248 249 -250 0
248 -249 250 0
-248 -249 -250 0
-248 249 250 0
249 -185 -192 0
-249 185 0
-249 192 0
250 251 -262 0
250 -251 262 0
-250 -251 -262 0
-250 251 262 0
251 252 -253 0
251 -252 253 0
-251 -252 -253 0
-251 252 253 0
252 -855 -870 -187 0
-252 855 0
-252 870 0
-252 187 0
253 254 -257 0
253 -254 257 0
-253 -254 -257 0
-253 254 257 0
254 255 -256 0
254 -255 256 0
-254 -255 -256 0
-254 255 256 0
255 -855 -871 0
-255 855 0
-255 871 0
256 -856 -870 0
-256 856 0
-256 870 0
257 258 -261 0
257 -258 261 0
-257 -258 -261 0
-257 258 261 0
258 259 -260 0
258 -259 260 0
-258 -259 -260 0
-258 259 260 0
259 -857 -869 0
-259 857 0
-259 869 0
260 -858 -868 0
-260 858 0
-260 868 0
261 -859 -867 0
-261 859 0
-261 867 0
262 -263 271 0
262 263 -271 0
-262 263 271 0
-262 -263 -271 0
263 264 -267 0
263 -264 267 0
-263 -264 -267 0
-263 264 267 0
-264 265 266 0
264 -265 0
264 -266 0
265 -856 -857 -868 -869 0
-265 869 0
-265 856 0
-265 868 0
-265 857 0
266 -858 -867 -188 0
-266 858 0
-266 867 0
-266 188 0
267 223 -268 0
267 -223 268 0
-267 -223 -268 0
-267 223 268 0
268 269 -270 0
268 -269 270 0
-268 -269 -270 0
-268 269 270 0
269 -860 -866 0
-269 860 0
-269 866 0
270 -861 -865 0
-270 861 0
-270 865 0
-271 272 273 0
271 -272 0
271 -273 0
272 -859 -860 -865 -866 0
-272 866 0
-272 859 0
-272 865 0
-272 860 0
273 -160 -198 0
-273 160 0
-273 198 0
-274 275 276 0
274 -275 0
274 -276 0
275 -194 -197 0
-275 194 0
-275 197 0
276 -193 -201 0
-276 193 0
-276 201 0
-277 278 279 0
277 -278 0
277 -279 0
278 -183 -184 0
-278 183 0
-278 184 0
279 -182 -204 0
-279 182 0
-279 204 0
-280 281 282 0
280 -281 0
280 -282 0
281 -181 -207 0
-281 181 0
-281 207 0
282 -180 -210 0
-282 180 0
-282 210 0
-283 855 284 0
-283 -855 -872 -284 0
-283 872 284 0
283 855 -284 0
283 872 -284 0
283 -855 -872 284 0
-284 871 286 0
-284 -871 -285 -318 0
-284 -871 285 318 0
284 871 -286 0
284 -871 -285 318 0
284 -871 285 -318 0
285 -855 -216 0
-285 855 0
-285 216 0
-286 870 287 0
-286 -857 287 -314 0
-286 857 287 314 0
-286 -857 -870 -287 314 0
-286 857 -870 -287 -314 0
286 870 -287 0
286 857 -870 287 -314 0
286 857 -287 314 0
286 -857 -287 -314 0
286 -857 -870 287 314 0
-287 869 288 0
-287 -858 288 -311 0
-287 858 288 311 0
-287 -858 -869 -288 311 0
-287 858 -869 -288 -311 0
287 869 -288 0
287 858 -869 288 -311 0
287 858 -288 311 0
287 -858 -288 -311 0
287 -858 -869 288 311 0
-288 868 289 0
-288 -859 289 -309 0
-288 859 289 309 0
-288 -859 -868 -289 309 0
-288 859 -868 -289 -309 0
288 868 -289 0
288 859 -868 289 -309 0
288 859 -289 309 0
288 -859 -289 -309 0
288 -859 -868 289 309 0
-289 867 290 0
-289 -860 290 -304 0
-289 860 290 304 0
-289 -860 -867 -290 304 0
-289 860 -867 -290 -304 0
289 867 -290 0
289 860 -867 290 -304 0
289 860 -290 304 0
289 -860 -290 -304 0
289 -860 -867 290 304 0
-290 866 291 0
-290 -866 298 299 0
-290 -866 -298 -299 0
290 866 -291 0
290 -866 298 -299 0
290 -866 -298 299 0
-291 865 292 0
-291 -865 293 294 0
-291 -865 -293 -294 0
291 865 -292 0
291 -865 293 -294 0
291 -865 -293 294 0
292 -863 -864 0
-292 863 0
-292 864 0
293 862 -292 0
293 -862 292 0
-293 -862 -292 0
-293 862 292 0
-294 164 296 0
-294 295 296 0
-294 77 296 0
294 -296 0
294 -77 -164 -295 0
295 -161 -224 0
-295 161 0
-295 224 0
-296 163 297 0
-296 297 295 0
296 -297 0
296 -163 -295 0
-297 864 0
-297 861 0
-297 860 862 0
297 -860 -861 -864 0
297 -861 -862 -864 0
298 -861 291 0
298 861 -291 0
-298 861 291 0
-298 -861 -291 0
-299 169 301 0
-299 300 301 0
-299 80 301 0
299 -301 0
299 -80 -169 -300 0
300 -165 -228 0
-300 165 0
-300 228 0
-301 167 302 303 0
-301 302 303 300 0
301 -303 0
301 -302 0
301 -167 -300 0
302 -860 -222 0
-302 860 0
-302 222 0
303 -230 -228 0
-303 230 0
-303 228 0
-304 173 306 0
-304 72 306 0
-304 305 306 0
304 -306 0
304 -72 -173 -305 0
305 -170 -232 0
-305 170 0
-305 232 0
-306 234 307 308 0
-306 307 232 308 0
306 -308 0
306 -307 0
306 -234 -232 0
307 -859 -221 0
-307 859 0
-307 221 0
308 -172 -305 0
-308 172 0
-308 305 0
-309 858 238 310 0
-309 238 220 310 0
-309 858 220 310 0
309 -858 -238 0
309 -238 -220 0
309 -310 0
309 -858 -220 0
310 -240 -174 -236 0
-310 240 0
-310 174 0
-310 236 0
-311 178 312 0
-311 155 312 0
-311 241 312 0
311 -312 0
311 -155 -178 -241 0
-312 313 241 0
-312 243 313 0
312 -313 0
312 -243 -241 0
313 -857 -219 0
-313 857 0
-313 219 0
-314 315 316 0
314 -315 0
314 -316 0
315 -856 -218 0
-315 856 0
-315 218 0
316 -217 -317 0
-316 217 0
-316 317 0
317 -856 218 0
317 856 -218 0
-317 856 218 0
-317 -856 -218 0
318 -856 286 0
318 856 -286 0
-318 856 286 0
-318 -856 -286 0
319 -320 360 0
319 320 -360 0
-319 320 360 0
-319 -320 -360 0
320 -321 357 0
320 321 -357 0
-320 321 357 0
-320 -321 -357 0
321 -322 354 0
321 322 -354 0
-321 322 354 0
-321 -322 -354 0
322 -323 351 0
322 323 -351 0
-322 323 351 0
-322 -323 -351 0
323 324 -339 0
323 -324 339 0
-323 -324 -339 0
-323 324 339 0
324 325 -326 0
324 -325 326 0
-324 -325 -326 0
-324 325 326 0
325 -254 -257 0
-325 254 0
-325 257 0
326 327 -334 0
326 -327 334 0
-326 -327 -334 0
-326 327 334 0
327 328 -329 0
327 -328 329 0
-327 -328 -329 0
-327 328 329 0
328 -855 -856 -870 -871 0
-328 871 0
-328 855 0
-328 870 0
-328 856 0
329 330 -333 0
329 -330 333 0
-329 -330 -333 0
-329 330 333 0
330 331 -332 0
330 -331 332 0
-330 -331 -332 0
-330 331 332 0
331 -855 -872 0
-331 855 0
-331 872 0
332 -856 -871 0
-332 856 0
-332 871 0
333 -857 -870 0
-333 857 0
-333 870 0
334 335 -338 0
334 -335 338 0
-334 -335 -338 0
-334 335 338 0
335 336 -337 0
335 -336 337 0
-335 -336 -337 0
-335 336 337 0
336 -858 -869 0
-336 858 0
-336 869 0
337 -859 -868 0
-337 859 0
-337 868 0
338 -860 -867 0
-338 860 0
-338 867 0
339 -340 348 0
339 340 -348 0
-339 340 348 0
-339 -340 -348 0
340 341 -344 0
340 -341 344 0
-340 -341 -344 0
-340 341 344 0
-341 342 343 0
341 -342 0
341 -343 0
342 -857 -858 -868 -869 0
-342 869 0
-342 857 0
-342 868 0
-342 858 0
343 -859 -867 -258 0
-343 859 0
-343 867 0
-343 258 0
344 292 -345 0
344 -292 345 0
-344 -292 -345 0
-344 292 345 0
345 346 -347 0
345 -346 347 0
-345 -346 -347 0
-345 346 347 0
346 -861 -866 0
-346 861 0
-346 866 0
347 -862 -865 0
-347 862 0
-347 865 0
-348 349 350 0
348 -349 0
348 -350 0
349 -860 -861 -865 -866 0
-349 866 0
-349 860 0
-349 865 0
-349 861 0
350 -223 -268 0
-350 223 0
-350 268 0
-351 352 353 0
351 -352 0
351 -353 0
352 -252 -253 0
-352 252 0
-352 253 0
353 -251 -262 0
-353 251 0
-353 262 0
-354 355 356 0
354 -355 0
354 -356 0
355 -264 -267 0
-355 264 0
-355 267 0
356 -263 -271 0
-356 263 0
-356 271 0
-357 358 359 0
357 -358 0
357 -359 0
358 -249 -250 0
-358 249 0
-358 250 0
359 -248 -274 0
-359 248 0
-359 274 0
-360 180 361 0
-360 210 361 0
-360 246 361 0
360 -361 0
360 -180 -210 -246 0
-361 362 246 0
-361 281 362 0
361 -362 0
361 -281 -246 0
362 -247 -277 0
-362 247 0
-362 277 0
-363 364 404 451 485 0
-363 -364 -404 -451 -485 0
-363 364 404 -451 -485 0
-363 -364 -404 451 485 0
363 364 -404 0
363 -364 404 0
363 -451 485 0
363 451 -485 0
-364 872 366 0
-364 856 365 366 0
-364 -856 -365 366 0
-364 856 -872 -365 -366 0
-364 -856 -872 365 -366 0
364 872 -366 0
364 -856 -365 -366 0
364 856 365 -366 0
364 856 -872 -365 366 0
364 -856 -872 365 366 0
365 -855 -284 0
-365 855 0
-365 284 0
-366 871 367 0
-366 -871 400 401 0
-366 -871 -400 -401 0
366 871 -367 0
366 -871 400 -401 0
366 -871 -400 401 0
-367 870 368 0
-367 -870 395 396 0
-367 -870 -395 -396 0
367 870 -368 0
367 -870 395 -396 0
367 -870 -395 396 0
-368 869 369 0
-368 -869 390 391 0
-368 -869 -390 -391 0
368 869 -369 0
368 -869 390 -391 0
368 -869 -390 391 0
-369 868 370 0
-369 -868 385 386 0
-369 -868 -385 -386 0
369 868 -370 0
369 -868 385 -386 0
369 -868 -385 386 0
-370 867 371 0
-370 -867 380 381 0
-370 -867 -380 -381 0
370 867 -371 0
370 -867 380 -381 0
370 -867 -380 381 0
-371 866 372 0
-371 -866 376 377 0
-371 -866 -376 -377 0
371 866 -372 0
371 -866 376 -377 0
371 -866 -376 377 0
372 863 -865 -373 0
372 -863 -865 373 0
-372 865 0
-372 -863 -373 0
-372 863 373 0
-373 374 375 0
373 -374 0
373 -375 0
374 -862 -292 0
-374 862 0
-374 292 0
375 -293 -294 0
-375 293 0
-375 294 0
376 862 -372 0
376 -862 372 0
-376 -862 -372 0
-376 862 372 0
-377 378 379 0
377 -378 0
377 -379 0
378 -861 -291 0
-378 861 0
-378 291 0
379 -298 -299 0
-379 298 0
-379 299 0
380 -861 371 0
380 861 -371 0
-380 861 371 0
-380 -861 -371 0
-381 382 383 0
381 -382 0
381 -383 0
382 -860 -290 0
-382 860 0
-382 290 0
383 -384 -304 0
-383 384 0
-383 304 0
384 -860 290 0
384 860 -290 0
-384 860 290 0
-384 -860 -290 0
385 -860 370 0
385 860 -370 0
-385 860 370 0
-385 -860 -370 0
-386 387 388 0
386 -387 0
386 -388 0
387 -859 -289 0
-387 859 0
-387 289 0
388 -389 -309 0
-388 389 0
-388 309 0
389 -859 289 0
389 859 -289 0
-389 859 289 0
-389 -859 -289 0
390 -859 369 0
390 859 -369 0
-390 859 369 0
-390 -859 -369 0
-391 392 393 0
391 -392 0
391 -393 0
392 -858 -288 0
-392 858 0
-392 288 0
393 -394 -311 0
-393 394 0
-393 311 0
394 -858 288 0
394 858 -288 0
-394 858 288 0
-394 -858 -288 0
395 -858 368 0
395 858 -368 0
-395 858 368 0
-395 -858 -368 0
-396 397 398 0
396 -397 0
396 -398 0
397 -857 -287 0
-397 857 0
-397 287 0
398 -399 -314 0
-398 399 0
-398 314 0
399 -857 287 0
399 857 -287 0
-399 857 287 0
-399 -857 -287 0
400 -857 367 0
400 857 -367 0
-400 857 367 0
-400 -857 -367 0
-401 402 403 0
401 -402 0
401 -403 0
402 -856 -286 0
-402 856 0
-402 286 0
403 -285 -318 0
-403 285 0
-403 318 0
404 -405 448 0
404 405 -448 0
-404 405 448 0
-404 -405 -448 0
405 -406 445 0
405 406 -445 0
-405 406 445 0
-405 -406 -445 0
406 -407 442 0
406 407 -442 0
-406 407 442 0
-406 -407 -442 0
407 -408 439 0
407 408 -439 0
-407 408 439 0
-407 -408 -439 0
408 409 -428 0
408 -409 428 0
-408 -409 -428 0
-408 409 428 0
409 -410 425 0
409 410 -425 0
-409 410 425 0
-409 -410 -425 0
410 411 -420 0
410 -411 420 0
-410 -411 -420 0
-410 411 420 0
411 -412 417 0
411 412 -417 0
-411 412 417 0
-411 -412 -417 0
412 413 -416 0
412 -413 416 0
-412 -413 -416 0
-412 413 416 0
413 414 -415 0
413 -414 415 0
-413 -414 -415 0
-413 414 415 0
414 -856 -872 0
-414 856 0
-414 872 0
415 -857 -871 0
-415 857 0
-415 871 0
416 -858 -870 0
-416 858 0
-416 870 0
-417 418 419 0
417 -418 0
417 -419 0
418 -855 -856 -871 -872 0
-418 872 0
-418 855 0
-418 871 0
-418 856 0
419 -857 -870 -330 0
-419 857 0
-419 870 0
-419 330 0
420 421 -424 0
420 -421 424 0
-420 -421 -424 0
-420 421 424 0
421 422 -423 0
421 -422 423 0
-421 -422 -423 0
-421 422 423 0
422 -859 -869 0
-422 859 0
-422 869 0
423 -860 -868 0
-423 860 0
-423 868 0
424 -861 -867 0
-424 861 0
-424 867 0
-425 426 427 0
425 -426 0
425 -427 0
426 -328 -329 0
-426 328 0
-426 329 0
427 -327 -334 0
-427 327 0
-427 334 0
428 -429 436 0
428 429 -436 0
-428 429 436 0
-428 -429 -436 0
429 430 -433 0
429 -430 433 0
-429 -430 -433 0
-429 430 433 0
-430 431 432 0
430 -431 0
430 -432 0
431 -858 -859 -868 -869 0
-431 869 0
-431 858 0
-431 868 0
-431 859 0
432 -860 -867 -335 0
-432 860 0
-432 867 0
-432 335 0
433 434 -435 0
433 -434 435 0
-433 -434 -435 0
-433 434 435 0
434 -862 -866 0
-434 862 0
-434 866 0
435 -863 -865 0
-435 863 0
-435 865 0
-436 437 438 0
436 -437 0
436 -438 0
437 -861 -862 -865 -866 0
-437 866 0
-437 861 0
-437 865 0
-437 862 0
438 -292 -345 0
-438 292 0
-438 345 0
-439 440 441 0
439 -440 0
439 -441 0
440 -325 -326 0
-440 325 0
-440 326 0
441 -324 -339 0
-441 324 0
-441 339 0
-442 443 444 0
442 -443 0
442 -444 0
443 -341 -344 0
-443 341 0
-443 344 0
444 -340 -348 0
-444 340 0
-444 348 0
-445 446 447 0
445 -446 0
445 -447 0
446 -323 -351 0
-446 323 0
-446 351 0
447 -322 -354 0
-447 322 0
-447 354 0
-448 449 450 0
448 -449 0
448 -450 0
449 -321 -357 0
-449 321 0
-449 357 0
450 -320 -360 0
-450 320 0
-450 360 0
-451 872 452 0
-451 -857 452 -481 0
-451 857 452 481 0
-451 -857 -872 -452 481 0
-451 857 -872 -452 -481 0
451 872 -452 0
451 857 -872 452 -481 0
451 857 -452 481 0
451 -857 -452 -481 0
451 -857 -872 452 481 0
-452 871 453 0
-452 -858 453 -477 0
-452 858 453 477 0
-452 -858 -871 -453 477 0
-452 858 -871 -453 -477 0
452 871 -453 0
452 858 -871 453 -477 0
452 858 -453 477 0
452 -858 -453 -477 0
452 -858 -871 453 477 0
-453 870 454 0
-453 -859 454 -474 0
-453 859 454 474 0
-453 -859 -870 -454 474 0
-453 859 -870 -454 -474 0
453 870 -454 0
453 859 -870 454 -474 0
453 859 -454 474 0
453 -859 -454 -474 0
453 -859 -870 454 474 0
-454 869 455 0
-454 -860 455 -470 0
-454 860 455 470 0
-454 -860 -869 -455 470 0
-454 860 -869 -455 -470 0
454 869 -455 0
454 860 -869 455 -470 0
454 860 -455 470 0
454 -860 -455 -470 0
454 -860 -869 455 470 0
-455 868 456 0
-455 -861 456 -466 0
-455 861 456 466 0
-455 -861 -868 -456 466 0
-455 861 -868 -456 -466 0
455 868 -456 0
455 861 -868 456 -466 0
455 861 -456 466 0
455 -861 -456 -466 0
455 -861 -868 456 466 0
-456 867 457 0
-456 -862 457 -462 0
-456 862 457 462 0
-456 -862 -867 -457 462 0
-456 862 -867 -457 -462 0
456 867 -457 0
456 862 -867 457 -462 0
456 862 -457 462 0
456 -862 -457 -462 0
456 -862 -867 457 462 0
-457 866 458 0
-457 863 -866 -458 -460 0
-457 863 458 460 0
-457 -863 458 -460 0
-457 -863 -866 -458 460 0
457 866 -458 0
457 -863 -458 -460 0
457 863 -458 460 0
457 -863 -866 458 460 0
457 863 -866 458 -460 0
458 -865 -459 0
-458 865 0
-458 459 0
-459 862 294 0
-459 864 294 0
-459 863 0
-459 862 864 0
459 -862 -863 -294 0
459 -863 -864 -294 0
459 -862 -863 -864 0
-460 862 378 461 0
-460 862 372 461 0
-460 378 372 461 0
460 -862 -378 0
460 -378 -372 0
460 -461 0
460 -862 -372 0
461 -298 -299 -376 0
-461 298 0
-461 299 0
-461 376 0
-462 304 463 0
-462 463 465 0
462 -463 0
462 -304 -465 0
-463 464 380 0
-463 382 464 0
463 -464 0
463 -382 -380 0
464 -861 -371 0
-464 861 0
-464 371 0
465 -384 -380 0
-465 384 0
-465 380 0
-466 309 467 0
-466 467 469 0
466 -467 0
466 -309 -469 0
-467 468 385 0
-467 387 468 0
467 -468 0
467 -387 -385 0
468 -860 -370 0
-468 860 0
-468 370 0
469 -389 -385 0
-469 389 0
-469 385 0
-470 311 471 0
-470 471 473 0
470 -471 0
470 -311 -473 0
-471 472 390 0
-471 392 472 0
471 -472 0
471 -392 -390 0
472 -859 -369 0
-472 859 0
-472 369 0
473 -394 -390 0
-473 394 0
-473 390 0
-474 314 475 0
-474 475 476 0
474 -475 0
474 -314 -476 0
-475 397 368 0
-475 858 397 0
-475 858 368 0
475 -858 -397 0
475 -397 -368 0
475 -858 -368 0
476 -399 -395 0
-476 399 0
-476 395 0
-477 285 478 0
-477 478 480 0
477 -478 0
477 -285 -480 0
-478 479 400 0
-478 402 479 0
478 -479 0
478 -402 -400 0
479 -857 -367 0
-479 857 0
-479 367 0
480 -318 -400 0
-480 318 0
-480 400 0
-481 482 483 0
481 -482 0
481 -483 0
482 -856 -366 0
-482 856 0
-482 366 0
483 -365 -484 0
-483 365 0
-483 484 0
484 -856 366 0
484 856 -366 0
-484 856 366 0
-484 -856 -366 0
485 -486 525 0
485 486 -525 0
-485 486 525 0
-485 -486 -525 0
486 -487 522 0
486 487 -522 0
-486 487 522 0
-486 -487 -522 0
487 -488 519 0
487 488 -519 0
-487 488 519 0
-487 -488 -519 0
488 -489 516 0
488 489 -516 0
-488 489 516 0
-488 -489 -516 0
489 490 -509 0
489 -490 509 0
-489 -490 -509 0
-489 490 509 0
490 -491 506 0
490 491 -506 0
-490 491 506 0
-490 -491 -506 0
491 492 -501 0
491 -492 501 0
-491 -492 -501 0
-491 492 501 0
492 -493 498 0
492 493 -498 0
-492 493 498 0
-492 -493 -498 0
493 494 -497 0
493 -494 497 0
-493 -494 -497 0
-493 494 497 0
494 495 -496 0
494 -495 496 0
-494 -495 -496 0
-494 495 496 0
495 -857 -872 0
-495 857 0
-495 872 0
496 -858 -871 0
-496 858 0
-496 871 0
497 -859 -870 0
-497 859 0
-497 870 0
-498 499 500 0
498 -499 0
498 -500 0
499 -856 -857 -871 -872 0
-499 872 0
-499 856 0
-499 871 0
-499 857 0
500 -858 -870 -413 0
-500 858 0
-500 870 0
-500 413 0
501 502 -505 0
501 -502 505 0
-501 -502 -505 0
-501 502 505 0
502 503 -504 0
502 -503 504 0
-502 -503 -504 0
-502 503 504 0
503 -860 -869 0
-503 860 0
-503 869 0
504 -861 -868 0
-504 861 0
-504 868 0
505 -862 -867 0
-505 862 0
-505 867 0
-506 507 508 0
506 -507 0
506 -508 0
507 -412 -417 0
-507 412 0
-507 417 0
508 -411 -420 0
-508 411 0
-508 420 0
509 510 -511 0
509 -510 511 0
-509 -510 -511 0
-509 510 511 0
510 -862 -863 -865 -866 0
-510 866 0
-510 862 0
-510 865 0
-510 863 0
511 512 -515 0
511 -512 515 0
-511 -512 -515 0
-511 512 515 0
-512 513 514 0
512 -513 0
512 -514 0
513 -859 -860 -868 -869 0
-513 869 0
-513 859 0
-513 868 0
-513 860 0
514 -861 -867 -421 0
-514 861 0
-514 867 0
-514 421 0
515 -863 -866 0
-515 863 0
-515 866 0
-516 517 518 0
516 -517 0
516 -518 0
517 -410 -425 0
-517 410 0
-517 425 0
518 -409 -428 0
-518 409 0
-518 428 0
-519 520 521 0
519 -520 0
519 -521 0
520 -430 -433 0
-520 430 0
-520 433 0
521 -429 -436 0
-521 429 0
-521 436 0
-522 523 524 0
522 -523 0
522 -524 0
523 -408 -439 0
-523 408 0
-523 439 0
524 -407 -442 0
-524 407 0
-524 442 0
-525 360 526 0
-525 526 528 0
525 -526 0
525 -360 -528 0
-526 527 405 0
-526 449 527 0
526 -527 0
526 -449 -405 0
527 -406 -445 0
-527 406 0
-527 445 0
528 -320 -405 0
-528 320 0
-528 405 0
-529 530 570 609 644 0
-529 -530 -570 -609 -644 0
-529 530 570 -609 -644 0
-529 -530 -570 609 644 0
529 530 -570 0
529 -530 570 0
529 -609 644 0
529 609 -644 0
-530 872 531 0
-530 -872 565 566 0
-530 -872 -565 -566 0
530 872 -531 0
530 -872 565 -566 0
530 -872 -565 566 0
-531 871 532 0
-531 -871 560 561 0
-531 -871 -560 -561 0
531 871 -532 0
531 -871 560 -561 0
531 -871 -560 561 0
-532 870 533 0
-532 -870 555 556 0
-532 -870 -555 -556 0
532 870 -533 0
532 -870 555 -556 0
532 -870 -555 556 0
-533 869 534 0
-533 -869 550 551 0
-533 -869 -550 -551 0
533 869 -534 0
533 -869 550 -551 0
533 -869 -550 551 0
-534 868 535 0
-534 -868 545 546 0
-534 -868 -545 -546 0
534 868 -535 0
534 -868 545 -546 0
534 -868 -545 546 0
-535 867 536 0
-535 -867 540 541 0
-535 -867 -540 -541 0
535 867 -536 0
535 -867 540 -541 0
535 -867 -540 541 0
536 -866 -537 0
536 -866 -538 0
-536 866 0
-536 537 538 0
537 -863 -458 0
-537 863 0
-537 458 0
538 -539 -460 0
-538 539 0
-538 460 0
539 863 -458 0
539 -863 458 0
-539 -863 -458 0
-539 863 458 0
540 863 -536 0
540 -863 536 0
-540 -863 -536 0
-540 863 536 0
-541 542 543 0
541 -542 0
541 -543 0
542 -862 -457 0
-542 862 0
-542 457 0
543 -544 -462 0
-543 544 0
-543 462 0
544 -862 457 0
544 862 -457 0
-544 862 457 0
-544 -862 -457 0
545 -862 535 0
545 862 -535 0
-545 862 535 0
-545 -862 -535 0
-546 547 548 0
546 -547 0
546 -548 0
547 -861 -456 0
-547 861 0
-547 456 0
548 -549 -466 0
-548 549 0
-548 466 0
549 -861 456 0
549 861 -456 0
-549 861 456 0
-549 -861 -456 0
550 -861 534 0
550 861 -534 0
-550 861 534 0
-550 -861 -534 0
-551 552 553 0
551 -552 0
551 -553 0
552 -860 -455 0
-552 860 0
-552 455 0
553 -554 -470 0
-553 554 0
-553 470 0
554 -860 455 0
554 860 -455 0
-554 860 455 0
-554 -860 -455 0
555 -860 533 0
555 860 -533 0
-555 860 533 0
-555 -860 -533 0
-556 557 558 0
556 -557 0
556 -558 0
557 -859 -454 0
-557 859 0
-557 454 0
558 -559 -474 0
-558 559 0
-558 474 0
559 -859 454 0
559 859 -454 0
-559 859 454 0
-559 -859 -454 0
560 -859 532 0
560 859 -532 0
-560 859 532 0
-560 -859 -532 0
-561 562 563 0
561 -562 0
561 -563 0
562 -858 -453 0
-562 858 0
-562 453 0
563 -564 -477 0
-563 564 0
-563 477 0
564 -858 453 0
564 858 -453 0
-564 858 453 0
-564 -858 -453 0
565 -858 531 0
565 858 -531 0
-565 858 531 0
-565 -858 -531 0
-566 567 568 0
566 -567 0
566 -568 0
567 -857 -452 0
-567 857 0
-567 452 0
568 -569 -481 0
-568 569 0
-568 481 0
569 -857 452 0
569 857 -452 0
-569 857 452 0
-569 -857 -452 0
570 -571 606 0
570 571 -606 0
-570 571 606 0
-570 -571 -606 0
571 -572 603 0
571 572 -603 0
-571 572 603 0
-571 -572 -603 0
572 -573 600 0
572 573 -600 0
-572 573 600 0
-572 -573 -600 0
573 -574 597 0
573 574 -597 0
-573 574 597 0
-573 -574 -597 0
574 -575 594 0
574 575 -594 0
-574 575 594 0
-574 -575 -594 0
575 -576 591 0
575 576 -591 0
-575 576 591 0
-575 -576 -591 0
576 577 -586 0
576 -577 586 0
-576 -577 -586 0
-576 577 586 0
577 -578 583 0
577 578 -583 0
-577 578 583 0
-577 -578 -583 0
578 579 -582 0
578 -579 582 0
-578 -579 -582 0
-578 579 582 0
579 580 -581 0
579 -580 581 0
-579 -580 -581 0
-579 580 581 0
580 -858 -872 0
-580 858 0
-580 872 0
581 -859 -871 0
-581 859 0
-581 871 0
582 -860 -870 0
-582 860 0
-582 870 0
-583 584 585 0
583 -584 0
583 -585 0
584 -857 -858 -871 -872 0
-584 872 0
-584 857 0
-584 871 0
-584 858 0
585 -859 -870 -494 0
-585 859 0
-585 870 0
-585 494 0
586 587 -590 0
586 -587 590 0
-586 -587 -590 0
-586 587 590 0
587 588 -589 0
587 -588 589 0
-587 -588 -589 0
-587 588 589 0
588 -861 -869 0
-588 861 0
-588 869 0
589 -862 -868 0
-589 862 0
-589 868 0
590 -863 -867 0
-590 863 0
-590 867 0
-591 592 593 0
591 -592 0
591 -593 0
592 -493 -498 0
-592 493 0
-592 498 0
593 -492 -501 0
-593 492 0
-593 501 0
-594 595 596 0
594 -595 0
594 -596 0
595 -860 -861 -868 -869 0
-595 869 0
-595 860 0
-595 868 0
-595 861 0
596 -862 -867 -502 0
-596 862 0
-596 867 0
-596 502 0
-597 598 599 0
597 -598 0
597 -599 0
598 -491 -506 0
-598 491 0
-598 506 0
599 -490 -509 0
-599 490 0
-599 509 0
-600 601 602 0
600 -601 0
600 -602 0
601 -863 -866 -512 0
-601 863 0
-601 866 0
-601 512 0
602 -510 -511 0
-602 510 0
-602 511 0
-603 604 605 0
603 -604 0
603 -605 0
604 -489 -516 0
-604 489 0
-604 516 0
605 -488 -519 0
-605 488 0
-605 519 0
-606 607 608 0
606 -607 0
606 -608 0
607 -487 -522 0
-607 487 0
-607 522 0
608 -486 -525 0
-608 486 0
-608 525 0
-609 872 610 0
-609 -859 610 -641 0
-609 859 610 641 0
-609 -859 -872 -610 641 0
-609 859 -872 -610 -641 0
609 872 -610 0
609 859 -872 610 -641 0
609 859 -610 641 0
609 -859 -610 -641 0
609 -859 -872 610 641 0
-610 871 611 0
-610 -860 611 -635 0
-610 860 611 635 0
-610 -860 -871 -611 635 0
-610 860 -871 -611 -635 0
610 871 -611 0
610 860 -871 611 -635 0
610 860 -611 635 0
610 -860 -611 -635 0
610 -860 -871 611 635 0
-611 870 612 0
-611 -861 612 -630 0
-611 861 612 630 0
-611 -861 -870 -612 630 0
-611 861 -870 -612 -630 0
611 870 -612 0
611 861 -870 612 -630 0
611 861 -612 630 0
611 -861 -612 -630 0
611 -861 -870 612 630 0
-612 869 613 0
-612 -862 613 -625 0
-612 862 613 625 0
-612 -862 -869 -613 625 0
-612 862 -869 -613 -625 0
612 869 -613 0
612 862 -869 613 -625 0
612 862 -613 625 0
612 -862 -613 -625 0
612 -862 -869 613 625 0
-613 868 614 0
-613 863 -868 -614 -620 0
-613 863 614 620 0
-613 -863 614 -620 0
-613 -863 -868 -614 620 0
613 868 -614 0
613 -863 -614 -620 0
613 863 -614 620 0
613 -863 -868 614 620 0
613 863 -868 614 -620 0
614 -867 -615 0
614 -867 -304 -619 0
-614 867 0
-614 304 615 0
-614 615 619 0
-615 542 616 617 0
-615 616 540 617 0
615 -617 0
615 -616 0
615 -542 -540 0
616 -863 -536 0
-616 863 0
-616 536 0
617 -463 -618 0
-617 463 0
-617 618 0
618 -544 -540 0
-618 544 0
-618 540 0
619 -465 -618 0
-619 465 0
-619 618 0
-620 469 622 0
-620 621 622 0
-620 309 622 0
620 -622 0
620 -309 -469 -621 0
621 -549 -545 0
-621 549 0
-621 545 0
-622 547 623 624 0
-622 623 545 624 0
622 -624 0
622 -623 0
622 -547 -545 0
623 -862 -535 0
-623 862 0
-623 535 0
624 -467 -621 0
-624 467 0
-624 621 0
-625 473 627 0
-625 626 627 0
-625 311 627 0
625 -627 0
625 -311 -473 -626 0
626 -554 -550 0
-626 554 0
-626 550 0
-627 471 628 629 0
-627 628 629 626 0
627 -629 0
627 -628 0
627 -471 -626 0
628 -861 -534 0
-628 861 0
-628 534 0
629 -552 -550 0
-629 552 0
-629 550 0
-630 476 632 0
-630 631 632 0
-630 314 632 0
630 -632 0
630 -314 -476 -631 0
631 -559 -555 0
-631 559 0
-631 555 0
-632 557 633 634 0
-632 633 555 634 0
632 -634 0
632 -633 0
632 -557 -555 0
633 -860 -533 0
-633 860 0
-633 533 0
634 -475 -631 0
-634 475 0
-634 631 0
-635 285 636 0
-635 636 640 0
635 -636 0
635 -285 -640 0
-636 478 637 638 0
-636 637 638 639 0
636 -638 0
636 -637 0
636 -478 -639 0
637 -859 -532 0
-637 859 0
-637 532 0
638 -562 -560 0
-638 562 0
-638 560 0
639 -564 -560 0
-639 564 0
-639 560 0
640 -480 -639 0
-640 480 0
-640 639 0
-641 569 642 0
-641 481 642 0
-641 565 642 0
641 -642 0
641 -569 -481 -565 0
-642 643 565 0
-642 567 643 0
642 -643 0
642 -567 -565 0
643 -858 -531 0
-643 858 0
-643 531 0
644 -645 674 0
644 645 -674 0
-644 645 674 0
-644 -645 -674 0
645 -646 671 0
645 646 -671 0
-645 646 671 0
-645 -646 -671 0
646 -647 668 0
646 647 -668 0
-646 647 668 0
-646 -647 -668 0
647 -648 665 0
647 648 -665 0
-647 648 665 0
-647 -648 -665 0
648 -649 662 0
648 649 -662 0
-648 649 662 0
-648 -649 -662 0
649 650 -659 0
649 -650 659 0
-649 -650 -659 0
-649 650 659 0
650 -651 656 0
650 651 -656 0
-650 651 656 0
-650 -651 -656 0
651 652 -655 0
651 -652 655 0
-651 -652 -655 0
-651 652 655 0
652 653 -654 0
652 -653 654 0
-652 -653 -654 0
-652 653 654 0
653 -859 -872 0
-653 859 0
-653 872 0
654 -860 -871 0
-654 860 0
-654 871 0
655 -861 -870 0
-655 861 0
-655 870 0
-656 657 658 0
656 -657 0
656 -658 0
657 -858 -859 -871 -872 0
-657 872 0
-657 858 0
-657 871 0
-657 859 0
658 -860 -870 -579 0
-658 860 0
-658 870 0
-658 579 0
659 660 -661 0
659 -660 661 0
-659 -660 -661 0
-659 660 661 0
660 -862 -869 0
-660 862 0
-660 869 0
661 -863 -868 0
-661 863 0
-661 868 0
-662 663 664 0
662 -663 0
662 -664 0
663 -578 -583 0
-663 578 0
-663 583 0
664 -577 -586 0
-664 577 0
-664 586 0
-665 666 667 0
665 -666 0
665 -667 0
666 -861 -862 -868 -869 0
-666 869 0
-666 861 0
-666 868 0
-666 862 0
667 -863 -867 -587 0
-667 863 0
-667 867 0
-667 587 0
-668 669 670 0
668 -669 0
668 -670 0
669 -576 -591 0
-669 576 0
-669 591 0
670 -575 -594 0
-670 575 0
-670 594 0
-671 672 673 0
671 -672 0
671 -673 0
672 -574 -597 0
-672 574 0
-672 597 0
673 -573 -600 0
-673 573 0
-673 600 0
-674 360 675 0
-674 675 679 0
674 -675 0
674 -360 -679 0
-675 607 676 677 0
-675 676 571 677 0
675 -677 0
675 -676 0
675 -607 -571 0
676 -572 -603 0
-676 572 0
-676 603 0
677 -526 -678 0
-677 526 0
-677 678 0
678 -486 -571 0
-678 486 0
-678 571 0
679 -528 -678 0
-679 528 0
-679 678 0
-680 681 -778 -793 810 0
-680 681 778 793 810 0
680 -810 0
680 778 -793 0
680 -681 0
680 -778 793 0
-681 682 709 736 754 0
-681 -682 -709 -736 -754 0
-681 682 709 -736 -754 0
-681 -682 -709 736 754 0
681 682 -709 0
681 -682 709 0
681 -736 754 0
681 736 -754 0
-682 872 683 0
-682 -872 704 705 0
-682 -872 -704 -705 0
682 872 -683 0
682 -872 704 -705 0
682 -872 -704 705 0
-683 871 684 0
-683 -871 699 700 0
-683 -871 -699 -700 0
683 871 -684 0
683 -871 699 -700 0
683 -871 -699 700 0
-684 870 685 0
-684 -870 694 695 0
-684 -870 -694 -695 0
684 870 -685 0
684 -870 694 -695 0
684 -870 -694 695 0
-685 869 686 0
-685 863 -869 -686 -690 0
-685 863 686 690 0
-685 -863 686 -690 0
-685 -863 -869 -686 690 0
685 869 -686 0
685 -863 -686 -690 0
685 863 -686 690 0
685 -863 -869 686 690 0
685 863 -869 686 -690 0
686 -868 -687 0
686 -868 -688 0
-686 868 0
-686 687 688 0
687 -863 -614 0
-687 863 0
-687 614 0
688 -689 -620 0
-688 689 0
-688 620 0
689 863 -614 0
689 -863 614 0
-689 -863 -614 0
-689 863 614 0
-690 691 692 0
690 -691 0
690 -692 0
691 -862 -613 0
-691 862 0
-691 613 0
692 -693 -625 0
-692 693 0
-692 625 0
693 -862 613 0
693 862 -613 0
-693 862 613 0
-693 -862 -613 0
694 -862 685 0
694 862 -685 0
-694 862 685 0
-694 -862 -685 0
-695 696 697 0
695 -696 0
695 -697 0
696 -861 -612 0
-696 861 0
-696 612 0
697 -698 -630 0
-697 698 0
-697 630 0
698 -861 612 0
698 861 -612 0
-698 861 612 0
-698 -861 -612 0
699 -861 684 0
699 861 -684 0
-699 861 684 0
-699 -861 -684 0
-700 701 702 0
700 -701 0
700 -702 0
701 -860 -611 0
-701 860 0
-701 611 0
702 -703 -635 0
-702 703 0
-702 635 0
703 -860 611 0
703 860 -611 0
-703 860 611 0
-703 -860 -611 0
704 -860 683 0
704 860 -683 0
-704 860 683 0
-704 -860 -683 0
-705 706 707 0
705 -706 0
705 -707 0
706 -859 -610 0
-706 859 0
-706 610 0
707 -708 -641 0
-707 708 0
-707 641 0
708 -859 610 0
708 859 -610 0
-708 859 610 0
-708 -859 -610 0
709 -710 733 0
709 710 -733 0
-709 710 733 0
-709 -710 -733 0
710 711 -712 0
710 -711 712 0
-710 -711 -712 0
-710 711 712 0
711 -647 -668 0
-711 647 0
-711 668 0
712 -713 730 0
712 713 -730 0
-712 713 730 0
-712 -713 -730 0
713 714 -715 0
713 -714 715 0
-713 -714 -715 0
-713 714 715 0
714 -862 -863 -868 -869 0
-714 869 0
-714 862 0
-714 868 0
-714 863 0
715 -716 727 0
715 716 -727 0
-715 716 727 0
-715 -716 -727 0
716 717 -726 0
716 -717 726 0
-716 -717 -726 0
-716 717 726 0
717 -718 723 0
717 718 -723 0
-717 718 723 0
-717 -718 -723 0
718 719 -722 0
718 -719 722 0
-718 -719 -722 0
-718 719 722 0
719 720 -721 0
719 -720 721 0
-719 -720 -721 0
-719 720 721 0
720 -860 -872 0
-720 860 0
-720 872 0
721 -861 -871 0
-721 861 0
-721 871 0
722 -862 -870 0
-722 862 0
-722 870 0
-723 724 725 0
723 -724 0
723 -725 0
724 -859 -860 -871 -872 0
-724 872 0
-724 859 0
-724 871 0
-724 860 0
725 -861 -870 -652 0
-725 861 0
-725 870 0
-725 652 0
726 -863 -869 0
-726 863 0
-726 869 0
-727 728 729 0
727 -728 0
727 -729 0
728 -651 -656 0
-728 651 0
-728 656 0
729 -650 -659 0
-729 650 0
-729 659 0
-730 731 732 0
730 -731 0
730 -732 0
731 -649 -662 0
-731 649 0
-731 662 0
732 -648 -665 0
-732 648 0
-732 665 0
-733 734 735 0
733 -734 0
733 -735 0
734 -646 -671 0
-734 646 0
-734 671 0
735 -645 -674 0
-735 645 0
-735 674 0
-736 872 737 0
-736 -861 737 -751 0
-736 861 737 751 0
-736 -861 -872 -737 751 0
-736 861 -872 -737 -751 0
736 872 -737 0
736 861 -872 737 -751 0
736 861 -737 751 0
736 -861 -737 -751 0
736 -861 -872 737 751 0
-737 871 738 0
-737 -862 738 -747 0
-737 862 738 747 0
-737 -862 -871 -738 747 0
-737 862 -871 -738 -747 0
737 871 -738 0
737 862 -871 738 -747 0
737 862 -738 747 0
737 -862 -738 -747 0
737 -862 -871 738 747 0
-738 870 739 0
-738 863 -870 -739 -744 0
-738 863 739 744 0
-738 -863 739 -744 0
-738 -863 -870 -739 744 0
738 870 -739 0
738 -863 -739 -744 0
738 863 -739 744 0
738 -863 -870 739 744 0
738 863 -870 739 -744 0
739 -869 -740 0
739 -869 -743 0
739 -869 -741 0
-739 869 0
-739 740 741 743 0
740 -863 -686 0
-740 863 0
-740 686 0
741 -691 -742 0
-741 691 0
-741 742 0
742 863 -686 0
742 -863 686 0
-742 -863 -686 0
-742 863 686 0
743 -693 -625 -742 0
-743 693 0
-743 625 0
-743 742 0
-744 698 745 0
-744 630 745 0
-744 694 745 0
744 -745 0
744 -698 -630 -694 0
-745 746 694 0
-745 696 746 0
745 -746 0
745 -696 -694 0
746 -862 -685 0
-746 862 0
-746 685 0
-747 635 748 0
-747 748 750 0
747 -748 0
747 -635 -750 0
-748 749 699 0
-748 701 749 0
748 -749 0
748 -701 -699 0
749 -861 -684 0
-749 861 0
-749 684 0
750 -703 -699 0
-750 703 0
-750 699 0
-751 641 752 0
-751 752 753 0
751 -752 0
751 -641 -753 0
-752 706 683 0
-752 860 706 0
-752 860 683 0
752 -860 -706 0
752 -706 -683 0
752 -860 -683 0
753 -708 -704 0
-753 708 0
-753 704 0
754 -755 774 0
754 755 -774 0
-754 755 774 0
-754 -755 -774 0
755 756 -757 0
755 -756 757 0
-755 -756 -757 0
-755 756 757 0
756 -713 -730 0
-756 713 0
-756 730 0
757 -758 771 0
757 758 -771 0
-757 758 771 0
-757 -758 -771 0
758 -759 768 0
758 759 -768 0
-758 759 768 0
-758 -759 -768 0
759 -760 765 0
759 760 -765 0
-759 760 765 0
-759 -760 -765 0
760 761 -764 0
760 -761 764 0
-760 -761 -764 0
-760 761 764 0
761 762 -763 0
761 -762 763 0
-761 -762 -763 0
-761 762 763 0
762 -861 -872 0
-762 861 0
-762 872 0
763 -862 -871 0
-763 862 0
-763 871 0
764 -863 -870 0
-764 863 0
-764 870 0
-765 766 767 0
765 -766 0
765 -767 0
766 -860 -861 -871 -872 0
-766 872 0
-766 860 0
-766 871 0
-766 861 0
767 -862 -870 -719 0
-767 862 0
-767 870 0
-767 719 0
-768 769 770 0
768 -769 0
768 -770 0
769 -718 -723 0
-769 718 0
-769 723 0
770 -863 -869 -717 0
-770 863 0
-770 869 0
-770 717 0
-771 772 773 0
771 -772 0
771 -773 0
772 -716 -727 0
-772 716 0
-772 727 0
773 -714 -715 0
-773 714 0
-773 715 0
-774 674 775 0
-774 775 777 0
774 -775 0
774 -674 -777 0
-775 776 710 0
-775 734 776 0
775 -776 0
775 -734 -710 0
776 -711 -712 0
-776 711 0
-776 712 0
777 -645 -710 0
-777 645 0
-777 710 0
-778 872 779 0
-778 -872 788 789 0
-778 -872 -788 -789 0
778 872 -779 0
778 -872 788 -789 0
778 -872 -788 789 0
-779 871 780 0
-779 863 -871 -780 -784 0
-779 863 780 784 0
-779 -863 780 -784 0
-779 -863 -871 -780 784 0
779 871 -780 0
779 -863 -780 -784 0
779 863 -780 784 0
779 -863 -871 780 784 0
779 863 -871 780 -784 0
780 -870 -781 0
780 -870 -782 0
-780 870 0
-780 781 782 0
781 -863 -739 0
-781 863 0
-781 739 0
782 -783 -744 0
-782 783 0
-782 744 0
783 863 -739 0
783 -863 739 0
-783 -863 -739 0
-783 863 739 0
-784 785 786 0
784 -785 0
784 -786 0
785 -862 -738 0
-785 862 0
-785 738 0
786 -787 -747 0
-786 787 0
-786 747 0
787 -862 738 0
787 862 -738 0
-787 862 738 0
-787 -862 -738 0
788 -862 779 0
788 862 -779 0
-788 862 779 0
-788 -862 -779 0
-789 790 791 0
789 -790 0
789 -791 0
790 -861 -737 0
-790 861 0
-790 737 0
791 -792 -751 0
-791 792 0
-791 751 0
792 -861 737 0
792 861 -737 0
-792 861 737 0
-792 -861 -737 0
793 -794 807 0
793 794 -807 0
-793 794 807 0
-793 -794 -807 0
794 795 -796 0
794 -795 796 0
-794 -795 -796 0
-794 795 796 0
795 -758 -771 0
-795 758 0
-795 771 0
796 797 -798 0
796 -797 798 0
-796 -797 -798 0
-796 797 798 0
797 -759 -768 0
-797 759 0
-797 768 0
798 799 -800 0
798 -799 800 0
-798 -799 -800 0
-798 799 800 0
799 -760 -765 0
-799 760 0
-799 765 0
800 -801 804 0
800 801 -804 0
-800 801 804 0
-800 -801 -804 0
801 802 -803 0
801 -802 803 0
-801 -802 -803 0
-801 802 803 0
802 -862 -872 0
-802 862 0
-802 872 0
803 -863 -871 0
-803 863 0
-803 871 0
-804 805 806 0
804 -805 0
804 -806 0
805 -861 -862 -871 -872 0
-805 872 0
-805 861 0
-805 871 0
-805 862 0
806 -863 -870 -761 0
-806 863 0
-806 870 0
-806 761 0
-807 808 809 0
807 -808 0
807 -809 0
808 -756 -757 0
-808 756 0
-808 757 0
809 -755 -774 0
-809 755 0
-809 774 0
-810 -811 -826 -841 -845 0
-810 811 826 -841 -845 0
-810 -811 -826 841 845 0
-810 811 826 841 845 0
810 841 -845 0
810 -841 845 0
810 811 -826 0
810 -811 826 0
-811 872 812 0
-811 863 -872 -812 -821 0
-811 863 812 821 0
-811 -863 812 -821 0
-811 -863 -872 -812 821 0
811 872 -812 0
811 -863 -812 -821 0
811 863 -812 821 0
811 -863 -872 812 821 0
811 863 -872 812 -821 0
812 -871 -813 0
812 -871 -285 -820 0
-812 871 0
-812 285 813 0
-812 813 820 0
-813 636 814 0
-813 814 819 0
813 -814 0
813 -636 -819 0
-814 748 815 816 0
-814 815 816 818 0
814 -816 0
814 -815 0
814 -748 -818 0
815 -863 -780 0
-815 863 0
-815 780 0
816 -785 -817 0
-816 785 0
-816 817 0
817 863 -780 0
817 -863 780 0
-817 -863 -780 0
-817 863 780 0
818 -787 -817 0
-818 787 0
-818 817 0
819 -750 -818 0
-819 750 0
-819 818 0
820 -640 -819 0
-820 640 0
-820 819 0
-821 753 823 0
-821 822 823 0
-821 641 823 0
821 -823 0
821 -641 -753 -822 0
822 -792 -788 0
-822 792 0
-822 788 0
-823 752 824 825 0
-823 824 825 822 0
823 -825 0
823 -824 0
823 -752 -822 0
824 -862 -779 0
-824 862 0
-824 779 0
825 -790 -788 0
-825 790 0
-825 788 0
826 -827 834 0
826 827 -834 0
-826 827 834 0
-826 -827 -834 0
827 828 -829 0
827 -828 829 0
-827 -828 -829 0
-827 828 829 0
828 -797 -798 0
-828 797 0
-828 798 0
829 830 -831 0
829 -830 831 0
-829 -830 -831 0
-829 830 831 0
830 -799 -800 0
-830 799 0
-830 800 0
831 832 -833 0
831 -832 833 0
-831 -832 -833 0
-831 832 833 0
832 -801 -804 0
-832 801 0
-832 804 0
833 862 -863 -872 0
833 -863 871 -872 0
-833 872 0
-833 863 0
-833 -862 -871 0
-834 679 837 0
-834 835 837 0
-834 360 837 0
834 -837 0
834 -360 -679 -835 0
835 -777 -836 0
-835 777 0
-835 836 0
836 -755 -794 0
-836 755 0
-836 794 0
-837 675 838 840 0
-837 838 840 835 0
837 -838 0
837 -840 0
837 -675 -835 0
-838 839 794 0
-838 808 839 0
838 -839 0
838 -808 -794 0
839 -795 -796 0
-839 795 0
-839 796 0
840 -775 -836 0
-840 775 0
-840 836 0
841 -872 -842 0
841 -872 -843 0
-841 872 0
-841 842 843 0
842 -863 -812 0
-842 863 0
-842 812 0
843 -844 -821 0
-843 844 0
-843 821 0
844 863 -812 0
844 -863 812 0
-844 -863 -812 0
-844 863 812 0
845 -846 852 0
845 846 -852 0
-845 846 852 0
-845 -846 -852 0
846 847 -848 0
846 -847 848 0
-846 -847 -848 0
-846 847 848 0
847 -830 -831 0
-847 830 0
-847 831 0
848 -849 0
-848 849 0
-849 850 851 0
849 -850 0
849 -851 0
850 -862 -863 -871 -872 0
-850 872 0
-850 862 0
-850 871 0
-850 863 0
851 -832 -833 0
-851 832 0
-851 833 0
-852 853 854 0
852 -853 0
852 -854 0
853 -828 -829 0
-853 828 0
-853 829 0
854 -827 -834 0
-854 827 0
-854 834 0
-873 0
2 0

