c Result of efficient AIG-to-CNF conversion using package CNF
p cnf 851 3580
-2 3 58 376 675 0
2 -675 0
2 -3 0
2 -376 0
2 -58 0
-3 4 0
3 -4 0
-4 5 24 -33 -48 0
-4 -5 -24 -33 -48 0
-4 5 24 33 48 0
-4 -5 -24 33 48 0
4 5 -24 0
4 -5 24 0
4 33 -48 0
4 -33 48 0
5 6 -7 0
5 -6 7 0
-5 -6 -7 0
-5 6 7 0
6 -832 -840 0
-6 832 0
-6 840 0
7 -8 9 0
7 8 -9 0
-7 8 9 0
-7 -8 -9 0
8 -831 -841 0
-8 831 0
-8 841 0
-9 -10 -19 0
-9 10 19 0
9 10 -19 0
9 -10 19 0
10 -11 -12 0
-10 11 0
-10 12 0
11 -831 -840 0
-11 831 0
-11 840 0
12 -13 14 0
12 13 -14 0
-12 13 14 0
-12 -13 -14 0
13 -830 -841 0
-13 830 0
-13 841 0
-14 -15 -18 0
-14 15 18 0
14 15 -18 0
14 -15 18 0
15 -16 -17 0
-15 16 0
-15 17 0
16 -830 -840 0
-16 830 0
-16 840 0
17 -829 -841 0
-17 829 0
-17 841 0
18 -829 -842 0
-18 829 0
-18 842 0
19 20 -21 0
19 -20 21 0
-19 -20 -21 0
-19 20 21 0
20 -830 -842 0
-20 830 0
-20 842 0
21 -22 23 0
21 22 -23 0
-21 22 23 0
-21 -22 -23 0
22 -829 -843 0
-22 829 0
-22 843 0
-23 15 18 0
-23 13 18 0
-23 15 13 0
23 -15 -13 0
23 -13 -18 0
23 -15 -18 0
24 25 -30 0
24 -25 30 0
-24 -25 -30 0
-24 25 30 0
-25 26 28 0
-25 -26 -28 0
25 -26 28 0
25 26 -28 0
-26 -8 -27 0
-26 8 27 0
26 8 -27 0
26 -8 27 0
27 20 -22 0
27 -20 22 0
-27 -20 -22 0
-27 20 22 0
-28 6 29 0
-28 -6 -29 0
28 -6 29 0
28 6 -29 0
-29 841 18 0
-29 830 11 0
-29 11 18 0
-29 841 11 0
-29 830 18 0
29 -11 -18 0
29 -830 -841 -18 0
29 -830 -841 -11 0
30 -15 -31 0
-30 15 0
-30 31 0
-31 -11 -32 0
-31 11 32 0
31 11 -32 0
31 -11 32 0
32 13 -18 0
32 -13 18 0
-32 -13 -18 0
-32 13 18 0
33 34 -35 0
33 -34 35 0
-33 -34 -35 0
-33 34 35 0
34 -833 -840 0
-34 833 0
-34 840 0
35 -36 37 0
35 36 -37 0
-35 36 37 0
-35 -36 -37 0
36 -832 -841 0
-36 832 0
-36 841 0
-37 38 39 0
-37 -38 -39 0
37 -38 39 0
37 38 -39 0
38 -6 -7 0
-38 6 0
-38 7 0
-39 40 41 0
-39 -40 -41 0
39 -40 41 0
39 40 -41 0
40 -831 -842 0
-40 831 0
-40 842 0
-41 42 47 0
-41 -42 -47 0
41 -42 47 0
41 42 -47 0
-42 -43 -44 0
-42 43 44 0
42 43 -44 0
42 -43 44 0
43 -830 -843 0
-43 830 0
-43 843 0
44 -45 46 0
44 45 -46 0
-44 45 46 0
-44 -45 -46 0
45 -829 -844 0
-45 829 0
-45 844 0
-46 22 23 0
-46 20 22 0
-46 20 23 0
46 -20 -22 0
46 -22 -23 0
46 -20 -23 0
-47 10 19 0
-47 8 19 0
-47 10 8 0
47 -10 -8 0
47 -8 -19 0
47 -10 -19 0
48 -49 50 0
48 49 -50 0
-48 49 50 0
-48 -49 -50 0
49 -25 -30 0
-49 25 0
-49 30 0
-50 51 57 0
-50 -51 -57 0
50 -51 57 0
50 51 -57 0
-51 -52 -53 0
-51 52 53 0
51 52 -53 0
51 -52 53 0
-52 -34 -36 0
-52 34 36 0
52 34 -36 0
52 -34 36 0
53 -54 56 0
53 54 -56 0
-53 54 56 0
-53 -54 -56 0
54 -40 55 0
54 40 -55 0
-54 40 55 0
-54 -40 -55 0
-55 -43 -45 0
-55 43 45 0
55 43 -45 0
55 -43 45 0
-56 8 22 0
-56 20 22 0
-56 8 20 0
56 -8 -20 0
56 -20 -22 0
56 -8 -22 0
-57 6 26 0
-57 26 29 0
-57 6 29 0
57 -26 -29 0
57 -6 -26 0
57 -6 -29 0
-58 59 78 93 185 0
-58 -59 -78 93 185 0
58 -185 0
58 -59 78 0
58 -93 0
58 59 -78 0
59 60 -61 0
59 -60 61 0
-59 -60 -61 0
-59 60 61 0
60 -834 -840 0
-60 834 0
-60 840 0
61 -62 63 0
61 62 -63 0
-61 62 63 0
-61 -62 -63 0
62 -833 -841 0
-62 833 0
-62 841 0
-63 64 65 0
-63 -64 -65 0
63 -64 65 0
63 64 -65 0
64 -34 -35 0
-64 34 0
-64 35 0
-65 66 67 0
-65 -66 -67 0
65 -66 67 0
65 66 -67 0
66 -832 -842 0
-66 832 0
-66 842 0
-67 68 77 0
-67 -68 -77 0
67 -68 77 0
67 68 -77 0
-68 69 70 0
-68 -69 -70 0
68 -69 70 0
68 69 -70 0
69 -831 -843 0
-69 831 0
-69 843 0
-70 71 76 0
-70 -71 -76 0
70 -71 76 0
70 71 -76 0
-71 -72 -73 0
-71 72 73 0
71 72 -73 0
71 -72 73 0
72 -830 -844 0
-72 830 0
-72 844 0
73 -74 75 0
73 74 -75 0
-73 74 75 0
-73 -74 -75 0
74 -829 -845 0
-74 829 0
-74 845 0
-75 45 46 0
-75 43 45 0
-75 43 46 0
75 -43 -45 0
75 -45 -46 0
75 -43 -46 0
-76 40 42 0
-76 42 47 0
-76 40 47 0
76 -42 -47 0
76 -40 -42 0
76 -40 -47 0
-77 36 39 0
-77 38 36 0
-77 38 39 0
77 -38 -36 0
77 -36 -39 0
77 -38 -39 0
78 -79 80 0
78 79 -80 0
-78 79 80 0
-78 -79 -80 0
79 -49 -50 0
-79 49 0
-79 50 0
-80 -81 -92 0
-80 81 92 0
80 81 -92 0
80 -81 92 0
-81 82 88 0
-81 -82 -88 0
81 -82 88 0
81 82 -88 0
-82 -83 -85 0
-82 83 85 0
82 83 -85 0
82 -83 85 0
-83 -69 -84 0
-83 69 84 0
83 69 -84 0
83 -69 84 0
84 72 -74 0
84 -72 74 0
-84 -72 -74 0
-84 72 74 0
85 -86 87 0
85 86 -87 0
-85 86 87 0
-85 -86 -87 0
86 -34 -36 0
-86 34 0
-86 36 0
-87 40 45 0
-87 43 45 0
-87 40 43 0
87 -40 -43 0
87 -43 -45 0
87 -40 -45 0
-88 89 90 0
-88 -89 -90 0
88 -89 90 0
88 89 -90 0
-89 52 56 0
-89 52 54 0
-89 54 56 0
89 -54 -56 0
89 -52 -56 0
89 -52 -54 0
-90 -60 -91 0
-90 60 91 0
90 60 -91 0
90 -60 91 0
91 62 -66 0
91 -62 66 0
-91 -62 -66 0
-91 62 66 0
92 -51 -57 0
-92 51 0
-92 57 0
-93 94 117 -135 -162 0
-93 -94 -117 -135 -162 0
-93 94 117 135 162 0
-93 -94 -117 135 162 0
93 94 -117 0
93 -94 117 0
93 135 -162 0
93 -135 162 0
94 95 -96 0
94 -95 96 0
-94 -95 -96 0
-94 95 96 0
95 -835 -840 0
-95 835 0
-95 840 0
96 -97 98 0
96 97 -98 0
-96 97 98 0
-96 -97 -98 0
97 -834 -841 0
-97 834 0
-97 841 0
-98 99 100 0
-98 -99 -100 0
98 -99 100 0
98 99 -100 0
99 -60 -61 0
-99 60 0
-99 61 0
-100 101 102 0
-100 -101 -102 0
100 -101 102 0
100 101 -102 0
101 -833 -842 0
-101 833 0
-101 842 0
-102 103 116 0
-102 -103 -116 0
102 -103 116 0
102 103 -116 0
-103 104 105 0
-103 -104 -105 0
103 -104 105 0
103 104 -105 0
104 -832 -843 0
-104 832 0
-104 843 0
-105 106 115 0
-105 -106 -115 0
105 -106 115 0
105 106 -115 0
-106 107 108 0
-106 -107 -108 0
106 -107 108 0
106 107 -108 0
107 -831 -844 0
-107 831 0
-107 844 0
-108 109 114 0
-108 -109 -114 0
108 -109 114 0
108 109 -114 0
-109 -110 -111 0
-109 110 111 0
109 110 -111 0
109 -110 111 0
110 -830 -845 0
-110 830 0
-110 845 0
111 -112 113 0
111 112 -113 0
-111 112 113 0
-111 -112 -113 0
112 -829 -846 0
-112 829 0
-112 846 0
-113 74 75 0
-113 72 74 0
-113 72 75 0
113 -72 -74 0
113 -74 -75 0
113 -72 -75 0
-114 69 71 0
-114 71 76 0
-114 69 76 0
114 -71 -76 0
114 -69 -71 0
114 -69 -76 0
-115 66 68 0
-115 68 77 0
-115 66 77 0
115 -68 -77 0
115 -66 -68 0
115 -66 -77 0
-116 62 65 0
-116 64 62 0
-116 64 65 0
116 -64 -62 0
116 -62 -65 0
116 -64 -65 0
117 -118 119 0
117 118 -119 0
-117 118 119 0
-117 -118 -119 0
118 -79 -80 0
-118 79 0
-118 80 0
-119 -120 -134 0
-119 120 134 0
119 120 -134 0
119 -120 134 0
-120 121 133 0
-120 -121 -133 0
120 -121 133 0
120 121 -133 0
-121 -122 -127 0
-121 122 127 0
121 122 -127 0
121 -122 127 0
-122 -123 -125 0
-122 123 125 0
122 123 -125 0
122 -123 125 0
-123 -97 -124 0
-123 97 124 0
123 97 -124 0
123 -97 124 0
124 101 -104 0
124 -101 104 0
-124 -101 -104 0
-124 101 104 0
125 -107 126 0
125 107 -126 0
-125 107 126 0
-125 -107 -126 0
-126 -110 -112 0
-126 110 112 0
126 110 -112 0
126 -110 112 0
127 -128 132 0
127 128 -132 0
-127 128 132 0
-127 -128 -132 0
-128 129 130 0
-128 -129 -130 0
128 -129 130 0
128 129 -130 0
-129 840 66 0
-129 834 62 0
-129 62 66 0
-129 840 62 0
-129 834 66 0
129 -62 -66 0
129 -834 -840 -66 0
129 -834 -840 -62 0
-130 95 131 0
-130 -95 -131 0
130 -95 131 0
130 95 -131 0
-131 845 72 0
-131 829 69 0
-131 69 72 0
-131 845 69 0
-131 829 72 0
131 -69 -72 0
131 -829 -845 -72 0
131 -829 -845 -69 0
-132 83 87 0
-132 83 86 0
-132 86 87 0
132 -86 -87 0
132 -83 -87 0
132 -83 -86 0
-133 82 89 0
-133 89 90 0
-133 82 90 0
133 -82 -90 0
133 -89 -90 0
133 -82 -89 0
134 -81 -92 0
-134 81 0
-134 92 0
135 136 -137 0
135 -136 137 0
-135 -136 -137 0
-135 136 137 0
136 -836 -840 0
-136 836 0
-136 840 0
137 -138 139 0
137 138 -139 0
-137 138 139 0
-137 -138 -139 0
138 -835 -841 0
-138 835 0
-138 841 0
-139 140 141 0
-139 -140 -141 0
139 -140 141 0
139 140 -141 0
140 -95 -96 0
-140 95 0
-140 96 0
-141 142 143 0
-141 -142 -143 0
141 -142 143 0
141 142 -143 0
142 -834 -842 0
-142 834 0
-142 842 0
-143 144 161 0
-143 -144 -161 0
143 -144 161 0
143 144 -161 0
-144 145 146 0
-144 -145 -146 0
144 -145 146 0
144 145 -146 0
145 -833 -843 0
-145 833 0
-145 843 0
-146 147 160 0
-146 -147 -160 0
146 -147 160 0
146 147 -160 0
-147 148 149 0
-147 -148 -149 0
147 -148 149 0
147 148 -149 0
148 -832 -844 0
-148 832 0
-148 844 0
-149 150 159 0
-149 -150 -159 0
149 -150 159 0
149 150 -159 0
-150 151 152 0
-150 -151 -152 0
150 -151 152 0
150 151 -152 0
151 -831 -845 0
-151 831 0
-151 845 0
-152 153 158 0
-152 -153 -158 0
152 -153 158 0
152 153 -158 0
-153 -154 -155 0
-153 154 155 0
153 154 -155 0
153 -154 155 0
154 -830 -846 0
-154 830 0
-154 846 0
155 -156 157 0
155 156 -157 0
-155 156 157 0
-155 -156 -157 0
156 -829 -847 0
-156 829 0
-156 847 0
-157 112 113 0
-157 110 112 0
-157 110 113 0
157 -110 -112 0
157 -112 -113 0
157 -110 -113 0
-158 107 109 0
-158 109 114 0
-158 107 114 0
158 -109 -114 0
158 -107 -109 0
158 -107 -114 0
-159 104 106 0
-159 106 115 0
-159 104 115 0
159 -106 -115 0
159 -104 -106 0
159 -104 -115 0
-160 101 103 0
-160 103 116 0
-160 101 116 0
160 -103 -116 0
160 -101 -103 0
160 -101 -116 0
-161 97 100 0
-161 99 97 0
-161 99 100 0
161 -99 -97 0
161 -97 -100 0
161 -99 -100 0
162 -163 164 0
162 163 -164 0
-162 163 164 0
-162 -163 -164 0
163 -118 -119 0
-163 118 0
-163 119 0
-164 -165 -184 0
-164 165 184 0
164 165 -184 0
164 -165 184 0
-165 -166 -183 0
-165 166 183 0
165 166 -183 0
165 -166 183 0
-166 -167 -177 0
-166 167 177 0
166 167 -177 0
166 -167 177 0
-167 -168 -174 0
-167 168 174 0
167 168 -174 0
167 -168 174 0
-168 -169 -171 0
-168 169 171 0
168 169 -171 0
168 -169 171 0
-169 -151 -170 0
-169 151 170 0
169 151 -170 0
169 -151 170 0
170 154 -156 0
170 -154 156 0
-170 -154 -156 0
-170 154 156 0
171 -172 173 0
171 172 -173 0
-171 172 173 0
-171 -172 -173 0
-172 97 104 0
-172 101 104 0
-172 97 101 0
172 -97 -101 0
172 -101 -104 0
172 -97 -104 0
-173 107 112 0
-173 110 112 0
-173 107 110 0
173 -107 -110 0
173 -110 -112 0
173 -107 -112 0
174 -175 176 0
174 175 -176 0
-174 175 176 0
-174 -175 -176 0
175 -123 -125 0
-175 123 0
-175 125 0
-176 95 129 0
-176 129 131 0
-176 95 131 0
176 -129 -131 0
176 -95 -129 0
176 -95 -131 0
177 178 -179 0
177 -178 179 0
-177 -178 -179 0
-177 178 179 0
-178 122 128 0
-178 128 132 0
-178 122 132 0
178 -122 -132 0
178 -128 -132 0
178 -122 -128 0
179 -180 181 0
179 180 -181 0
-179 180 181 0
-179 -180 -181 0
180 136 -138 0
180 -136 138 0
-180 -136 -138 0
-180 136 138 0
-181 -142 -182 0
-181 142 182 0
181 142 -182 0
181 -142 182 0
182 145 -148 0
182 -145 148 0
-182 -145 -148 0
-182 145 148 0
183 -121 -133 0
-183 121 0
-183 133 0
184 -120 -134 0
-184 120 0
-184 134 0
-185 -186 -217 244 0
-185 186 217 244 0
185 -244 0
185 -186 217 0
185 186 -217 0
186 187 -188 0
186 -187 188 0
-186 -187 -188 0
-186 187 188 0
187 -837 -840 0
-187 837 0
-187 840 0
188 -189 190 0
188 189 -190 0
-188 189 190 0
-188 -189 -190 0
189 -836 -841 0
-189 836 0
-189 841 0
-190 191 192 0
-190 -191 -192 0
190 -191 192 0
190 191 -192 0
191 -136 -137 0
-191 136 0
-191 137 0
-192 193 194 0
-192 -193 -194 0
192 -193 194 0
192 193 -194 0
193 -835 -842 0
-193 835 0
-193 842 0
-194 195 216 0
-194 -195 -216 0
194 -195 216 0
194 195 -216 0
-195 196 197 0
-195 -196 -197 0
195 -196 197 0
195 196 -197 0
196 -834 -843 0
-196 834 0
-196 843 0
-197 198 215 0
-197 -198 -215 0
197 -198 215 0
197 198 -215 0
-198 199 200 0
-198 -199 -200 0
198 -199 200 0
198 199 -200 0
199 -833 -844 0
-199 833 0
-199 844 0
-200 201 214 0
-200 -201 -214 0
200 -201 214 0
200 201 -214 0
-201 202 203 0
-201 -202 -203 0
201 -202 203 0
201 202 -203 0
202 -832 -845 0
-202 832 0
-202 845 0
-203 204 213 0
-203 -204 -213 0
203 -204 213 0
203 204 -213 0
-204 205 206 0
-204 -205 -206 0
204 -205 206 0
204 205 -206 0
205 -831 -846 0
-205 831 0
-205 846 0
-206 207 212 0
-206 -207 -212 0
206 -207 212 0
206 207 -212 0
-207 -208 -209 0
-207 208 209 0
207 208 -209 0
207 -208 209 0
208 -830 -847 0
-208 830 0
-208 847 0
209 -210 211 0
209 210 -211 0
-209 210 211 0
-209 -210 -211 0
210 -829 -848 0
-210 829 0
-210 848 0
-211 156 157 0
-211 154 156 0
-211 154 157 0
211 -154 -156 0
211 -156 -157 0
211 -154 -157 0
-212 151 153 0
-212 153 158 0
-212 151 158 0
212 -153 -158 0
212 -151 -153 0
212 -151 -158 0
-213 148 150 0
-213 150 159 0
-213 148 159 0
213 -150 -159 0
213 -148 -150 0
213 -148 -159 0
-214 145 147 0
-214 147 160 0
-214 145 160 0
214 -147 -160 0
214 -145 -147 0
214 -145 -160 0
-215 142 144 0
-215 144 161 0
-215 142 161 0
215 -144 -161 0
215 -142 -144 0
215 -142 -161 0
-216 138 141 0
-216 140 138 0
-216 140 141 0
216 -140 -138 0
216 -138 -141 0
216 -140 -141 0
217 -218 220 0
217 218 -220 0
-217 218 220 0
-217 -218 -220 0
-218 219 0
218 -219 0
-219 165 0
-219 163 184 0
219 -163 -165 0
219 -165 -184 0
-220 -221 -243 0
-220 221 243 0
220 221 -243 0
220 -221 243 0
-221 222 242 0
-221 -222 -242 0
221 -222 242 0
221 222 -242 0
-222 -223 -232 0
-222 223 232 0
222 223 -232 0
222 -223 232 0
-223 -224 -229 0
-223 224 229 0
223 224 -229 0
223 -224 229 0
-224 225 226 0
-224 -225 -226 0
224 -225 226 0
224 225 -226 0
225 -136 -138 0
-225 136 0
-225 138 0
-226 227 228 0
-226 -227 -228 0
226 -227 228 0
226 227 -228 0
-227 142 148 0
-227 145 148 0
-227 142 145 0
227 -142 -145 0
227 -145 -148 0
227 -142 -148 0
-228 847 154 0
-228 829 151 0
-228 151 154 0
-228 847 151 0
-228 829 154 0
228 -151 -154 0
228 -829 -847 -154 0
228 -829 -847 -151 0
229 -230 231 0
229 230 -231 0
-229 230 231 0
-229 -230 -231 0
230 -180 -181 0
-230 180 0
-230 181 0
-231 169 172 0
-231 172 173 0
-231 169 173 0
231 -169 -173 0
231 -172 -173 0
231 -169 -172 0
232 233 -234 0
232 -233 234 0
-232 -233 -234 0
-232 233 234 0
-233 168 176 0
-233 168 175 0
-233 175 176 0
233 -175 -176 0
233 -168 -176 0
233 -168 -175 0
234 235 -237 0
234 -235 237 0
-234 -235 -237 0
-234 235 237 0
-235 -187 -236 0
-235 187 236 0
235 187 -236 0
235 -187 236 0
236 189 -193 0
236 -189 193 0
-236 -189 -193 0
-236 189 193 0
237 -238 240 0
237 238 -240 0
-237 238 240 0
-237 -238 -240 0
-238 -196 -239 0
-238 196 239 0
238 196 -239 0
238 -196 239 0
239 199 -202 0
239 -199 202 0
-239 -199 -202 0
-239 199 202 0
-240 -205 -241 0
-240 205 241 0
240 205 -241 0
240 -205 241 0
241 208 -210 0
241 -208 210 0
-241 -208 -210 0
-241 208 210 0
-242 167 178 0
-242 178 179 0
-242 167 179 0
242 -178 -179 0
242 -167 -178 0
242 -167 -179 0
243 -166 -183 0
-243 166 0
-243 183 0
-244 245 280 -307 -346 0
-244 -245 -280 -307 -346 0
-244 245 280 307 346 0
-244 -245 -280 307 346 0
244 245 -280 0
244 -245 280 0
244 307 -346 0
244 -307 346 0
245 246 -247 0
245 -246 247 0
-245 -246 -247 0
-245 246 247 0
246 -838 -840 0
-246 838 0
-246 840 0
247 -248 249 0
247 248 -249 0
-247 248 249 0
-247 -248 -249 0
248 -837 -841 0
-248 837 0
-248 841 0
-249 250 251 0
-249 -250 -251 0
249 -250 251 0
249 250 -251 0
250 -187 -188 0
-250 187 0
-250 188 0
-251 252 253 0
-251 -252 -253 0
251 -252 253 0
251 252 -253 0
252 -836 -842 0
-252 836 0
-252 842 0
-253 254 279 0
-253 -254 -279 0
253 -254 279 0
253 254 -279 0
-254 255 256 0
-254 -255 -256 0
254 -255 256 0
254 255 -256 0
255 -835 -843 0
-255 835 0
-255 843 0
-256 257 278 0
-256 -257 -278 0
256 -257 278 0
256 257 -278 0
-257 258 259 0
-257 -258 -259 0
257 -258 259 0
257 258 -259 0
258 -834 -844 0
-258 834 0
-258 844 0
-259 260 277 0
-259 -260 -277 0
259 -260 277 0
259 260 -277 0
-260 261 262 0
-260 -261 -262 0
260 -261 262 0
260 261 -262 0
261 -833 -845 0
-261 833 0
-261 845 0
-262 263 276 0
-262 -263 -276 0
262 -263 276 0
262 263 -276 0
-263 264 265 0
-263 -264 -265 0
263 -264 265 0
263 264 -265 0
264 -832 -846 0
-264 832 0
-264 846 0
-265 266 275 0
-265 -266 -275 0
265 -266 275 0
265 266 -275 0
-266 267 268 0
-266 -267 -268 0
266 -267 268 0
266 267 -268 0
267 -831 -847 0
-267 831 0
-267 847 0
-268 269 274 0
-268 -269 -274 0
268 -269 274 0
268 269 -274 0
-269 -270 -271 0
-269 270 271 0
269 270 -271 0
269 -270 271 0
270 -830 -848 0
-270 830 0
-270 848 0
271 -272 273 0
271 272 -273 0
-271 272 273 0
-271 -272 -273 0
272 -829 -849 0
-272 829 0
-272 849 0
-273 210 211 0
-273 208 210 0
-273 208 211 0
273 -208 -210 0
273 -210 -211 0
273 -208 -211 0
-274 205 207 0
-274 207 212 0
-274 205 212 0
274 -207 -212 0
274 -205 -207 0
274 -205 -212 0
-275 202 204 0
-275 204 213 0
-275 202 213 0
275 -204 -213 0
275 -202 -204 0
275 -202 -213 0
-276 199 201 0
-276 201 214 0
-276 199 214 0
276 -201 -214 0
276 -199 -201 0
276 -199 -214 0
-277 196 198 0
-277 198 215 0
-277 196 215 0
277 -198 -215 0
277 -196 -198 0
277 -196 -215 0
-278 193 195 0
-278 195 216 0
-278 193 216 0
278 -195 -216 0
278 -193 -195 0
278 -193 -216 0
-279 189 192 0
-279 191 189 0
-279 191 192 0
279 -191 -189 0
279 -189 -192 0
279 -191 -192 0
280 -281 282 0
280 281 -282 0
-280 281 282 0
-280 -281 -282 0
-281 218 221 0
-281 221 243 0
-281 218 243 0
281 -221 -243 0
281 -218 -221 0
281 -218 -243 0
-282 -283 -306 0
-282 283 306 0
282 283 -306 0
282 -283 306 0
283 -284 305 0
283 284 -305 0
-283 284 305 0
-283 -284 -305 0
-284 -285 -297 0
-284 285 297 0
284 285 -297 0
284 -285 297 0
-285 -286 -293 0
-285 286 293 0
285 286 -293 0
285 -286 293 0
-286 -287 -289 0
-286 287 289 0
286 287 -289 0
286 -287 289 0
-287 -258 -288 0
-287 258 288 0
287 258 -288 0
287 -258 288 0
288 261 -264 0
288 -261 264 0
-288 -261 -264 0
-288 261 264 0
289 -290 292 0
289 290 -292 0
-289 290 292 0
-289 -290 -292 0
-290 -267 -291 0
-290 267 291 0
290 267 -291 0
290 -267 291 0
291 270 -272 0
291 -270 272 0
-291 -270 -272 0
-291 270 272 0
-292 840 193 0
-292 837 189 0
-292 189 193 0
-292 840 189 0
-292 837 193 0
292 -189 -193 0
292 -837 -840 -193 0
292 -837 -840 -189 0
293 -294 295 0
293 294 -295 0
-293 294 295 0
-293 -294 -295 0
-294 196 202 0
-294 199 202 0
-294 196 199 0
294 -196 -199 0
294 -199 -202 0
294 -196 -202 0
-295 246 296 0
-295 -246 -296 0
295 -246 296 0
295 246 -296 0
-296 205 210 0
-296 208 210 0
-296 205 208 0
296 -205 -208 0
296 -208 -210 0
296 -205 -210 0
297 -298 304 0
297 298 -304 0
-297 298 304 0
-297 -298 -304 0
298 -299 300 0
298 299 -300 0
-298 299 300 0
-298 -299 -300 0
-299 235 238 0
-299 238 240 0
-299 235 240 0
299 -235 -240 0
299 -238 -240 0
299 -235 -238 0
-300 -301 -302 0
-300 301 302 0
300 301 -302 0
300 -301 302 0
-301 225 227 0
-301 227 228 0
-301 225 228 0
301 -227 -228 0
301 -225 -227 0
301 -225 -228 0
302 248 -303 0
302 -248 303 0
-302 -248 -303 0
-302 248 303 0
303 252 -255 0
303 -252 255 0
-303 -252 -255 0
-303 252 255 0
-304 230 224 0
-304 224 231 0
-304 230 231 0
304 -224 -231 0
304 -230 -224 0
304 -230 -231 0
-305 223 233 0
-305 233 234 0
-305 223 234 0
305 -233 -234 0
305 -223 -233 0
305 -223 -234 0
306 -222 -242 0
-306 222 0
-306 242 0
307 308 -309 0
307 -308 309 0
-307 -308 -309 0
-307 308 309 0
308 -839 -840 0
-308 839 0
-308 840 0
309 310 -311 0
309 -310 311 0
-309 -310 -311 0
-309 310 311 0
310 -838 -841 0
-310 838 0
-310 841 0
311 312 -313 0
311 -312 313 0
-311 -312 -313 0
-311 312 313 0
312 -246 -247 0
-312 246 0
-312 247 0
313 -314 315 0
313 314 -315 0
-313 314 315 0
-313 -314 -315 0
314 -837 -842 0
-314 837 0
-314 842 0
-315 316 345 0
-315 -316 -345 0
315 -316 345 0
315 316 -345 0
-316 317 318 0
-316 -317 -318 0
316 -317 318 0
316 317 -318 0
317 -836 -843 0
-317 836 0
-317 843 0
-318 319 344 0
-318 -319 -344 0
318 -319 344 0
318 319 -344 0
-319 320 321 0
-319 -320 -321 0
319 -320 321 0
319 320 -321 0
320 -835 -844 0
-320 835 0
-320 844 0
-321 322 343 0
-321 -322 -343 0
321 -322 343 0
321 322 -343 0
-322 323 324 0
-322 -323 -324 0
322 -323 324 0
322 323 -324 0
323 -834 -845 0
-323 834 0
-323 845 0
-324 325 342 0
-324 -325 -342 0
324 -325 342 0
324 325 -342 0
-325 326 327 0
-325 -326 -327 0
325 -326 327 0
325 326 -327 0
326 -833 -846 0
-326 833 0
-326 846 0
-327 328 341 0
-327 -328 -341 0
327 -328 341 0
327 328 -341 0
-328 329 330 0
-328 -329 -330 0
328 -329 330 0
328 329 -330 0
329 -832 -847 0
-329 832 0
-329 847 0
-330 331 340 0
-330 -331 -340 0
330 -331 340 0
330 331 -340 0
-331 332 333 0
-331 -332 -333 0
331 -332 333 0
331 332 -333 0
332 -831 -848 0
-332 831 0
-332 848 0
-333 334 339 0
-333 -334 -339 0
333 -334 339 0
333 334 -339 0
-334 -335 -336 0
-334 335 336 0
334 335 -336 0
334 -335 336 0
335 -830 -849 0
-335 830 0
-335 849 0
336 -337 338 0
336 337 -338 0
-336 337 338 0
-336 -337 -338 0
337 -829 -850 0
-337 829 0
-337 850 0
-338 272 273 0
-338 270 272 0
-338 270 273 0
338 -270 -272 0
338 -272 -273 0
338 -270 -273 0
-339 267 269 0
-339 269 274 0
-339 267 274 0
339 -269 -274 0
339 -267 -269 0
339 -267 -274 0
-340 264 266 0
-340 266 275 0
-340 264 275 0
340 -266 -275 0
340 -264 -266 0
340 -264 -275 0
-341 261 263 0
-341 263 276 0
-341 261 276 0
341 -263 -276 0
341 -261 -263 0
341 -261 -276 0
-342 258 260 0
-342 260 277 0
-342 258 277 0
342 -260 -277 0
342 -258 -260 0
342 -258 -277 0
-343 255 257 0
-343 257 278 0
-343 255 278 0
343 -257 -278 0
343 -255 -257 0
343 -255 -278 0
-344 252 254 0
-344 254 279 0
-344 252 279 0
344 -254 -279 0
344 -252 -254 0
344 -252 -279 0
-345 248 251 0
-345 250 248 0
-345 250 251 0
345 -250 -248 0
345 -248 -251 0
345 -250 -251 0
346 -347 348 0
346 347 -348 0
-346 347 348 0
-346 -347 -348 0
-347 283 306 0
-347 281 283 0
-347 281 306 0
347 -281 -283 0
347 -283 -306 0
347 -281 -306 0
-348 -349 -350 0
-348 349 350 0
348 349 -350 0
348 -349 350 0
349 -284 -305 0
-349 284 0
-349 305 0
350 -351 360 0
350 351 -360 0
-350 351 360 0
-350 -351 -360 0
-351 -352 -357 0
-351 352 357 0
351 352 -357 0
351 -352 357 0
-352 -353 -354 0
-352 353 354 0
352 353 -354 0
352 -353 354 0
-353 287 290 0
-353 290 292 0
-353 287 292 0
353 -287 -292 0
353 -290 -292 0
353 -287 -290 0
354 355 -356 0
354 -355 356 0
-354 -355 -356 0
-354 355 356 0
-355 246 294 0
-355 294 296 0
-355 246 296 0
355 -294 -296 0
355 -246 -294 0
355 -246 -296 0
356 308 -310 0
356 -308 310 0
-356 -308 -310 0
-356 308 310 0
357 -358 359 0
357 358 -359 0
-357 358 359 0
-357 -358 -359 0
358 -286 -293 0
-358 286 0
-358 293 0
-359 299 301 0
-359 301 302 0
-359 299 302 0
359 -301 -302 0
359 -299 -301 0
359 -299 -302 0
-360 -361 -362 0
-360 361 362 0
360 361 -362 0
360 -361 362 0
-361 285 304 0
-361 285 298 0
-361 298 304 0
361 -298 -304 0
361 -285 -304 0
361 -285 -298 0
362 363 -371 0
362 -363 371 0
-362 -363 -371 0
-362 363 371 0
-363 -364 -366 0
-363 364 366 0
363 364 -366 0
363 -364 366 0
-364 -314 -365 0
-364 314 365 0
364 314 -365 0
364 -314 365 0
365 317 -320 0
365 -317 320 0
-365 -317 -320 0
-365 317 320 0
366 -367 369 0
366 367 -369 0
-366 367 369 0
-366 -367 -369 0
-367 -323 -368 0
-367 323 368 0
367 323 -368 0
367 -323 368 0
368 326 -329 0
368 -326 329 0
-368 -326 -329 0
-368 326 329 0
-369 -332 -370 0
-369 332 370 0
369 332 -370 0
369 -332 370 0
370 335 -337 0
370 -335 337 0
-370 -335 -337 0
-370 335 337 0
371 -372 373 0
371 372 -373 0
-371 372 373 0
-371 -372 -373 0
-372 842 255 0
-372 836 248 0
-372 248 255 0
-372 842 248 0
-372 836 255 0
372 -248 -255 0
372 -836 -842 -255 0
372 -836 -842 -248 0
-373 374 375 0
-373 -374 -375 0
373 -374 375 0
373 374 -375 0
-374 845 264 0
-374 833 258 0
-374 258 264 0
-374 845 258 0
-374 833 264 0
374 -258 -264 0
374 -833 -845 -264 0
374 -833 -845 -258 0
-375 849 270 0
-375 829 267 0
-375 267 270 0
-375 849 267 0
-375 829 270 0
375 -267 -270 0
375 -829 -849 -270 0
375 -829 -849 -267 0
-376 377 515 548 575 0
-376 377 -515 -548 575 0
376 -575 0
376 -515 548 0
376 -377 0
376 515 -548 0
-377 378 417 -448 -485 0
-377 -378 -417 -448 -485 0
-377 378 417 448 485 0
-377 -378 -417 448 485 0
377 378 -417 0
377 -378 417 0
377 448 -485 0
377 -448 485 0
378 -379 380 0
378 379 -380 0
-378 379 380 0
-378 -379 -380 0
379 -839 -841 0
-379 839 0
-379 841 0
-380 381 382 0
-380 -381 -382 0
380 -381 382 0
380 381 -382 0
381 -838 -842 0
-381 838 0
-381 842 0
-382 383 384 0
-382 -383 -384 0
382 -383 384 0
382 383 -384 0
383 -308 -309 0
-383 308 0
-383 309 0
-384 385 386 0
-384 -385 -386 0
384 -385 386 0
384 385 -386 0
385 -837 -843 0
-385 837 0
-385 843 0
-386 387 416 0
-386 -387 -416 0
386 -387 416 0
386 387 -416 0
-387 388 389 0
-387 -388 -389 0
387 -388 389 0
387 388 -389 0
388 -836 -844 0
-388 836 0
-388 844 0
-389 390 415 0
-389 -390 -415 0
389 -390 415 0
389 390 -415 0
-390 391 392 0
-390 -391 -392 0
390 -391 392 0
390 391 -392 0
391 -835 -845 0
-391 835 0
-391 845 0
-392 393 414 0
-392 -393 -414 0
392 -393 414 0
392 393 -414 0
-393 394 395 0
-393 -394 -395 0
393 -394 395 0
393 394 -395 0
394 -834 -846 0
-394 834 0
-394 846 0
-395 396 413 0
-395 -396 -413 0
395 -396 413 0
395 396 -413 0
-396 397 398 0
-396 -397 -398 0
396 -397 398 0
396 397 -398 0
397 -833 -847 0
-397 833 0
-397 847 0
-398 399 412 0
-398 -399 -412 0
398 -399 412 0
398 399 -412 0
-399 400 401 0
-399 -400 -401 0
399 -400 401 0
399 400 -401 0
400 -832 -848 0
-400 832 0
-400 848 0
-401 402 411 0
-401 -402 -411 0
401 -402 411 0
401 402 -411 0
-402 403 404 0
-402 -403 -404 0
402 -403 404 0
402 403 -404 0
403 -831 -849 0
-403 831 0
-403 849 0
-404 405 410 0
-404 -405 -410 0
404 -405 410 0
404 405 -410 0
-405 406 407 0
-405 -406 -407 0
405 -406 407 0
405 406 -407 0
406 -830 -850 0
-406 830 0
-406 850 0
-407 408 409 0
-407 -408 -409 0
407 -408 409 0
407 408 -409 0
-408 337 338 0
-408 335 337 0
-408 335 338 0
408 -335 -337 0
408 -337 -338 0
408 -335 -338 0
-409 332 334 0
-409 334 339 0
-409 332 339 0
409 -334 -339 0
409 -332 -334 0
409 -332 -339 0
-410 329 331 0
-410 331 340 0
-410 329 340 0
410 -331 -340 0
410 -329 -331 0
410 -329 -340 0
-411 326 328 0
-411 328 341 0
-411 326 341 0
411 -328 -341 0
411 -326 -328 0
411 -326 -341 0
-412 323 325 0
-412 325 342 0
-412 323 342 0
412 -325 -342 0
412 -323 -325 0
412 -323 -342 0
-413 320 322 0
-413 322 343 0
-413 320 343 0
413 -322 -343 0
413 -320 -322 0
413 -320 -343 0
-414 317 319 0
-414 319 344 0
-414 317 344 0
414 -319 -344 0
414 -317 -319 0
414 -317 -344 0
-415 314 316 0
-415 316 345 0
-415 314 345 0
415 -316 -345 0
415 -314 -316 0
415 -314 -345 0
-416 312 313 0
-416 310 313 0
-416 312 310 0
416 -312 -310 0
416 -310 -313 0
416 -312 -313 0
417 -418 419 0
417 418 -419 0
-417 418 419 0
-417 -418 -419 0
-418 347 350 0
-418 349 350 0
-418 349 347 0
418 -349 -350 0
418 -349 -347 0
418 -347 -350 0
-419 420 447 0
-419 -420 -447 0
419 -420 447 0
419 420 -447 0
420 -421 433 0
420 421 -433 0
-420 421 433 0
-420 -421 -433 0
-421 -422 -430 0
-421 422 430 0
421 422 -430 0
421 -422 430 0
-422 -423 -427 0
-422 423 427 0
422 423 -427 0
422 -423 427 0
-423 424 425 0
-423 -424 -425 0
423 -424 425 0
423 424 -425 0
-424 323 329 0
-424 326 329 0
-424 323 326 0
424 -323 -326 0
424 -326 -329 0
424 -323 -329 0
-425 379 426 0
-425 -379 -426 0
425 -379 426 0
425 379 -426 0
-426 332 337 0
-426 335 337 0
-426 332 335 0
426 -332 -335 0
426 -335 -337 0
426 -332 -337 0
427 -428 429 0
427 428 -429 0
-427 428 429 0
-427 -428 -429 0
-428 364 367 0
-428 367 369 0
-428 364 369 0
428 -364 -369 0
428 -367 -369 0
428 -364 -367 0
-429 372 374 0
-429 374 375 0
-429 372 375 0
429 -372 -375 0
429 -374 -375 0
429 -372 -374 0
430 -431 432 0
430 431 -432 0
-430 431 432 0
-430 -431 -432 0
431 -363 -371 0
-431 363 0
-431 371 0
-432 353 355 0
-432 355 356 0
-432 353 356 0
432 -355 -356 0
432 -353 -355 0
432 -353 -356 0
-433 -434 -435 0
-433 434 435 0
433 434 -435 0
433 -434 435 0
-434 352 359 0
-434 352 358 0
-434 358 359 0
434 -358 -359 0
434 -352 -359 0
434 -352 -358 0
435 436 -441 0
435 -436 441 0
-435 -436 -441 0
-435 436 441 0
436 -437 439 0
436 437 -439 0
-436 437 439 0
-436 -437 -439 0
-437 -381 -438 0
-437 381 438 0
437 381 -438 0
437 -381 438 0
438 385 -388 0
438 -385 388 0
-438 -385 -388 0
-438 385 388 0
-439 -391 -440 0
-439 391 440 0
439 391 -440 0
439 -391 440 0
440 394 -397 0
440 -394 397 0
-440 -394 -397 0
-440 394 397 0
441 442 -444 0
441 -442 444 0
-441 -442 -444 0
-441 442 444 0
-442 -400 -443 0
-442 400 443 0
442 400 -443 0
442 -400 443 0
443 403 -406 0
443 -403 406 0
-443 -403 -406 0
-443 403 406 0
444 -445 446 0
444 445 -446 0
-444 445 446 0
-444 -445 -446 0
445 -308 -310 0
-445 308 0
-445 310 0
-446 843 320 0
-446 836 314 0
-446 314 320 0
-446 843 314 0
-446 836 320 0
446 -314 -320 0
446 -836 -843 -320 0
446 -836 -843 -314 0
-447 351 361 0
-447 361 362 0
-447 351 362 0
447 -361 -362 0
447 -351 -361 0
447 -351 -362 0
448 449 -450 0
448 -449 450 0
-448 -449 -450 0
-448 449 450 0
449 -379 -380 0
-449 379 0
-449 380 0
450 451 -452 0
450 -451 452 0
-450 -451 -452 0
-450 451 452 0
451 -839 -842 0
-451 839 0
-451 842 0
452 -453 454 0
452 453 -454 0
-452 453 454 0
-452 -453 -454 0
453 -838 -843 0
-453 838 0
-453 843 0
-454 455 484 0
-454 -455 -484 0
454 -455 484 0
454 455 -484 0
-455 456 457 0
-455 -456 -457 0
455 -456 457 0
455 456 -457 0
456 -837 -844 0
-456 837 0
-456 844 0
-457 458 483 0
-457 -458 -483 0
457 -458 483 0
457 458 -483 0
-458 459 460 0
-458 -459 -460 0
458 -459 460 0
458 459 -460 0
459 -836 -845 0
-459 836 0
-459 845 0
-460 461 482 0
-460 -461 -482 0
460 -461 482 0
460 461 -482 0
-461 462 463 0
-461 -462 -463 0
461 -462 463 0
461 462 -463 0
462 -835 -846 0
-462 835 0
-462 846 0
-463 464 481 0
-463 -464 -481 0
463 -464 481 0
463 464 -481 0
-464 465 466 0
-464 -465 -466 0
464 -465 466 0
464 465 -466 0
465 -834 -847 0
-465 834 0
-465 847 0
-466 467 480 0
-466 -467 -480 0
466 -467 480 0
466 467 -480 0
-467 468 469 0
-467 -468 -469 0
467 -468 469 0
467 468 -469 0
468 -833 -848 0
-468 833 0
-468 848 0
-469 470 479 0
-469 -470 -479 0
469 -470 479 0
469 470 -479 0
-470 471 472 0
-470 -471 -472 0
470 -471 472 0
470 471 -472 0
471 -832 -849 0
-471 832 0
-471 849 0
-472 473 478 0
-472 -473 -478 0
472 -473 478 0
472 473 -478 0
-473 474 475 0
-473 -474 -475 0
473 -474 475 0
473 474 -475 0
474 -831 -850 0
-474 831 0
-474 850 0
-475 476 477 0
-475 -476 -477 0
475 -476 477 0
475 476 -477 0
-476 406 408 0
-476 408 409 0
-476 406 409 0
476 -408 -409 0
476 -406 -408 0
476 -406 -409 0
-477 403 405 0
-477 405 410 0
-477 403 410 0
477 -405 -410 0
477 -403 -405 0
477 -403 -410 0
-478 400 402 0
-478 402 411 0
-478 400 411 0
478 -402 -411 0
478 -400 -402 0
478 -400 -411 0
-479 397 399 0
-479 399 412 0
-479 397 412 0
479 -399 -412 0
479 -397 -399 0
479 -397 -412 0
-480 394 396 0
-480 396 413 0
-480 394 413 0
480 -396 -413 0
480 -394 -396 0
480 -394 -413 0
-481 391 393 0
-481 393 414 0
-481 391 414 0
481 -393 -414 0
481 -391 -393 0
481 -391 -414 0
-482 388 390 0
-482 390 415 0
-482 388 415 0
482 -390 -415 0
482 -388 -390 0
482 -388 -415 0
-483 385 387 0
-483 387 416 0
-483 385 416 0
483 -387 -416 0
483 -385 -387 0
483 -385 -416 0
-484 381 384 0
-484 383 381 0
-484 383 384 0
484 -383 -381 0
484 -381 -384 0
484 -383 -384 0
485 -486 487 0
485 486 -487 0
-485 486 487 0
-485 -486 -487 0
-486 418 447 0
-486 418 420 0
-486 420 447 0
486 -420 -447 0
486 -418 -447 0
486 -418 -420 0
-487 488 514 0
-487 -488 -514 0
487 -488 514 0
487 488 -514 0
488 -489 498 0
488 489 -498 0
-488 489 498 0
-488 -489 -498 0
-489 -490 -495 0
-489 490 495 0
489 490 -495 0
489 -490 495 0
-490 491 492 0
-490 -491 -492 0
490 -491 492 0
490 491 -492 0
491 -437 -439 0
-491 437 0
-491 439 0
-492 493 494 0
-492 -493 -494 0
492 -493 494 0
492 493 -494 0
-493 445 442 0
-493 442 446 0
-493 445 446 0
493 -442 -446 0
493 -445 -442 0
493 -445 -446 0
-494 379 424 0
-494 424 426 0
-494 379 426 0
494 -424 -426 0
494 -379 -424 0
494 -379 -426 0
495 -496 497 0
495 496 -497 0
-495 496 497 0
-495 -496 -497 0
496 -436 -441 0
-496 436 0
-496 441 0
-497 423 428 0
-497 428 429 0
-497 423 429 0
497 -423 -429 0
497 -428 -429 0
497 -423 -428 0
-498 -499 -500 0
-498 499 500 0
498 499 -500 0
498 -499 500 0
-499 431 422 0
-499 422 432 0
-499 431 432 0
499 -422 -432 0
499 -431 -422 0
499 -431 -432 0
500 501 -509 0
500 -501 509 0
-500 -501 -509 0
-500 501 509 0
-501 -502 -504 0
-501 502 504 0
501 502 -504 0
501 -502 504 0
-502 -451 -503 0
-502 451 503 0
502 451 -503 0
502 -451 503 0
503 453 -456 0
503 -453 456 0
-503 -453 -456 0
-503 453 456 0
504 -505 507 0
504 505 -507 0
-504 505 507 0
-504 -505 -507 0
-505 -459 -506 0
-505 459 506 0
505 459 -506 0
505 -459 506 0
506 462 -465 0
506 -462 465 0
-506 -462 -465 0
-506 462 465 0
-507 -468 -508 0
-507 468 508 0
507 468 -508 0
507 -468 508 0
508 471 -474 0
508 -471 474 0
-508 -471 -474 0
-508 471 474 0
509 -510 511 0
509 510 -511 0
-509 510 511 0
-509 -510 -511 0
-510 381 388 0
-510 385 388 0
-510 381 385 0
510 -381 -385 0
510 -385 -388 0
510 -381 -388 0
-511 512 513 0
-511 -512 -513 0
511 -512 513 0
511 512 -513 0
-512 846 397 0
-512 834 391 0
-512 391 397 0
-512 846 391 0
-512 834 397 0
512 -391 -397 0
512 -834 -846 -397 0
512 -834 -846 -391 0
-513 400 406 0
-513 403 406 0
-513 400 403 0
513 -400 -403 0
513 -403 -406 0
513 -400 -406 0
-514 421 434 0
-514 434 435 0
-514 421 435 0
514 -434 -435 0
514 -421 -434 0
514 -421 -435 0
515 516 -517 0
515 -516 517 0
-515 -516 -517 0
-515 516 517 0
-516 842 452 0
-516 839 449 0
-516 449 452 0
-516 842 449 0
-516 839 452 0
516 -449 -452 0
516 -839 -842 -452 0
516 -839 -842 -449 0
517 518 -519 0
517 -518 519 0
-517 -518 -519 0
-517 518 519 0
518 -839 -843 0
-518 839 0
-518 843 0
519 -520 521 0
519 520 -521 0
-519 520 521 0
-519 -520 -521 0
520 -838 -844 0
-520 838 0
-520 844 0
-521 522 547 0
-521 -522 -547 0
521 -522 547 0
521 522 -547 0
-522 523 524 0
-522 -523 -524 0
522 -523 524 0
522 523 -524 0
523 -837 -845 0
-523 837 0
-523 845 0
-524 525 546 0
-524 -525 -546 0
524 -525 546 0
524 525 -546 0
-525 526 527 0
-525 -526 -527 0
525 -526 527 0
525 526 -527 0
526 -836 -846 0
-526 836 0
-526 846 0
-527 528 545 0
-527 -528 -545 0
527 -528 545 0
527 528 -545 0
-528 529 530 0
-528 -529 -530 0
528 -529 530 0
528 529 -530 0
529 -835 -847 0
-529 835 0
-529 847 0
-530 531 544 0
-530 -531 -544 0
530 -531 544 0
530 531 -544 0
-531 532 533 0
-531 -532 -533 0
531 -532 533 0
531 532 -533 0
532 -834 -848 0
-532 834 0
-532 848 0
-533 534 543 0
-533 -534 -543 0
533 -534 543 0
533 534 -543 0
-534 535 536 0
-534 -535 -536 0
534 -535 536 0
534 535 -536 0
535 -833 -849 0
-535 833 0
-535 849 0
-536 537 542 0
-536 -537 -542 0
536 -537 542 0
536 537 -542 0
-537 538 539 0
-537 -538 -539 0
537 -538 539 0
537 538 -539 0
538 -832 -850 0
-538 832 0
-538 850 0
-539 540 541 0
-539 -540 -541 0
539 -540 541 0
539 540 -541 0
-540 474 476 0
-540 476 477 0
-540 474 477 0
540 -476 -477 0
540 -474 -476 0
540 -474 -477 0
-541 471 473 0
-541 473 478 0
-541 471 478 0
541 -473 -478 0
541 -471 -473 0
541 -471 -478 0
-542 468 470 0
-542 470 479 0
-542 468 479 0
542 -470 -479 0
542 -468 -470 0
542 -468 -479 0
-543 465 467 0
-543 467 480 0
-543 465 480 0
543 -467 -480 0
543 -465 -467 0
543 -465 -480 0
-544 462 464 0
-544 464 481 0
-544 462 481 0
544 -464 -481 0
544 -462 -464 0
544 -462 -481 0
-545 459 461 0
-545 461 482 0
-545 459 482 0
545 -461 -482 0
545 -459 -461 0
545 -459 -482 0
-546 456 458 0
-546 458 483 0
-546 456 483 0
546 -458 -483 0
546 -456 -458 0
546 -456 -483 0
-547 453 455 0
-547 455 484 0
-547 453 484 0
547 -455 -484 0
547 -453 -455 0
547 -453 -484 0
548 -549 550 0
548 549 -550 0
-548 549 550 0
-548 -549 -550 0
-549 486 514 0
-549 486 488 0
-549 488 514 0
549 -488 -514 0
549 -486 -514 0
549 -486 -488 0
-550 551 574 0
-550 -551 -574 0
550 -551 574 0
550 551 -574 0
551 -552 563 0
551 552 -563 0
-551 552 563 0
-551 -552 -563 0
-552 553 554 0
-552 -553 -554 0
552 -553 554 0
552 553 -554 0
553 -501 -509 0
-553 501 0
-553 509 0
-554 -555 -556 0
-554 555 556 0
554 555 -556 0
554 -555 556 0
-555 491 493 0
-555 493 494 0
-555 491 494 0
555 -493 -494 0
555 -491 -493 0
555 -491 -494 0
556 557 -558 0
556 -557 558 0
-556 -557 -558 0
-556 557 558 0
557 518 -520 0
557 -518 520 0
-557 -518 -520 0
-557 518 520 0
558 -559 561 0
558 559 -561 0
-558 559 561 0
-558 -559 -561 0
-559 -523 -560 0
-559 523 560 0
559 523 -560 0
559 -523 560 0
560 526 -529 0
560 -526 529 0
-560 -526 -529 0
-560 526 529 0
-561 -532 -562 0
-561 532 562 0
561 532 -562 0
561 -532 562 0
562 535 -538 0
562 -535 538 0
-562 -535 -538 0
-562 535 538 0
-563 -564 -565 0
-563 564 565 0
563 564 -565 0
563 -564 565 0
-564 496 490 0
-564 490 497 0
-564 496 497 0
564 -490 -497 0
564 -496 -490 0
564 -496 -497 0
565 -566 571 0
565 566 -571 0
-565 566 571 0
-565 -566 -571 0
-566 -567 -568 0
-566 567 568 0
566 567 -568 0
566 -567 568 0
-567 843 456 0
-567 838 451 0
-567 451 456 0
-567 843 451 0
-567 838 456 0
567 -451 -456 0
567 -838 -843 -456 0
567 -838 -843 -451 0
568 -569 570 0
568 569 -570 0
-568 569 570 0
-568 -569 -570 0
-569 459 465 0
-569 462 465 0
-569 459 462 0
569 -459 -462 0
569 -462 -465 0
569 -459 -465 0
-570 468 474 0
-570 471 474 0
-570 468 471 0
570 -468 -471 0
570 -471 -474 0
570 -468 -474 0
-571 572 573 0
-571 -572 -573 0
571 -572 573 0
571 572 -573 0
-572 502 505 0
-572 505 507 0
-572 502 507 0
572 -502 -507 0
572 -505 -507 0
572 -502 -505 0
-573 510 512 0
-573 512 513 0
-573 510 513 0
573 -510 -513 0
573 -512 -513 0
573 -510 -512 0
-574 489 499 0
-574 499 500 0
-574 489 500 0
574 -499 -500 0
574 -489 -499 0
574 -489 -500 0
-575 576 605 -629 -654 0
-575 -576 -605 -629 -654 0
-575 576 605 629 654 0
-575 -576 -605 629 654 0
575 576 -605 0
575 -576 605 0
575 629 -654 0
575 -629 654 0
576 577 -578 0
576 -577 578 0
-576 -577 -578 0
-576 577 578 0
-577 518 519 0
-577 516 518 0
-577 516 519 0
577 -516 -518 0
577 -518 -519 0
577 -516 -519 0
578 579 -580 0
578 -579 580 0
-578 -579 -580 0
-578 579 580 0
579 -839 -844 0
-579 839 0
-579 844 0
580 -581 582 0
580 581 -582 0
-580 581 582 0
-580 -581 -582 0
581 -838 -845 0
-581 838 0
-581 845 0
-582 583 604 0
-582 -583 -604 0
582 -583 604 0
582 583 -604 0
-583 584 585 0
-583 -584 -585 0
583 -584 585 0
583 584 -585 0
584 -837 -846 0
-584 837 0
-584 846 0
-585 586 603 0
-585 -586 -603 0
585 -586 603 0
585 586 -603 0
-586 587 588 0
-586 -587 -588 0
586 -587 588 0
586 587 -588 0
587 -836 -847 0
-587 836 0
-587 847 0
-588 589 602 0
-588 -589 -602 0
588 -589 602 0
588 589 -602 0
-589 590 591 0
-589 -590 -591 0
589 -590 591 0
589 590 -591 0
590 -835 -848 0
-590 835 0
-590 848 0
-591 592 601 0
-591 -592 -601 0
591 -592 601 0
591 592 -601 0
-592 593 594 0
-592 -593 -594 0
592 -593 594 0
592 593 -594 0
593 -834 -849 0
-593 834 0
-593 849 0
-594 595 600 0
-594 -595 -600 0
594 -595 600 0
594 595 -600 0
-595 596 597 0
-595 -596 -597 0
595 -596 597 0
595 596 -597 0
596 -833 -850 0
-596 833 0
-596 850 0
-597 598 599 0
-597 -598 -599 0
597 -598 599 0
597 598 -599 0
-598 538 540 0
-598 540 541 0
-598 538 541 0
598 -540 -541 0
598 -538 -540 0
598 -538 -541 0
-599 535 537 0
-599 537 542 0
-599 535 542 0
599 -537 -542 0
599 -535 -537 0
599 -535 -542 0
-600 532 534 0
-600 534 543 0
-600 532 543 0
600 -534 -543 0
600 -532 -534 0
600 -532 -543 0
-601 529 531 0
-601 531 544 0
-601 529 544 0
601 -531 -544 0
601 -529 -531 0
601 -529 -544 0
-602 526 528 0
-602 528 545 0
-602 526 545 0
602 -528 -545 0
602 -526 -528 0
602 -526 -545 0
-603 523 525 0
-603 525 546 0
-603 523 546 0
603 -525 -546 0
603 -523 -525 0
603 -523 -546 0
-604 520 522 0
-604 522 547 0
-604 520 547 0
604 -522 -547 0
604 -520 -522 0
604 -520 -547 0
605 -606 607 0
605 606 -607 0
-605 606 607 0
-605 -606 -607 0
-606 549 574 0
-606 549 551 0
-606 551 574 0
606 -551 -574 0
606 -549 -574 0
606 -549 -551 0
-607 608 628 0
-607 -608 -628 0
607 -608 628 0
607 608 -628 0
608 -609 627 0
608 609 -627 0
-608 609 627 0
-608 -609 -627 0
-609 -610 -618 0
-609 610 618 0
609 610 -618 0
609 -610 618 0
-610 -611 -615 0
-610 611 615 0
610 611 -615 0
610 -611 615 0
-611 -612 -613 0
-611 612 613 0
611 612 -613 0
611 -612 613 0
-612 523 529 0
-612 526 529 0
-612 523 526 0
612 -523 -526 0
612 -526 -529 0
612 -523 -529 0
613 -579 614 0
613 579 -614 0
-613 579 614 0
-613 -579 -614 0
-614 532 538 0
-614 535 538 0
-614 532 535 0
614 -532 -535 0
614 -535 -538 0
614 -532 -538 0
615 -616 617 0
615 616 -617 0
-615 616 617 0
-615 -616 -617 0
-616 557 559 0
-616 559 561 0
-616 557 561 0
616 -559 -561 0
616 -557 -559 0
616 -557 -561 0
-617 567 569 0
-617 569 570 0
-617 567 570 0
617 -567 -570 0
617 -569 -570 0
617 -567 -569 0
618 619 -620 0
618 -619 620 0
-618 -619 -620 0
-618 619 620 0
-619 566 572 0
-619 572 573 0
-619 566 573 0
619 -566 -573 0
619 -572 -573 0
619 -566 -572 0
620 -621 623 0
620 621 -623 0
-620 621 623 0
-620 -621 -623 0
-621 -581 -622 0
-621 581 622 0
621 581 -622 0
621 -581 622 0
622 584 -587 0
622 -584 587 0
-622 -584 -587 0
-622 584 587 0
-623 624 625 0
-623 -624 -625 0
623 -624 625 0
623 624 -625 0
624 -518 -520 0
-624 518 0
-624 520 0
-625 -590 -626 0
-625 590 626 0
625 590 -626 0
625 -590 626 0
626 593 -596 0
626 -593 596 0
-626 -593 -596 0
-626 593 596 0
-627 555 556 0
-627 553 556 0
-627 553 555 0
627 -553 -556 0
627 -553 -555 0
627 -555 -556 0
-628 552 564 0
-628 564 565 0
-628 552 565 0
628 -564 -565 0
628 -552 -564 0
628 -552 -565 0
629 630 -631 0
629 -630 631 0
-629 -630 -631 0
-629 630 631 0
-630 579 580 0
-630 577 579 0
-630 577 580 0
630 -577 -579 0
630 -579 -580 0
630 -577 -580 0
631 632 -633 0
631 -632 633 0
-631 -632 -633 0
-631 632 633 0
632 -839 -845 0
-632 839 0
-632 845 0
633 -634 635 0
633 634 -635 0
-633 634 635 0
-633 -634 -635 0
634 -838 -846 0
-634 838 0
-634 846 0
-635 636 653 0
-635 -636 -653 0
635 -636 653 0
635 636 -653 0
-636 637 638 0
-636 -637 -638 0
636 -637 638 0
636 637 -638 0
637 -837 -847 0
-637 837 0
-637 847 0
-638 639 652 0
-638 -639 -652 0
638 -639 652 0
638 639 -652 0
-639 640 641 0
-639 -640 -641 0
639 -640 641 0
639 640 -641 0
640 -836 -848 0
-640 836 0
-640 848 0
-641 642 651 0
-641 -642 -651 0
641 -642 651 0
641 642 -651 0
-642 643 644 0
-642 -643 -644 0
642 -643 644 0
642 643 -644 0
643 -835 -849 0
-643 835 0
-643 849 0
-644 645 650 0
-644 -645 -650 0
644 -645 650 0
644 645 -650 0
-645 646 647 0
-645 -646 -647 0
645 -646 647 0
645 646 -647 0
646 -834 -850 0
-646 834 0
-646 850 0
-647 648 649 0
-647 -648 -649 0
647 -648 649 0
647 648 -649 0
-648 596 598 0
-648 598 599 0
-648 596 599 0
648 -598 -599 0
648 -596 -598 0
648 -596 -599 0
-649 593 595 0
-649 595 600 0
-649 593 600 0
649 -595 -600 0
649 -593 -595 0
649 -593 -600 0
-650 590 592 0
-650 592 601 0
-650 590 601 0
650 -592 -601 0
650 -590 -592 0
650 -590 -601 0
-651 587 589 0
-651 589 602 0
-651 587 602 0
651 -589 -602 0
651 -587 -589 0
651 -587 -602 0
-652 584 586 0
-652 586 603 0
-652 584 603 0
652 -586 -603 0
652 -584 -586 0
652 -584 -603 0
-653 581 583 0
-653 583 604 0
-653 581 604 0
653 -583 -604 0
653 -581 -583 0
653 -581 -604 0
654 -655 656 0
654 655 -656 0
-654 655 656 0
-654 -655 -656 0
-655 606 628 0
-655 606 608 0
-655 608 628 0
655 -608 -628 0
655 -606 -628 0
655 -606 -608 0
-656 -657 -658 0
-656 657 658 0
656 657 -658 0
656 -657 658 0
657 -609 -627 0
-657 609 0
-657 627 0
658 -659 674 0
658 659 -674 0
-658 659 674 0
-658 -659 -674 0
-659 -660 -666 0
-659 660 666 0
659 660 -666 0
659 -660 666 0
-660 -661 -662 0
-660 661 662 0
660 661 -662 0
660 -661 662 0
-661 624 621 0
-661 621 625 0
-661 624 625 0
661 -621 -625 0
661 -624 -621 0
661 -624 -625 0
662 -663 664 0
662 663 -664 0
-662 663 664 0
-662 -663 -664 0
-663 579 612 0
-663 612 614 0
-663 579 614 0
663 -612 -614 0
663 -579 -612 0
663 -579 -614 0
-664 -632 -665 0
-664 632 665 0
664 632 -665 0
664 -632 665 0
665 634 -637 0
665 -634 637 0
-665 -634 -637 0
-665 634 637 0
666 667 -668 0
666 -667 668 0
-666 -667 -668 0
-666 667 668 0
-667 611 616 0
-667 616 617 0
-667 611 617 0
667 -611 -617 0
667 -616 -617 0
667 -611 -616 0
668 -669 671 0
668 669 -671 0
-668 669 671 0
-668 -669 -671 0
-669 -640 -670 0
-669 640 670 0
669 640 -670 0
669 -640 670 0
670 643 -646 0
670 -643 646 0
-670 -643 -646 0
-670 643 646 0
-671 672 673 0
-671 -672 -673 0
671 -672 673 0
671 672 -673 0
-672 581 587 0
-672 584 587 0
-672 581 584 0
672 -581 -584 0
672 -584 -587 0
672 -581 -587 0
-673 590 596 0
-673 593 596 0
-673 590 593 0
673 -590 -593 0
673 -593 -596 0
673 -590 -596 0
-674 610 619 0
-674 619 620 0
-674 610 620 0
674 -619 -620 0
674 -610 -619 0
674 -610 -620 0
-675 676 697 715 777 0
-675 -676 -697 715 777 0
675 -777 0
675 -676 697 0
675 -715 0
675 676 -697 0
676 677 -678 0
676 -677 678 0
-676 -677 -678 0
-676 677 678 0
-677 632 633 0
-677 630 632 0
-677 630 633 0
677 -630 -632 0
677 -632 -633 0
677 -630 -633 0
678 679 -680 0
678 -679 680 0
-678 -679 -680 0
-678 679 680 0
679 -839 -846 0
-679 839 0
-679 846 0
680 -681 682 0
680 681 -682 0
-680 681 682 0
-680 -681 -682 0
681 -838 -847 0
-681 838 0
-681 847 0
-682 683 696 0
-682 -683 -696 0
682 -683 696 0
682 683 -696 0
-683 684 685 0
-683 -684 -685 0
683 -684 685 0
683 684 -685 0
684 -837 -848 0
-684 837 0
-684 848 0
-685 686 695 0
-685 -686 -695 0
685 -686 695 0
685 686 -695 0
-686 687 688 0
-686 -687 -688 0
686 -687 688 0
686 687 -688 0
687 -836 -849 0
-687 836 0
-687 849 0
-688 689 694 0
-688 -689 -694 0
688 -689 694 0
688 689 -694 0
-689 690 691 0
-689 -690 -691 0
689 -690 691 0
689 690 -691 0
690 -835 -850 0
-690 835 0
-690 850 0
-691 692 693 0
-691 -692 -693 0
691 -692 693 0
691 692 -693 0
-692 646 648 0
-692 648 649 0
-692 646 649 0
692 -648 -649 0
692 -646 -648 0
692 -646 -649 0
-693 643 645 0
-693 645 650 0
-693 643 650 0
693 -645 -650 0
693 -643 -645 0
693 -643 -650 0
-694 640 642 0
-694 642 651 0
-694 640 651 0
694 -642 -651 0
694 -640 -642 0
694 -640 -651 0
-695 637 639 0
-695 639 652 0
-695 637 652 0
695 -639 -652 0
695 -637 -639 0
695 -637 -652 0
-696 634 636 0
-696 636 653 0
-696 634 653 0
696 -636 -653 0
696 -634 -636 0
696 -634 -653 0
697 -698 699 0
697 698 -699 0
-697 698 699 0
-697 -698 -699 0
-698 655 658 0
-698 657 658 0
-698 657 655 0
698 -657 -658 0
698 -657 -655 0
698 -655 -658 0
-699 -700 -701 0
-699 700 701 0
699 700 -701 0
699 -700 701 0
700 -659 -674 0
-700 659 0
-700 674 0
701 -702 714 0
701 702 -714 0
-701 702 714 0
-701 -702 -714 0
-702 703 713 0
-702 -703 -713 0
702 -703 713 0
702 703 -713 0
-703 -704 -710 0
-703 704 710 0
703 704 -710 0
703 -704 710 0
-704 -705 -707 0
-704 705 707 0
704 705 -707 0
704 -705 707 0
-705 -684 -706 0
-705 684 706 0
705 684 -706 0
705 -684 706 0
706 687 -690 0
706 -687 690 0
-706 -687 -690 0
-706 687 690 0
707 -708 709 0
707 708 -709 0
-707 708 709 0
-707 -708 -709 0
-708 846 637 0
-708 838 632 0
-708 632 637 0
-708 846 632 0
-708 838 637 0
708 -632 -637 0
708 -838 -846 -637 0
708 -838 -846 -632 0
-709 640 646 0
-709 643 646 0
-709 640 643 0
709 -640 -643 0
709 -643 -646 0
709 -640 -646 0
710 711 -712 0
710 -711 712 0
-710 -711 -712 0
-710 711 712 0
-711 669 672 0
-711 672 673 0
-711 669 673 0
711 -669 -673 0
711 -672 -673 0
711 -669 -672 0
712 679 -681 0
712 -679 681 0
-712 -679 -681 0
-712 679 681 0
-713 661 663 0
-713 663 664 0
-713 661 664 0
713 -661 -664 0
713 -663 -664 0
713 -661 -663 0
-714 660 667 0
-714 667 668 0
-714 660 668 0
714 -667 -668 0
714 -660 -667 0
714 -660 -668 0
-715 716 733 -750 -763 0
-715 -716 -733 -750 -763 0
-715 716 733 750 763 0
-715 -716 -733 750 763 0
715 716 -733 0
715 -716 733 0
715 750 -763 0
715 -750 763 0
716 717 -718 0
716 -717 718 0
-716 -717 -718 0
-716 717 718 0
-717 679 680 0
-717 677 679 0
-717 677 680 0
717 -677 -679 0
717 -679 -680 0
717 -677 -680 0
718 719 -720 0
718 -719 720 0
-718 -719 -720 0
-718 719 720 0
719 -839 -847 0
-719 839 0
-719 847 0
720 -721 722 0
720 721 -722 0
-720 721 722 0
-720 -721 -722 0
721 -838 -848 0
-721 838 0
-721 848 0
-722 723 732 0
-722 -723 -732 0
722 -723 732 0
722 723 -732 0
-723 724 725 0
-723 -724 -725 0
723 -724 725 0
723 724 -725 0
724 -837 -849 0
-724 837 0
-724 849 0
-725 726 731 0
-725 -726 -731 0
725 -726 731 0
725 726 -731 0
-726 727 728 0
-726 -727 -728 0
726 -727 728 0
726 727 -728 0
727 -836 -850 0
-727 836 0
-727 850 0
-728 729 730 0
-728 -729 -730 0
728 -729 730 0
728 729 -730 0
-729 690 692 0
-729 692 693 0
-729 690 693 0
729 -692 -693 0
729 -690 -692 0
729 -690 -693 0
-730 687 689 0
-730 689 694 0
-730 687 694 0
730 -689 -694 0
730 -687 -689 0
730 -687 -694 0
-731 684 686 0
-731 686 695 0
-731 684 695 0
731 -686 -695 0
731 -684 -686 0
731 -684 -695 0
-732 681 683 0
-732 683 696 0
-732 681 696 0
732 -683 -696 0
732 -681 -683 0
732 -681 -696 0
733 -734 735 0
733 734 -735 0
-733 734 735 0
-733 -734 -735 0
-734 698 701 0
-734 700 701 0
-734 700 698 0
734 -700 -701 0
734 -700 -698 0
734 -698 -701 0
-735 736 737 0
-735 -736 -737 0
735 -736 737 0
735 736 -737 0
736 -702 -714 0
-736 702 0
-736 714 0
-737 -738 -749 0
-737 738 749 0
737 738 -749 0
737 -738 749 0
-738 739 748 0
-738 -739 -748 0
738 -739 748 0
738 739 -748 0
-739 -740 -744 0
-739 740 744 0
739 740 -744 0
739 -740 744 0
-740 741 742 0
-740 -741 -742 0
740 -741 742 0
740 741 -742 0
741 -679 -681 0
-741 679 0
-741 681 0
-742 719 743 0
-742 -719 -743 0
742 -719 743 0
742 719 -743 0
-743 684 690 0
-743 687 690 0
-743 684 687 0
743 -684 -687 0
743 -687 -690 0
743 -684 -690 0
744 -745 746 0
744 745 -746 0
-744 745 746 0
-744 -745 -746 0
-745 705 708 0
-745 708 709 0
-745 705 709 0
745 -705 -709 0
745 -708 -709 0
745 -705 -708 0
-746 -721 -747 0
-746 721 747 0
746 721 -747 0
746 -721 747 0
747 724 -727 0
747 -724 727 0
-747 -724 -727 0
-747 724 727 0
-748 704 711 0
-748 711 712 0
-748 704 712 0
748 -711 -712 0
748 -704 -711 0
748 -704 -712 0
749 -703 -713 0
-749 703 0
-749 713 0
750 751 -752 0
750 -751 752 0
-750 -751 -752 0
-750 751 752 0
-751 719 720 0
-751 717 719 0
-751 717 720 0
751 -717 -719 0
751 -719 -720 0
751 -717 -720 0
752 753 -754 0
752 -753 754 0
-752 -753 -754 0
-752 753 754 0
753 -839 -848 0
-753 839 0
-753 848 0
754 -755 756 0
754 755 -756 0
-754 755 756 0
-754 -755 -756 0
755 -838 -849 0
-755 838 0
-755 849 0
-756 757 762 0
-756 -757 -762 0
756 -757 762 0
756 757 -762 0
-757 758 759 0
-757 -758 -759 0
757 -758 759 0
757 758 -759 0
758 -837 -850 0
-758 837 0
-758 850 0
-759 760 761 0
-759 -760 -761 0
759 -760 761 0
759 760 -761 0
-760 727 729 0
-760 729 730 0
-760 727 730 0
760 -729 -730 0
760 -727 -729 0
760 -727 -730 0
-761 724 726 0
-761 726 731 0
-761 724 731 0
761 -726 -731 0
761 -724 -726 0
761 -724 -731 0
-762 721 723 0
-762 723 732 0
-762 721 732 0
762 -723 -732 0
762 -721 -723 0
762 -721 -732 0
763 -764 765 0
763 764 -765 0
-763 764 765 0
-763 -764 -765 0
-764 736 734 0
-764 734 737 0
-764 736 737 0
764 -734 -737 0
764 -736 -734 0
764 -736 -737 0
-765 -766 -776 0
-765 766 776 0
765 766 -776 0
765 -766 776 0
-766 -767 -775 0
-766 767 775 0
766 767 -775 0
766 -767 775 0
-767 768 774 0
-767 -768 -774 0
767 -768 774 0
767 768 -774 0
-768 769 773 0
-768 -769 -773 0
768 -769 773 0
768 769 -773 0
-769 770 772 0
-769 -770 -772 0
769 -770 772 0
769 770 -772 0
-770 -753 -771 0
-770 753 771 0
770 753 -771 0
770 -753 771 0
771 755 -758 0
771 -755 758 0
-771 -755 -758 0
-771 755 758 0
-772 849 727 0
-772 837 721 0
-772 721 727 0
-772 849 721 0
-772 837 727 0
772 -721 -727 0
772 -837 -849 -727 0
772 -837 -849 -721 0
-773 719 743 0
-773 741 719 0
-773 741 743 0
773 -741 -719 0
773 -719 -743 0
773 -741 -743 0
-774 740 745 0
-774 745 746 0
-774 740 746 0
774 -740 -746 0
774 -745 -746 0
774 -740 -745 0
775 -739 -748 0
-775 739 0
-775 748 0
776 -738 -749 0
-776 738 0
-776 749 0
-777 -778 -787 800 0
-777 778 787 800 0
777 -800 0
777 -778 787 0
777 778 -787 0
778 779 -780 0
778 -779 780 0
-778 -779 -780 0
-778 779 780 0
-779 753 754 0
-779 751 753 0
-779 751 754 0
779 -751 -753 0
779 -753 -754 0
779 -751 -754 0
780 781 -782 0
780 -781 782 0
-780 -781 -782 0
-780 781 782 0
781 -839 -849 0
-781 839 0
-781 849 0
782 -783 784 0
782 783 -784 0
-782 783 784 0
-782 -783 -784 0
783 -838 -850 0
-783 838 0
-783 850 0
-784 785 786 0
-784 -785 -786 0
784 -785 786 0
784 785 -786 0
-785 758 760 0
-785 760 761 0
-785 758 761 0
785 -760 -761 0
785 -758 -760 0
785 -758 -761 0
-786 755 757 0
-786 757 762 0
-786 755 762 0
786 -757 -762 0
786 -755 -757 0
786 -755 -762 0
787 -788 789 0
787 788 -789 0
-787 788 789 0
-787 -788 -789 0
-788 764 766 0
-788 766 776 0
-788 764 776 0
788 -766 -776 0
788 -764 -766 0
788 -764 -776 0
-789 -790 -799 0
-789 790 799 0
789 790 -799 0
789 -790 799 0
-790 -791 -798 0
-790 791 798 0
790 791 -798 0
790 -791 798 0
-791 -792 -797 0
-791 792 797 0
791 792 -797 0
791 -792 797 0
-792 -793 -796 0
-792 793 796 0
792 793 -796 0
792 -793 796 0
-793 794 795 0
-793 -794 -795 0
793 -794 795 0
793 794 -795 0
794 781 -783 0
794 -781 783 0
-794 -781 -783 0
-794 781 783 0
-795 753 758 0
-795 755 758 0
-795 753 755 0
795 -753 -755 0
795 -755 -758 0
795 -753 -758 0
796 -770 -772 0
-796 770 0
-796 772 0
797 -769 -773 0
-797 769 0
-797 773 0
798 -768 -774 0
-798 768 0
-798 774 0
799 -767 -775 0
-799 767 0
-799 775 0
-800 801 806 819 820 0
-800 -801 -806 -819 -820 0
-800 801 806 -819 -820 0
-800 -801 -806 819 820 0
800 801 -806 0
800 -801 806 0
800 -819 820 0
800 819 -820 0
801 802 -803 0
801 -802 803 0
-801 -802 -803 0
-801 802 803 0
-802 781 782 0
-802 779 781 0
-802 779 782 0
802 -779 -781 0
802 -781 -782 0
802 -779 -782 0
803 -804 805 0
803 804 -805 0
-803 804 805 0
-803 -804 -805 0
804 -839 -850 0
-804 839 0
-804 850 0
-805 783 785 0
-805 785 786 0
-805 783 786 0
805 -785 -786 0
805 -783 -785 0
805 -783 -786 0
806 -807 808 0
806 807 -808 0
-806 807 808 0
-806 -807 -808 0
-807 788 790 0
-807 790 799 0
-807 788 799 0
807 -790 -799 0
807 -788 -790 0
807 -788 -799 0
-808 -809 -818 0
-808 809 818 0
808 809 -818 0
808 -809 818 0
-809 -810 -817 0
-809 810 817 0
809 810 -817 0
809 -810 817 0
-810 -811 -816 0
-810 811 816 0
810 811 -816 0
810 -811 816 0
-811 -812 -815 0
-811 812 815 0
811 812 -815 0
811 -812 815 0
-812 813 0
812 -813 0
813 814 -804 0
-813 -814 0
-813 804 0
814 -781 -783 0
-814 781 0
-814 783 0
815 -794 -795 0
-815 794 0
-815 795 0
816 -793 -796 0
-816 793 0
-816 796 0
817 -792 -797 0
-817 792 0
-817 797 0
818 -791 -798 0
-818 791 0
-818 798 0
-819 802 805 0
-819 802 804 0
-819 804 805 0
819 -804 -805 0
819 -802 -805 0
819 -802 -804 0
820 -821 822 0
820 821 -822 0
-820 821 822 0
-820 -821 -822 0
-821 807 809 0
-821 809 818 0
-821 807 818 0
821 -809 -818 0
821 -807 -809 0
821 -807 -818 0
-822 -823 -828 0
-822 823 828 0
822 823 -828 0
822 -823 828 0
-823 -824 -827 0
-823 824 827 0
823 824 -827 0
823 -824 827 0
-824 -825 -826 0
-824 825 826 0
824 825 -826 0
824 -825 826 0
825 -812 -815 0
-825 812 0
-825 815 0
826 -814 -804 0
-826 814 0
-826 804 0
827 -811 -816 0
-827 811 0
-827 816 0
828 -810 -817 0
-828 810 0
-828 817 0
-851 0
2 0

