c Result of efficient AIG-to-CNF conversion using package CNF
p cnf 333 1348
-2 3 134 248 294 0
2 -294 0
2 -3 0
2 -248 0
2 -134 0
-3 4 58 -93 -116 0
-3 4 58 93 116 0
3 -58 0
3 93 -116 0
3 -4 0
3 -93 116 0
-4 5 24 -33 -48 0
-4 -5 -24 -33 -48 0
-4 5 24 33 48 0
-4 -5 -24 33 48 0
4 5 -24 0
4 -5 24 0
4 33 -48 0
4 -33 48 0
5 6 -7 0
5 -6 7 0
-5 -6 -7 0
-5 6 7 0
6 -322 -326 0
-6 322 0
-6 326 0
7 -8 9 0
7 8 -9 0
-7 8 9 0
-7 -8 -9 0
8 -321 -327 0
-8 321 0
-8 327 0
-9 -10 -19 0
-9 10 19 0
9 10 -19 0
9 -10 19 0
10 -11 -12 0
-10 11 0
-10 12 0
11 -321 -326 0
-11 321 0
-11 326 0
12 -13 14 0
12 13 -14 0
-12 13 14 0
-12 -13 -14 0
13 -320 -327 0
-13 320 0
-13 327 0
-14 -15 -18 0
-14 15 18 0
14 15 -18 0
14 -15 18 0
15 -16 -17 0
-15 16 0
-15 17 0
16 -320 -326 0
-16 320 0
-16 326 0
17 -319 -327 0
-17 319 0
-17 327 0
18 -319 -328 0
-18 319 0
-18 328 0
19 20 -21 0
19 -20 21 0
-19 -20 -21 0
-19 20 21 0
20 -320 -328 0
-20 320 0
-20 328 0
21 -22 23 0
21 22 -23 0
-21 22 23 0
-21 -22 -23 0
22 -319 -329 0
-22 319 0
-22 329 0
-23 15 18 0
-23 13 18 0
-23 15 13 0
23 -15 -13 0
23 -13 -18 0
23 -15 -18 0
24 -25 28 0
24 25 -28 0
-24 25 28 0
-24 -25 -28 0
25 -15 -26 0
-25 15 0
-25 26 0
-26 -11 -27 0
-26 11 27 0
26 11 -27 0
26 -11 27 0
27 13 -18 0
27 -13 18 0
-27 -13 -18 0
-27 13 18 0
-28 29 31 0
-28 -29 -31 0
28 -29 31 0
28 29 -31 0
-29 -8 -30 0
-29 8 30 0
29 8 -30 0
29 -8 30 0
30 20 -22 0
30 -20 22 0
-30 -20 -22 0
-30 20 22 0
-31 6 32 0
-31 -6 -32 0
31 -6 32 0
31 6 -32 0
-32 11 18 0
-32 13 18 0
-32 11 13 0
32 -11 -13 0
32 -13 -18 0
32 -11 -18 0
33 34 -35 0
33 -34 35 0
-33 -34 -35 0
-33 34 35 0
34 -323 -326 0
-34 323 0
-34 326 0
35 -36 37 0
35 36 -37 0
-35 36 37 0
-35 -36 -37 0
36 -322 -327 0
-36 322 0
-36 327 0
-37 38 39 0
-37 -38 -39 0
37 -38 39 0
37 38 -39 0
38 -6 -7 0
-38 6 0
-38 7 0
-39 40 41 0
-39 -40 -41 0
39 -40 41 0
39 40 -41 0
40 -321 -328 0
-40 321 0
-40 328 0
-41 42 47 0
-41 -42 -47 0
41 -42 47 0
41 42 -47 0
-42 -43 -44 0
-42 43 44 0
42 43 -44 0
42 -43 44 0
43 -320 -329 0
-43 320 0
-43 329 0
44 -45 46 0
44 45 -46 0
-44 45 46 0
-44 -45 -46 0
45 -319 -330 0
-45 319 0
-45 330 0
-46 22 23 0
-46 20 22 0
-46 20 23 0
46 -20 -22 0
46 -22 -23 0
46 -20 -23 0
-47 10 19 0
-47 8 19 0
-47 10 8 0
47 -10 -8 0
47 -8 -19 0
47 -10 -19 0
48 -49 50 0
48 49 -50 0
-48 49 50 0
-48 -49 -50 0
49 -25 -28 0
-49 25 0
-49 28 0
-50 51 57 0
-50 -51 -57 0
50 -51 57 0
50 51 -57 0
-51 -52 -53 0
-51 52 53 0
51 52 -53 0
51 -52 53 0
-52 -34 -36 0
-52 34 36 0
52 34 -36 0
52 -34 36 0
53 -54 56 0
53 54 -56 0
-53 54 56 0
-53 -54 -56 0
54 -40 55 0
54 40 -55 0
-54 40 55 0
-54 -40 -55 0
-55 -43 -45 0
-55 43 45 0
55 43 -45 0
55 -43 45 0
-56 329 20 0
-56 319 8 0
-56 8 20 0
-56 329 8 0
-56 319 20 0
56 -8 -20 0
56 -319 -329 -20 0
56 -319 -329 -8 0
-57 6 29 0
-57 29 32 0
-57 6 32 0
57 -29 -32 0
57 -6 -29 0
57 -6 -32 0
-58 -59 -78 0
-58 59 78 0
58 59 -78 0
58 -59 78 0
59 60 -61 0
59 -60 61 0
-59 -60 -61 0
-59 60 61 0
60 -324 -326 0
-60 324 0
-60 326 0
61 -62 63 0
61 62 -63 0
-61 62 63 0
-61 -62 -63 0
62 -323 -327 0
-62 323 0
-62 327 0
-63 64 65 0
-63 -64 -65 0
63 -64 65 0
63 64 -65 0
64 -34 -35 0
-64 34 0
-64 35 0
-65 66 67 0
-65 -66 -67 0
65 -66 67 0
65 66 -67 0
66 -322 -328 0
-66 322 0
-66 328 0
-67 68 77 0
-67 -68 -77 0
67 -68 77 0
67 68 -77 0
-68 69 70 0
-68 -69 -70 0
68 -69 70 0
68 69 -70 0
69 -321 -329 0
-69 321 0
-69 329 0
-70 71 76 0
-70 -71 -76 0
70 -71 76 0
70 71 -76 0
-71 -72 -73 0
-71 72 73 0
71 72 -73 0
71 -72 73 0
72 -320 -330 0
-72 320 0
-72 330 0
73 -74 75 0
73 74 -75 0
-73 74 75 0
-73 -74 -75 0
74 -319 -331 0
-74 319 0
-74 331 0
-75 45 46 0
-75 43 45 0
-75 43 46 0
75 -43 -45 0
75 -45 -46 0
75 -43 -46 0
-76 40 42 0
-76 42 47 0
-76 40 47 0
76 -42 -47 0
76 -40 -42 0
76 -40 -47 0
-77 36 39 0
-77 38 36 0
-77 38 39 0
77 -38 -36 0
77 -36 -39 0
77 -38 -39 0
78 -79 80 0
78 79 -80 0
-78 79 80 0
-78 -79 -80 0
79 -49 -50 0
-79 49 0
-79 50 0
-80 -81 -92 0
-80 81 92 0
80 81 -92 0
80 -81 92 0
-81 -82 -88 0
-81 82 88 0
81 82 -88 0
81 -82 88 0
-82 -83 -85 0
-82 83 85 0
82 83 -85 0
82 -83 85 0
-83 -69 -84 0
-83 69 84 0
83 69 -84 0
83 -69 84 0
84 72 -74 0
84 -72 74 0
-84 -72 -74 0
-84 72 74 0
85 -86 87 0
85 86 -87 0
-85 86 87 0
-85 -86 -87 0
86 -34 -36 0
-86 34 0
-86 36 0
-87 40 45 0
-87 43 45 0
-87 40 43 0
87 -40 -43 0
87 -43 -45 0
87 -40 -45 0
88 89 -90 0
88 -89 90 0
-88 -89 -90 0
-88 89 90 0
-89 52 56 0
-89 52 54 0
-89 54 56 0
89 -54 -56 0
89 -52 -56 0
89 -52 -54 0
90 60 -91 0
90 -60 91 0
-90 -60 -91 0
-90 60 91 0
91 62 -66 0
91 -62 66 0
-91 -62 -66 0
-91 62 66 0
92 -51 -57 0
-92 51 0
-92 57 0
93 94 -95 0
93 -94 95 0
-93 -94 -95 0
-93 94 95 0
94 -325 -326 0
-94 325 0
-94 326 0
95 96 -97 0
95 -96 97 0
-95 -96 -97 0
-95 96 97 0
96 -324 -327 0
-96 324 0
-96 327 0
97 98 -99 0
97 -98 99 0
-97 -98 -99 0
-97 98 99 0
98 -60 -61 0
-98 60 0
-98 61 0
99 -100 101 0
99 100 -101 0
-99 100 101 0
-99 -100 -101 0
100 -323 -328 0
-100 323 0
-100 328 0
-101 102 115 0
-101 -102 -115 0
101 -102 115 0
101 102 -115 0
-102 103 104 0
-102 -103 -104 0
102 -103 104 0
102 103 -104 0
103 -322 -329 0
-103 322 0
-103 329 0
-104 105 114 0
-104 -105 -114 0
104 -105 114 0
104 105 -114 0
-105 106 107 0
-105 -106 -107 0
105 -106 107 0
105 106 -107 0
106 -321 -330 0
-106 321 0
-106 330 0
-107 108 113 0
-107 -108 -113 0
107 -108 113 0
107 108 -113 0
-108 -109 -110 0
-108 109 110 0
108 109 -110 0
108 -109 110 0
109 -320 -331 0
-109 320 0
-109 331 0
110 -111 112 0
110 111 -112 0
-110 111 112 0
-110 -111 -112 0
111 -319 -332 0
-111 319 0
-111 332 0
-112 74 75 0
-112 72 74 0
-112 72 75 0
112 -72 -74 0
112 -74 -75 0
112 -72 -75 0
-113 69 71 0
-113 71 76 0
-113 69 76 0
113 -71 -76 0
113 -69 -71 0
113 -69 -76 0
-114 66 68 0
-114 68 77 0
-114 66 77 0
114 -68 -77 0
114 -66 -68 0
114 -66 -77 0
-115 62 65 0
-115 64 62 0
-115 64 65 0
115 -64 -62 0
115 -62 -65 0
115 -64 -65 0
116 -117 118 0
116 117 -118 0
-116 117 118 0
-116 -117 -118 0
117 -79 -80 0
-117 79 0
-117 80 0
-118 -119 -133 0
-118 119 133 0
118 119 -133 0
118 -119 133 0
-119 120 132 0
-119 -120 -132 0
119 -120 132 0
119 120 -132 0
-120 -121 -126 0
-120 121 126 0
120 121 -126 0
120 -121 126 0
121 -122 124 0
121 122 -124 0
-121 122 124 0
-121 -122 -124 0
-122 -96 -123 0
-122 96 123 0
122 96 -123 0
122 -96 123 0
123 100 -103 0
123 -100 103 0
-123 -100 -103 0
-123 100 103 0
-124 -106 -125 0
-124 106 125 0
124 106 -125 0
124 -106 125 0
125 109 -111 0
125 -109 111 0
-125 -109 -111 0
-125 109 111 0
126 -127 131 0
126 127 -131 0
-126 127 131 0
-126 -127 -131 0
-127 128 129 0
-127 -128 -129 0
127 -128 129 0
127 128 -129 0
-128 326 66 0
-128 324 62 0
-128 62 66 0
-128 326 62 0
-128 324 66 0
128 -62 -66 0
128 -324 -326 -66 0
128 -324 -326 -62 0
-129 94 130 0
-129 -94 -130 0
129 -94 130 0
129 94 -130 0
-130 69 74 0
-130 72 74 0
-130 69 72 0
130 -69 -72 0
130 -72 -74 0
130 -69 -74 0
-131 83 87 0
-131 83 86 0
-131 86 87 0
131 -86 -87 0
131 -83 -87 0
131 -83 -86 0
-132 82 89 0
-132 89 90 0
-132 82 90 0
132 -89 -90 0
132 -82 -89 0
132 -82 -90 0
133 -81 -92 0
-133 81 0
-133 92 0
-134 -135 -158 178 0
-134 135 158 178 0
134 -178 0
134 -135 158 0
134 135 -158 0
135 -136 137 0
135 136 -137 0
-135 136 137 0
-135 -136 -137 0
136 -325 -327 0
-136 325 0
-136 327 0
-137 138 139 0
-137 -138 -139 0
137 -138 139 0
137 138 -139 0
138 -324 -328 0
-138 324 0
-138 328 0
-139 140 141 0
-139 -140 -141 0
139 -140 141 0
139 140 -141 0
140 -94 -95 0
-140 94 0
-140 95 0
-141 142 143 0
-141 -142 -143 0
141 -142 143 0
141 142 -143 0
142 -323 -329 0
-142 323 0
-142 329 0
-143 144 157 0
-143 -144 -157 0
143 -144 157 0
143 144 -157 0
-144 145 146 0
-144 -145 -146 0
144 -145 146 0
144 145 -146 0
145 -322 -330 0
-145 322 0
-145 330 0
-146 147 156 0
-146 -147 -156 0
146 -147 156 0
146 147 -156 0
-147 148 149 0
-147 -148 -149 0
147 -148 149 0
147 148 -149 0
148 -321 -331 0
-148 321 0
-148 331 0
-149 150 155 0
-149 -150 -155 0
149 -150 155 0
149 150 -155 0
-150 151 152 0
-150 -151 -152 0
150 -151 152 0
150 151 -152 0
151 -320 -332 0
-151 320 0
-151 332 0
-152 153 154 0
-152 -153 -154 0
152 -153 154 0
152 153 -154 0
-153 111 112 0
-153 109 111 0
-153 109 112 0
153 -109 -111 0
153 -111 -112 0
153 -109 -112 0
-154 106 108 0
-154 108 113 0
-154 106 113 0
154 -108 -113 0
154 -106 -108 0
154 -106 -113 0
-155 103 105 0
-155 105 114 0
-155 103 114 0
155 -105 -114 0
155 -103 -105 0
155 -103 -114 0
-156 100 102 0
-156 102 115 0
-156 100 115 0
156 -102 -115 0
156 -100 -102 0
156 -100 -115 0
-157 98 99 0
-157 96 99 0
-157 98 96 0
157 -98 -96 0
157 -96 -99 0
157 -98 -99 0
158 -159 161 0
158 159 -161 0
-158 159 161 0
-158 -159 -161 0
-159 160 0
159 -160 0
-160 119 0
-160 117 133 0
160 -117 -119 0
160 -119 -133 0
-161 -162 -177 0
-161 162 177 0
161 162 -177 0
161 -162 177 0
-162 163 169 0
-162 -163 -169 0
162 -163 169 0
162 163 -169 0
-163 164 165 0
-163 -164 -165 0
163 -164 165 0
163 164 -165 0
164 -122 -124 0
-164 122 0
-164 124 0
-165 -166 -167 0
-165 166 167 0
165 166 -167 0
165 -166 167 0
-166 94 128 0
-166 128 130 0
-166 94 130 0
166 -128 -130 0
166 -94 -128 0
166 -94 -130 0
167 136 -168 0
167 -136 168 0
-167 -136 -168 0
-167 136 168 0
168 138 -142 0
168 -138 142 0
-168 -138 -142 0
-168 138 142 0
-169 -170 -171 0
-169 170 171 0
169 170 -171 0
169 -170 171 0
-170 121 127 0
-170 127 131 0
-170 121 131 0
170 -127 -131 0
170 -121 -127 0
170 -121 -131 0
171 -172 174 0
171 172 -174 0
-171 172 174 0
-171 -172 -174 0
-172 -145 -173 0
-172 145 173 0
172 145 -173 0
172 -145 173 0
173 148 -151 0
173 -148 151 0
-173 -148 -151 0
-173 148 151 0
-174 175 176 0
-174 -175 -176 0
174 -175 176 0
174 175 -176 0
-175 96 103 0
-175 100 103 0
-175 96 100 0
175 -96 -100 0
175 -100 -103 0
175 -96 -103 0
-176 332 109 0
-176 319 106 0
-176 106 109 0
-176 332 106 0
-176 319 109 0
176 -106 -109 0
176 -319 -332 -109 0
176 -319 -332 -106 0
177 -120 -132 0
-177 120 0
-177 132 0
-178 179 200 -216 -233 0
-178 -179 -200 -216 -233 0
-178 179 200 216 233 0
-178 -179 -200 216 233 0
178 179 -200 0
178 -179 200 0
178 216 -233 0
178 -216 233 0
179 180 -181 0
179 -180 181 0
-179 -180 -181 0
-179 180 181 0
180 -136 -137 0
-180 136 0
-180 137 0
181 182 -183 0
181 -182 183 0
-181 -182 -183 0
-181 182 183 0
182 -325 -328 0
-182 325 0
-182 328 0
183 -184 185 0
183 184 -185 0
-183 184 185 0
-183 -184 -185 0
184 -324 -329 0
-184 324 0
-184 329 0
-185 186 199 0
-185 -186 -199 0
185 -186 199 0
185 186 -199 0
-186 187 188 0
-186 -187 -188 0
186 -187 188 0
186 187 -188 0
187 -323 -330 0
-187 323 0
-187 330 0
-188 189 198 0
-188 -189 -198 0
188 -189 198 0
188 189 -198 0
-189 190 191 0
-189 -190 -191 0
189 -190 191 0
189 190 -191 0
190 -322 -331 0
-190 322 0
-190 331 0
-191 192 197 0
-191 -192 -197 0
191 -192 197 0
191 192 -197 0
-192 193 194 0
-192 -193 -194 0
192 -193 194 0
192 193 -194 0
193 -321 -332 0
-193 321 0
-193 332 0
-194 195 196 0
-194 -195 -196 0
194 -195 196 0
194 195 -196 0
-195 151 153 0
-195 153 154 0
-195 151 154 0
195 -153 -154 0
195 -151 -153 0
195 -151 -154 0
-196 148 150 0
-196 150 155 0
-196 148 155 0
196 -150 -155 0
196 -148 -150 0
196 -148 -155 0
-197 145 147 0
-197 147 156 0
-197 145 156 0
197 -147 -156 0
197 -145 -147 0
197 -145 -156 0
-198 142 144 0
-198 144 157 0
-198 142 157 0
198 -144 -157 0
198 -142 -144 0
198 -142 -157 0
-199 138 141 0
-199 140 138 0
-199 140 141 0
199 -140 -138 0
199 -138 -141 0
199 -140 -141 0
200 -201 202 0
200 201 -202 0
-200 201 202 0
-200 -201 -202 0
-201 159 162 0
-201 162 177 0
-201 159 177 0
201 -162 -177 0
201 -159 -162 0
201 -159 -177 0
-202 203 215 0
-202 -203 -215 0
202 -203 215 0
202 203 -215 0
203 -204 214 0
203 204 -214 0
-203 204 214 0
-203 -204 -214 0
-204 -205 -211 0
-204 205 211 0
204 205 -211 0
204 -205 211 0
-205 -206 -208 0
-205 206 208 0
205 206 -208 0
205 -206 208 0
-206 -187 -207 0
-206 187 207 0
206 187 -207 0
206 -187 207 0
207 190 -193 0
207 -190 193 0
-207 -190 -193 0
-207 190 193 0
208 -209 210 0
208 209 -210 0
-208 209 210 0
-208 -209 -210 0
-209 136 142 0
-209 138 142 0
-209 136 138 0
209 -136 -138 0
209 -138 -142 0
209 -136 -142 0
-210 145 151 0
-210 148 151 0
-210 145 148 0
210 -145 -148 0
210 -148 -151 0
210 -145 -151 0
211 212 -213 0
211 -212 213 0
-211 -212 -213 0
-211 212 213 0
-212 172 175 0
-212 175 176 0
-212 172 176 0
212 -172 -176 0
212 -175 -176 0
212 -172 -175 0
213 182 -184 0
213 -182 184 0
-213 -182 -184 0
-213 182 184 0
-214 166 167 0
-214 164 167 0
-214 164 166 0
214 -164 -167 0
214 -164 -166 0
214 -166 -167 0
-215 163 170 0
-215 170 171 0
-215 163 171 0
215 -170 -171 0
215 -163 -170 0
215 -163 -171 0
216 217 -218 0
216 -217 218 0
-216 -217 -218 0
-216 217 218 0
-217 328 183 0
-217 325 180 0
-217 180 183 0
-217 328 180 0
-217 325 183 0
217 -180 -183 0
217 -325 -328 -183 0
217 -325 -328 -180 0
218 219 -220 0
218 -219 220 0
-218 -219 -220 0
-218 219 220 0
219 -325 -329 0
-219 325 0
-219 329 0
220 -221 222 0
220 221 -222 0
-220 221 222 0
-220 -221 -222 0
221 -324 -330 0
-221 324 0
-221 330 0
-222 223 232 0
-222 -223 -232 0
222 -223 232 0
222 223 -232 0
-223 224 225 0
-223 -224 -225 0
223 -224 225 0
223 224 -225 0
224 -323 -331 0
-224 323 0
-224 331 0
-225 226 231 0
-225 -226 -231 0
225 -226 231 0
225 226 -231 0
-226 227 228 0
-226 -227 -228 0
226 -227 228 0
226 227 -228 0
227 -322 -332 0
-227 322 0
-227 332 0
-228 229 230 0
-228 -229 -230 0
228 -229 230 0
228 229 -230 0
-229 193 195 0
-229 195 196 0
-229 193 196 0
229 -195 -196 0
229 -193 -195 0
229 -193 -196 0
-230 190 192 0
-230 192 197 0
-230 190 197 0
230 -192 -197 0
230 -190 -192 0
230 -190 -197 0
-231 187 189 0
-231 189 198 0
-231 187 198 0
231 -189 -198 0
231 -187 -189 0
231 -187 -198 0
-232 184 186 0
-232 186 199 0
-232 184 199 0
232 -186 -199 0
232 -184 -186 0
232 -184 -199 0
233 -234 235 0
233 234 -235 0
-233 234 235 0
-233 -234 -235 0
-234 201 215 0
-234 201 203 0
-234 203 215 0
234 -203 -215 0
234 -201 -215 0
234 -201 -203 0
-235 -236 -237 0
-235 236 237 0
235 236 -237 0
235 -236 237 0
236 -204 -214 0
-236 204 0
-236 214 0
237 -238 247 0
237 238 -247 0
-237 238 247 0
-237 -238 -247 0
-238 -239 -243 0
-238 239 243 0
238 239 -243 0
238 -239 243 0
-239 240 241 0
-239 -240 -241 0
239 -240 241 0
239 240 -241 0
240 -182 -184 0
-240 182 0
-240 184 0
-241 219 242 0
-241 -219 -242 0
241 -219 242 0
241 219 -242 0
-242 187 193 0
-242 190 193 0
-242 187 190 0
242 -187 -190 0
242 -190 -193 0
242 -187 -193 0
243 -244 245 0
243 244 -245 0
-243 244 245 0
-243 -244 -245 0
-244 206 209 0
-244 209 210 0
-244 206 210 0
244 -206 -210 0
244 -209 -210 0
244 -206 -209 0
-245 -221 -246 0
-245 221 246 0
245 221 -246 0
245 -221 246 0
246 224 -227 0
246 -224 227 0
-246 -224 -227 0
-246 224 227 0
-247 205 212 0
-247 212 213 0
-247 205 213 0
247 -212 -213 0
247 -205 -212 0
247 -205 -213 0
-248 249 262 -274 -283 0
-248 -249 -262 -274 -283 0
-248 249 262 274 283 0
-248 -249 -262 274 283 0
248 249 -262 0
248 -249 262 0
248 274 -283 0
248 -274 283 0
249 250 -251 0
249 -250 251 0
-249 -250 -251 0
-249 250 251 0
-250 219 220 0
-250 217 219 0
-250 217 220 0
250 -217 -219 0
250 -219 -220 0
250 -217 -220 0
251 252 -253 0
251 -252 253 0
-251 -252 -253 0
-251 252 253 0
252 -325 -330 0
-252 325 0
-252 330 0
253 -254 255 0
253 254 -255 0
-253 254 255 0
-253 -254 -255 0
254 -324 -331 0
-254 324 0
-254 331 0
-255 256 261 0
-255 -256 -261 0
255 -256 261 0
255 256 -261 0
-256 257 258 0
-256 -257 -258 0
256 -257 258 0
256 257 -258 0
257 -323 -332 0
-257 323 0
-257 332 0
-258 259 260 0
-258 -259 -260 0
258 -259 260 0
258 259 -260 0
-259 227 229 0
-259 229 230 0
-259 227 230 0
259 -229 -230 0
259 -227 -229 0
259 -227 -230 0
-260 224 226 0
-260 226 231 0
-260 224 231 0
260 -226 -231 0
260 -224 -226 0
260 -224 -231 0
-261 221 223 0
-261 223 232 0
-261 221 232 0
261 -223 -232 0
261 -221 -223 0
261 -221 -232 0
262 -263 264 0
262 263 -264 0
-262 263 264 0
-262 -263 -264 0
-263 234 237 0
-263 236 237 0
-263 236 234 0
263 -236 -237 0
263 -236 -234 0
263 -234 -237 0
-264 -265 -266 0
-264 265 266 0
264 265 -266 0
264 -265 266 0
265 -238 -247 0
-265 238 0
-265 247 0
266 -267 273 0
266 267 -273 0
-266 267 273 0
-266 -267 -273 0
-267 268 272 0
-267 -268 -272 0
267 -268 272 0
267 268 -272 0
-268 269 271 0
-268 -269 -271 0
268 -269 271 0
268 269 -271 0
-269 -252 -270 0
-269 252 270 0
269 252 -270 0
269 -252 270 0
270 254 -257 0
270 -254 257 0
-270 -254 -257 0
-270 254 257 0
-271 221 227 0
-271 224 227 0
-271 221 224 0
271 -221 -224 0
271 -224 -227 0
271 -221 -227 0
-272 219 242 0
-272 240 219 0
-272 240 242 0
272 -240 -219 0
272 -219 -242 0
272 -240 -242 0
-273 239 244 0
-273 244 245 0
-273 239 245 0
273 -239 -245 0
273 -244 -245 0
273 -239 -244 0
274 275 -276 0
274 -275 276 0
-274 -275 -276 0
-274 275 276 0
-275 252 253 0
-275 250 252 0
-275 250 253 0
275 -250 -252 0
275 -252 -253 0
275 -250 -253 0
276 277 -278 0
276 -277 278 0
-276 -277 -278 0
-276 277 278 0
277 -325 -331 0
-277 325 0
-277 331 0
278 -279 280 0
278 279 -280 0
-278 279 280 0
-278 -279 -280 0
279 -324 -332 0
-279 324 0
-279 332 0
-280 281 282 0
-280 -281 -282 0
280 -281 282 0
280 281 -282 0
-281 257 259 0
-281 259 260 0
-281 257 260 0
281 -259 -260 0
281 -257 -259 0
281 -257 -260 0
-282 254 256 0
-282 256 261 0
-282 254 261 0
282 -256 -261 0
282 -254 -256 0
282 -254 -261 0
283 -284 285 0
283 284 -285 0
-283 284 285 0
-283 -284 -285 0
-284 263 266 0
-284 265 266 0
-284 265 263 0
284 -265 -266 0
284 -265 -263 0
284 -263 -266 0
-285 286 287 0
-285 -286 -287 0
285 -286 287 0
285 286 -287 0
286 -267 -273 0
-286 267 0
-286 273 0
-287 -288 -293 0
-287 288 293 0
287 288 -293 0
287 -288 293 0
-288 -289 -292 0
-288 289 292 0
288 289 -292 0
288 -289 292 0
-289 290 291 0
-289 -290 -291 0
289 -290 291 0
289 290 -291 0
290 277 -279 0
290 -277 279 0
-290 -277 -279 0
-290 277 279 0
-291 252 257 0
-291 254 257 0
-291 252 254 0
291 -252 -254 0
291 -254 -257 0
291 -252 -257 0
292 -269 -271 0
-292 269 0
-292 271 0
293 -268 -272 0
-293 268 0
-293 272 0
-294 295 300 311 312 0
-294 -295 -300 -311 -312 0
-294 295 300 -311 -312 0
-294 -295 -300 311 312 0
294 295 -300 0
294 -295 300 0
294 -311 312 0
294 311 -312 0
295 296 -297 0
295 -296 297 0
-295 -296 -297 0
-295 296 297 0
-296 277 278 0
-296 275 277 0
-296 275 278 0
296 -275 -277 0
296 -277 -278 0
296 -275 -278 0
297 -298 299 0
297 298 -299 0
-297 298 299 0
-297 -298 -299 0
298 -325 -332 0
-298 325 0
-298 332 0
-299 279 281 0
-299 281 282 0
-299 279 282 0
299 -281 -282 0
299 -279 -281 0
299 -279 -282 0
300 -301 302 0
300 301 -302 0
-300 301 302 0
-300 -301 -302 0
-301 286 284 0
-301 284 287 0
-301 286 287 0
301 -284 -287 0
301 -286 -284 0
301 -286 -287 0
-302 -303 -310 0
-302 303 310 0
302 303 -310 0
302 -303 310 0
-303 -304 -309 0
-303 304 309 0
303 304 -309 0
303 -304 309 0
-304 -305 -308 0
-304 305 308 0
304 305 -308 0
304 -305 308 0
-305 306 0
305 -306 0
306 307 -298 0
-306 -307 0
-306 298 0
307 -277 -279 0
-307 277 0
-307 279 0
308 -290 -291 0
-308 290 0
-308 291 0
309 -289 -292 0
-309 289 0
-309 292 0
310 -288 -293 0
-310 288 0
-310 293 0
-311 296 299 0
-311 296 298 0
-311 298 299 0
311 -298 -299 0
311 -296 -299 0
311 -296 -298 0
312 -313 314 0
312 313 -314 0
-312 313 314 0
-312 -313 -314 0
-313 301 303 0
-313 303 310 0
-313 301 310 0
313 -303 -310 0
313 -301 -303 0
313 -301 -310 0
-314 -315 -318 0
-314 315 318 0
314 315 -318 0
314 -315 318 0
-315 -316 -317 0
-315 316 317 0
315 316 -317 0
315 -316 317 0
316 -305 -308 0
-316 305 0
-316 308 0
317 -307 -298 0
-317 307 0
-317 298 0
318 -304 -309 0
-318 304 0
-318 309 0
-333 0
2 0

