c Result of efficient AIG-to-CNF conversion using package CNF
p cnf 490 2033
-2 3 29 221 375 0
2 -375 0
2 -3 0
2 -221 0
2 -29 0
-3 -4 -20 0
-3 4 20 0
3 4 -20 0
3 -4 20 0
4 -5 11 0
4 5 -11 0
-4 5 11 0
-4 -5 -11 0
-5 7 10 0
-5 6 10 0
-5 6 7 0
5 -6 -10 0
5 -6 -7 0
5 -7 -10 0
6 -472 -473 -481 -482 0
-6 482 0
-6 472 0
-6 481 0
-6 473 0
-7 -8 -9 0
-7 8 9 0
7 8 -9 0
7 -8 9 0
8 -473 -482 0
-8 473 0
-8 482 0
9 -472 -483 0
-9 472 0
-9 483 0
10 -474 -481 0
-10 474 0
-10 481 0
-11 12 13 0
-11 -12 -13 0
11 -12 13 0
11 12 -13 0
12 -8 -9 0
-12 8 0
-12 9 0
-13 -14 -17 0
-13 14 17 0
13 14 -17 0
13 -14 17 0
-14 -15 -16 0
-14 15 16 0
14 15 -16 0
14 -15 16 0
15 -473 -483 0
-15 473 0
-15 483 0
16 -472 -484 0
-16 472 0
-16 484 0
17 18 -19 0
17 -18 19 0
-17 -18 -19 0
-17 18 19 0
18 -475 -481 0
-18 475 0
-18 481 0
19 -474 -482 0
-19 474 0
-19 482 0
20 -21 24 0
20 21 -24 0
-20 21 24 0
-20 -21 -24 0
21 -6 -22 0
-21 6 0
-21 22 0
-22 -10 -23 0
-22 10 23 0
22 10 -23 0
22 -10 23 0
23 8 -9 0
23 -8 9 0
-23 -8 -9 0
-23 8 9 0
-24 25 27 0
-24 -25 -27 0
24 -25 27 0
24 25 -27 0
-25 -19 -26 0
-25 19 26 0
25 19 -26 0
25 -19 26 0
26 15 -16 0
26 -15 16 0
-26 -15 -16 0
-26 15 16 0
-27 18 28 0
-27 -18 -28 0
27 -18 28 0
27 18 -28 0
-28 482 10 0
-28 473 9 0
-28 9 10 0
-28 482 9 0
-28 473 10 0
28 -9 -10 0
28 -473 -482 -10 0
28 -473 -482 -9 0
-29 30 87 110 126 0
-29 30 -87 -110 126 0
29 -126 0
29 -87 110 0
29 -30 0
29 87 -110 0
-30 31 46 -56 -75 0
-30 -31 -46 -56 -75 0
-30 31 46 56 75 0
-30 -31 -46 56 75 0
30 31 -46 0
30 -31 46 0
30 56 -75 0
30 -56 75 0
31 -32 33 0
31 32 -33 0
-31 32 33 0
-31 -32 -33 0
-32 12 5 0
-32 5 13 0
-32 12 13 0
32 -5 -13 0
32 -12 -5 0
32 -12 -13 0
-33 34 45 0
-33 -34 -45 0
33 -34 45 0
33 34 -45 0
-34 -35 -40 0
-34 35 40 0
34 35 -40 0
34 -35 40 0
-35 36 37 0
-35 -36 -37 0
35 -36 37 0
35 36 -37 0
36 -476 -481 0
-36 476 0
-36 481 0
-37 -38 -39 0
-37 38 39 0
37 38 -39 0
37 -38 39 0
38 -475 -482 0
-38 475 0
-38 482 0
39 -474 -483 0
-39 474 0
-39 483 0
40 41 -42 0
40 -41 42 0
-40 -41 -42 0
-40 41 42 0
41 -15 -16 0
-41 15 0
-41 16 0
42 43 -44 0
42 -43 44 0
-42 -43 -44 0
-42 43 44 0
43 -473 -484 0
-43 473 0
-43 484 0
44 -472 -485 0
-44 472 0
-44 485 0
-45 18 19 0
-45 14 18 0
-45 14 19 0
45 -14 -18 0
45 -18 -19 0
45 -14 -19 0
46 -47 48 0
46 47 -48 0
-46 47 48 0
-46 -47 -48 0
47 -21 -24 0
-47 21 0
-47 24 0
-48 49 55 0
-48 -49 -55 0
48 -49 55 0
48 49 -55 0
-49 -50 -51 0
-49 50 51 0
49 50 -51 0
49 -50 51 0
-50 -36 -38 0
-50 36 38 0
50 36 -38 0
50 -36 38 0
51 -52 54 0
51 52 -54 0
-51 52 54 0
-51 -52 -54 0
52 -39 53 0
52 39 -53 0
-52 39 53 0
-52 -39 -53 0
-53 -43 -44 0
-53 43 44 0
53 43 -44 0
53 -43 44 0
-54 15 19 0
-54 16 19 0
-54 15 16 0
54 -15 -16 0
54 -16 -19 0
54 -15 -19 0
-55 18 25 0
-55 25 28 0
-55 18 28 0
55 -25 -28 0
55 -18 -25 0
55 -18 -28 0
56 57 -58 0
56 -57 58 0
-56 -57 -58 0
-56 57 58 0
-57 32 34 0
-57 34 45 0
-57 32 45 0
57 -32 -45 0
57 -34 -45 0
57 -32 -34 0
58 -59 74 0
58 59 -74 0
-58 59 74 0
-58 -59 -74 0
59 -60 69 0
59 60 -69 0
-59 60 69 0
-59 -60 -69 0
-60 -61 -66 0
-60 61 66 0
60 61 -66 0
60 -61 66 0
-61 -62 -63 0
-61 62 63 0
61 62 -63 0
61 -62 63 0
62 -474 -484 0
-62 474 0
-62 484 0
63 64 -65 0
63 -64 65 0
-63 -64 -65 0
-63 64 65 0
64 -473 -485 0
-64 473 0
-64 485 0
65 -472 -486 0
-65 472 0
-65 486 0
66 67 -68 0
66 -67 68 0
-66 -67 -68 0
-66 67 68 0
67 -43 -44 0
-67 43 0
-67 44 0
68 -477 -481 0
-68 477 0
-68 481 0
-69 -70 -71 0
-69 70 71 0
69 70 -71 0
69 -70 71 0
-70 482 39 0
-70 475 36 0
-70 36 39 0
-70 482 36 0
-70 475 39 0
70 -36 -39 0
70 -475 -482 -39 0
70 -475 -482 -36 0
71 72 -73 0
71 -72 73 0
-71 -72 -73 0
-71 72 73 0
72 -476 -482 0
-72 476 0
-72 482 0
73 -475 -483 0
-73 475 0
-73 483 0
-74 35 42 0
-74 41 42 0
-74 41 35 0
74 -41 -42 0
74 -41 -35 0
74 -35 -42 0
75 -76 77 0
75 76 -77 0
-75 76 77 0
-75 -76 -77 0
76 -47 -48 0
-76 47 0
-76 48 0
-77 -78 -86 0
-77 78 86 0
77 78 -86 0
77 -78 86 0
-78 -79 -83 0
-78 79 83 0
78 79 -83 0
78 -79 83 0
-79 -61 -80 0
-79 61 80 0
79 61 -80 0
79 -61 80 0
80 -81 82 0
80 81 -82 0
-80 81 82 0
-80 -81 -82 0
81 -36 -38 0
-81 36 0
-81 38 0
-82 484 44 0
-82 473 39 0
-82 39 44 0
-82 484 39 0
-82 473 44 0
82 -39 -44 0
82 -473 -484 -44 0
82 -473 -484 -39 0
83 84 -85 0
83 -84 85 0
-83 -84 -85 0
-83 84 85 0
-84 50 54 0
-84 50 52 0
-84 52 54 0
84 -52 -54 0
84 -50 -54 0
84 -50 -52 0
85 68 -71 0
85 -68 71 0
-85 -68 -71 0
-85 68 71 0
86 -49 -55 0
-86 49 0
-86 55 0
87 -88 89 0
87 88 -89 0
-87 88 89 0
-87 -88 -89 0
-88 57 74 0
-88 57 59 0
-88 59 74 0
88 -59 -74 0
88 -57 -74 0
88 -57 -59 0
-89 90 109 0
-89 -90 -109 0
89 -90 109 0
89 90 -109 0
90 -91 100 0
90 91 -100 0
-90 91 100 0
-90 -91 -100 0
-91 -92 -97 0
-91 92 97 0
91 92 -97 0
91 -92 97 0
-92 -93 -94 0
-92 93 94 0
92 93 -94 0
92 -93 94 0
93 -476 -483 0
-93 476 0
-93 483 0
94 95 -96 0
94 -95 96 0
-94 -95 -96 0
-94 95 96 0
95 -475 -484 0
-95 475 0
-95 484 0
96 -474 -485 0
-96 474 0
-96 485 0
97 -98 99 0
97 98 -99 0
-97 98 99 0
-97 -98 -99 0
98 -475 -476 -482 -483 0
-98 483 0
-98 475 0
-98 482 0
-98 476 0
-99 62 65 0
-99 64 65 0
-99 62 64 0
99 -62 -64 0
99 -64 -65 0
99 -62 -65 0
-100 -101 -102 0
-100 101 102 0
100 101 -102 0
100 -101 102 0
-101 61 68 0
-101 67 68 0
-101 67 61 0
101 -67 -68 0
101 -67 -61 0
101 -61 -68 0
102 103 -106 0
102 -103 106 0
-102 -103 -106 0
-102 103 106 0
103 104 -105 0
103 -104 105 0
-103 -104 -105 0
-103 104 105 0
104 -473 -486 0
-104 473 0
-104 486 0
105 -472 -487 0
-105 472 0
-105 487 0
106 107 -108 0
106 -107 108 0
-106 -107 -108 0
-106 107 108 0
107 -478 -481 0
-107 478 0
-107 481 0
108 -477 -482 0
-108 477 0
-108 482 0
-109 60 70 0
-109 70 71 0
-109 60 71 0
109 -70 -71 0
109 -60 -70 0
109 -60 -71 0
110 -111 112 0
110 111 -112 0
-110 111 112 0
-110 -111 -112 0
111 -76 -77 0
-111 76 0
-111 77 0
-112 -113 -125 0
-112 113 125 0
112 113 -125 0
112 -113 125 0
-113 114 124 0
-113 -114 -124 0
113 -114 124 0
113 114 -124 0
-114 -115 -119 0
-114 115 119 0
114 115 -119 0
114 -115 119 0
-115 -116 -118 0
-115 116 118 0
115 116 -118 0
115 -116 118 0
-116 -108 -117 0
-116 108 117 0
116 108 -117 0
116 -108 117 0
117 93 -95 0
117 -93 95 0
-117 -93 -95 0
-117 93 95 0
118 96 -103 0
118 -96 103 0
-118 -96 -103 0
-118 96 103 0
119 -120 123 0
119 120 -123 0
-119 120 123 0
-119 -120 -123 0
-120 121 122 0
-120 -121 -122 0
120 -121 122 0
120 121 -122 0
-121 68 98 0
-121 72 73 98 0
121 -98 0
121 -68 -73 0
121 -68 -72 0
-122 -99 -107 0
-122 99 107 0
122 99 -107 0
122 -99 107 0
-123 61 82 0
-123 61 81 0
-123 81 82 0
123 -81 -82 0
123 -61 -82 0
123 -61 -81 0
-124 79 84 0
-124 84 85 0
-124 79 85 0
124 -84 -85 0
124 -79 -84 0
124 -79 -85 0
125 -78 -86 0
-125 78 0
-125 86 0
-126 127 154 -173 -205 0
-126 -127 -154 -173 -205 0
-126 127 154 173 205 0
-126 -127 -154 173 205 0
126 127 -154 0
126 -127 154 0
126 173 -205 0
126 -173 205 0
127 128 -129 0
127 -128 129 0
-127 -128 -129 0
-127 128 129 0
-128 88 109 0
-128 88 90 0
-128 90 109 0
128 -90 -109 0
128 -88 -109 0
128 -88 -90 0
129 -130 153 0
129 130 -153 0
-129 130 153 0
-129 -130 -153 0
130 -131 140 0
130 131 -140 0
-130 131 140 0
-130 -131 -140 0
-131 -132 -137 0
-131 132 137 0
131 132 -137 0
131 -132 137 0
-132 -133 -134 0
-132 133 134 0
132 133 -134 0
132 -133 134 0
133 -479 -481 0
-133 479 0
-133 481 0
134 135 -136 0
134 -135 136 0
-134 -135 -136 0
-134 135 136 0
135 -478 -482 0
-135 478 0
-135 482 0
136 -477 -483 0
-136 477 0
-136 483 0
137 -138 139 0
137 138 -139 0
-137 138 139 0
-137 -138 -139 0
-138 482 107 0
-138 477 103 0
-138 103 107 0
-138 482 103 0
-138 477 107 0
138 -103 -107 0
138 -477 -482 -107 0
138 -477 -482 -103 0
-139 93 96 0
-139 95 96 0
-139 93 95 0
139 -93 -95 0
139 -95 -96 0
139 -93 -96 0
-140 -141 -142 0
-140 141 142 0
140 141 -142 0
140 -141 142 0
-141 98 92 0
-141 92 99 0
-141 98 99 0
141 -92 -99 0
141 -98 -92 0
141 -98 -99 0
142 -143 146 0
142 143 -146 0
-142 143 146 0
-142 -143 -146 0
143 144 -145 0
143 -144 145 0
-143 -144 -145 0
-143 144 145 0
144 -476 -484 0
-144 476 0
-144 484 0
145 -475 -485 0
-145 475 0
-145 485 0
-146 147 148 0
-146 -147 -148 0
146 -147 148 0
146 147 -148 0
147 -472 -473 -486 -487 0
-147 487 0
-147 472 0
-147 486 0
-147 473 0
-148 -149 -150 0
-148 149 150 0
148 149 -150 0
148 -149 150 0
149 -474 -486 0
-149 474 0
-149 486 0
150 151 -152 0
150 -151 152 0
-150 -151 -152 0
-150 151 152 0
151 -473 -487 0
-151 473 0
-151 487 0
152 -472 -488 0
-152 472 0
-152 488 0
-153 91 101 0
-153 101 102 0
-153 91 102 0
153 -101 -102 0
153 -91 -101 0
153 -91 -102 0
154 -155 157 0
154 155 -157 0
-154 155 157 0
-154 -155 -157 0
-155 156 0
155 -156 0
-156 113 0
-156 111 125 0
156 -111 -113 0
156 -113 -125 0
-157 -158 -172 0
-157 158 172 0
157 158 -172 0
157 -158 172 0
-158 159 167 0
-158 -159 -167 0
158 -159 167 0
158 159 -167 0
-159 -160 -164 0
-159 160 164 0
159 160 -164 0
159 -160 164 0
-160 -148 -161 0
-160 148 161 0
160 148 -161 0
160 -148 161 0
161 -162 163 0
161 162 -163 0
-161 162 163 0
-161 -162 -163 0
-162 484 108 0
-162 475 93 0
-162 93 108 0
-162 484 93 0
-162 475 108 0
162 -93 -108 0
162 -475 -484 -108 0
162 -475 -484 -93 0
-163 486 105 0
-163 473 96 0
-163 96 105 0
-163 486 96 0
-163 473 105 0
163 -96 -105 0
163 -473 -486 -105 0
163 -473 -486 -96 0
164 -165 166 0
164 165 -166 0
-164 165 166 0
-164 -165 -166 0
165 -116 -118 0
-165 116 0
-165 118 0
-166 99 121 0
-166 99 107 0
-166 107 121 0
166 -107 -121 0
166 -99 -121 0
166 -99 -107 0
-167 -168 -169 0
-167 168 169 0
167 168 -169 0
167 -168 169 0
-168 115 120 0
-168 120 123 0
-168 115 123 0
168 -115 -123 0
168 -120 -123 0
168 -115 -120 0
169 -170 171 0
169 170 -171 0
-169 170 171 0
-169 -170 -171 0
170 133 -135 0
170 -133 135 0
-170 -133 -135 0
-170 133 135 0
-171 -136 -143 0
-171 136 143 0
171 136 -143 0
171 -136 143 0
172 -114 -124 0
-172 114 0
-172 124 0
173 174 -175 0
173 -174 175 0
-173 -174 -175 0
-173 174 175 0
-174 128 153 0
-174 128 130 0
-174 130 153 0
174 -130 -153 0
174 -128 -153 0
174 -128 -130 0
175 -176 204 0
175 176 -204 0
-175 176 204 0
-175 -176 -204 0
176 -177 187 0
176 177 -187 0
-176 177 187 0
-176 -177 -187 0
-177 -178 -183 0
-177 178 183 0
177 178 -183 0
177 -178 183 0
-178 179 180 0
-178 -179 -180 0
178 -179 180 0
178 179 -180 0
179 -475 -476 -484 -485 0
-179 485 0
-179 475 0
-179 484 0
-179 476 0
-180 -181 -182 0
-180 181 182 0
180 181 -182 0
180 -181 182 0
-181 487 152 0
-181 473 149 0
-181 149 152 0
-181 487 149 0
-181 473 152 0
181 -149 -152 0
181 -473 -487 -152 0
181 -473 -487 -149 0
182 -480 -481 0
-182 480 0
-182 481 0
183 -184 185 0
183 184 -185 0
-183 184 185 0
-183 -184 -185 0
-184 143 148 0
-184 147 143 0
-184 147 148 0
184 -147 -143 0
184 -143 -148 0
184 -147 -148 0
-185 136 186 0
-185 133 135 186 0
185 -186 0
185 -135 -136 0
185 -133 -136 0
186 -133 -135 0
-186 133 0
-186 135 0
-187 -188 -189 0
-187 188 189 0
187 188 -189 0
187 -188 189 0
-188 132 138 0
-188 138 139 0
-188 132 139 0
188 -132 -139 0
188 -138 -139 0
188 -132 -138 0
189 190 -193 0
189 -190 193 0
-189 -190 -193 0
-189 190 193 0
190 191 -192 0
190 -191 192 0
-190 -191 -192 0
-190 191 192 0
191 -479 -482 0
-191 479 0
-191 482 0
192 -478 -483 0
-192 478 0
-192 483 0
193 -194 199 0
193 194 -199 0
-193 194 199 0
-193 -194 -199 0
-194 -195 -196 0
-194 195 196 0
194 195 -196 0
194 -195 196 0
195 -477 -484 0
-195 477 0
-195 484 0
196 197 -198 0
196 -197 198 0
-196 -197 -198 0
-196 197 198 0
197 -476 -485 0
-197 476 0
-197 485 0
198 -475 -486 0
-198 475 0
-198 486 0
-199 -200 -201 0
-199 200 201 0
199 200 -201 0
199 -200 201 0
200 -474 -487 0
-200 474 0
-200 487 0
201 202 -203 0
201 -202 203 0
-201 -202 -203 0
-201 202 203 0
202 -473 -488 0
-202 473 0
-202 488 0
203 -472 -489 0
-203 472 0
-203 489 0
-204 131 141 0
-204 141 142 0
-204 131 142 0
204 -141 -142 0
204 -131 -141 0
204 -131 -142 0
205 -206 207 0
205 206 -207 0
-205 206 207 0
-205 -206 -207 0
-206 155 158 0
-206 158 172 0
-206 155 172 0
206 -158 -172 0
206 -155 -158 0
206 -155 -172 0
-207 208 220 0
-207 -208 -220 0
207 -208 220 0
207 208 -220 0
208 -209 216 0
208 209 -216 0
-208 209 216 0
-208 -209 -216 0
-209 -210 -213 0
-209 210 213 0
209 210 -213 0
209 -210 213 0
-210 186 211 0
-210 -186 -211 0
210 -186 211 0
210 186 -211 0
-211 181 212 0
-211 -181 -212 0
211 -181 212 0
211 181 -212 0
-212 136 179 0
-212 144 145 179 0
212 -179 0
212 -136 -145 0
212 -136 -144 0
213 -214 215 0
213 214 -215 0
-213 214 215 0
-213 -214 -215 0
214 -170 -171 0
-214 170 0
-214 171 0
-215 148 162 0
-215 162 163 0
-215 148 163 0
215 -148 -163 0
215 -162 -163 0
215 -148 -162 0
-216 -217 -218 0
-216 217 218 0
216 217 -218 0
216 -217 218 0
-217 160 166 0
-217 160 165 0
-217 165 166 0
217 -165 -166 0
217 -160 -166 0
217 -160 -165 0
218 -193 219 0
218 193 -219 0
-218 193 219 0
-218 -193 -219 0
-219 -182 -190 0
-219 182 190 0
219 182 -190 0
219 -182 190 0
-220 159 168 0
-220 168 169 0
-220 159 169 0
220 -168 -169 0
220 -159 -168 0
220 -159 -169 0
-221 222 309 -344 -365 0
-221 222 309 344 365 0
221 -309 0
221 344 -365 0
221 -222 0
221 -344 365 0
-222 223 254 -268 -297 0
-222 -223 -254 -268 -297 0
-222 223 254 268 297 0
-222 -223 -254 268 297 0
222 223 -254 0
222 -223 254 0
222 268 -297 0
222 -268 297 0
223 224 -225 0
223 -224 225 0
-223 -224 -225 0
-223 224 225 0
-224 174 204 0
-224 174 176 0
-224 176 204 0
224 -176 -204 0
224 -174 -204 0
224 -174 -176 0
225 -226 253 0
225 226 -253 0
-225 226 253 0
-225 -226 -253 0
226 -227 236 0
226 227 -236 0
-226 227 236 0
-226 -227 -236 0
-227 -228 -233 0
-227 228 233 0
227 228 -233 0
227 -228 233 0
-228 229 230 0
-228 -229 -230 0
228 -229 230 0
228 229 -230 0
229 -478 -479 -482 -483 0
-229 483 0
-229 478 0
-229 482 0
-229 479 0
-230 231 232 0
-230 -231 -232 0
230 -231 232 0
230 231 -232 0
-231 195 198 0
-231 197 198 0
-231 195 197 0
231 -195 -197 0
231 -197 -198 0
231 -195 -198 0
-232 200 203 0
-232 202 203 0
-232 200 202 0
232 -200 -202 0
232 -202 -203 0
232 -200 -203 0
233 -234 235 0
233 234 -235 0
-233 234 235 0
-233 -234 -235 0
-234 190 194 0
-234 194 199 0
-234 190 199 0
234 -194 -199 0
234 -190 -194 0
234 -190 -199 0
-235 181 182 0
-235 179 182 0
-235 179 181 0
235 -179 -182 0
235 -179 -181 0
235 -181 -182 0
-236 -237 -238 0
-236 237 238 0
236 237 -238 0
236 -237 238 0
-237 178 184 0
-237 184 185 0
-237 178 185 0
237 -178 -185 0
237 -184 -185 0
237 -178 -184 0
238 239 -242 0
238 -239 242 0
-238 -239 -242 0
-238 239 242 0
239 240 -241 0
239 -240 241 0
-239 -240 -241 0
-239 240 241 0
240 -480 -482 0
-240 480 0
-240 482 0
241 -479 -483 0
-241 479 0
-241 483 0
242 -243 248 0
242 243 -248 0
-242 243 248 0
-242 -243 -248 0
-243 -244 -245 0
-243 244 245 0
243 244 -245 0
243 -244 245 0
244 -478 -484 0
-244 478 0
-244 484 0
245 246 -247 0
245 -246 247 0
-245 -246 -247 0
-245 246 247 0
246 -477 -485 0
-246 477 0
-246 485 0
247 -476 -486 0
-247 476 0
-247 486 0
-248 -249 -250 0
-248 249 250 0
248 249 -250 0
248 -249 250 0
249 -475 -487 0
-249 475 0
-249 487 0
250 251 -252 0
250 -251 252 0
-250 -251 -252 0
-250 251 252 0
251 -474 -488 0
-251 474 0
-251 488 0
252 -473 -489 0
-252 473 0
-252 489 0
-253 177 188 0
-253 188 189 0
-253 177 189 0
253 -188 -189 0
253 -177 -188 0
253 -177 -189 0
254 -255 256 0
254 255 -256 0
-254 255 256 0
-254 -255 -256 0
-255 206 220 0
-255 206 208 0
-255 208 220 0
255 -208 -220 0
255 -206 -220 0
255 -206 -208 0
-256 257 267 0
-256 -257 -267 0
256 -257 267 0
256 257 -267 0
257 -258 265 0
257 258 -265 0
-257 258 265 0
-257 -258 -265 0
-258 -259 -262 0
-258 259 262 0
258 259 -262 0
258 -259 262 0
-259 -260 -261 0
-259 260 261 0
259 260 -261 0
259 -260 261 0
-260 182 229 0
-260 191 192 229 0
260 -229 0
260 -182 -192 0
260 -182 -191 0
261 -231 232 0
261 231 -232 0
-261 231 232 0
-261 -231 -232 0
262 -263 264 0
262 263 -264 0
-262 263 264 0
-262 -263 -264 0
-263 194 199 0
-263 199 219 0
-263 194 219 0
263 -194 -219 0
263 -199 -219 0
263 -194 -199 0
-264 186 181 0
-264 181 212 0
-264 186 212 0
264 -181 -212 0
264 -186 -181 0
264 -186 -212 0
-265 238 266 0
-265 -238 -266 0
265 -238 266 0
265 238 -266 0
-266 214 210 0
-266 210 215 0
-266 214 215 0
266 -210 -215 0
266 -214 -210 0
266 -214 -215 0
-267 209 217 0
-267 217 218 0
-267 209 218 0
267 -217 -218 0
267 -209 -217 0
267 -209 -218 0
268 269 -270 0
268 -269 270 0
-268 -269 -270 0
-268 269 270 0
-269 224 253 0
-269 224 226 0
-269 226 253 0
269 -226 -253 0
269 -224 -253 0
269 -224 -226 0
270 -271 296 0
270 271 -296 0
-270 271 296 0
-270 -271 -296 0
271 -272 281 0
271 272 -281 0
-271 272 281 0
-271 -272 -281 0
-272 -273 -278 0
-272 273 278 0
272 273 -278 0
272 -273 278 0
-273 274 275 0
-273 -274 -275 0
273 -274 275 0
273 274 -275 0
-274 244 247 0
-274 246 247 0
-274 244 246 0
274 -244 -246 0
274 -246 -247 0
274 -244 -247 0
-275 -276 -277 0
-275 276 277 0
275 276 -277 0
275 -276 277 0
-276 249 252 0
-276 251 252 0
-276 249 251 0
276 -249 -251 0
276 -251 -252 0
276 -249 -252 0
277 -480 -483 0
-277 480 0
-277 483 0
278 -279 280 0
278 279 -280 0
-278 279 280 0
-278 -279 -280 0
-279 239 243 0
-279 243 248 0
-279 239 248 0
279 -243 -248 0
279 -239 -243 0
279 -239 -248 0
-280 229 231 0
-280 231 232 0
-280 229 232 0
280 -231 -232 0
280 -229 -231 0
280 -229 -232 0
-281 -282 -283 0
-281 282 283 0
281 282 -283 0
281 -282 283 0
-282 228 234 0
-282 234 235 0
-282 228 235 0
282 -228 -235 0
282 -234 -235 0
282 -228 -234 0
283 -284 289 0
283 284 -289 0
-283 284 289 0
-283 -284 -289 0
-284 -285 -286 0
-284 285 286 0
284 285 -286 0
284 -285 286 0
285 -479 -484 0
-285 479 0
-285 484 0
286 287 -288 0
286 -287 288 0
-286 -287 -288 0
-286 287 288 0
287 -478 -485 0
-287 478 0
-287 485 0
288 -477 -486 0
-288 477 0
-288 486 0
-289 290 291 0
-289 -290 -291 0
289 -290 291 0
289 290 -291 0
290 -479 -480 -482 -483 0
-290 483 0
-290 479 0
-290 482 0
-290 480 0
-291 -292 -293 0
-291 292 293 0
291 292 -293 0
291 -292 293 0
292 -476 -487 0
-292 476 0
-292 487 0
293 294 -295 0
293 -294 295 0
-293 -294 -295 0
-293 294 295 0
294 -475 -488 0
-294 475 0
-294 488 0
295 -474 -489 0
-295 474 0
-295 489 0
-296 227 237 0
-296 237 238 0
-296 227 238 0
296 -237 -238 0
296 -227 -237 0
296 -227 -238 0
297 -298 299 0
297 298 -299 0
-297 298 299 0
-297 -298 -299 0
-298 255 267 0
-298 255 257 0
-298 257 267 0
298 -257 -267 0
298 -255 -267 0
298 -255 -257 0
-299 300 308 0
-299 -300 -308 0
299 -300 308 0
299 300 -308 0
300 -301 306 0
300 301 -306 0
-300 301 306 0
-300 -301 -306 0
-301 -302 -304 0
-301 302 304 0
301 302 -304 0
301 -302 304 0
-302 -274 -303 0
-302 274 303 0
302 274 -303 0
302 -274 303 0
303 276 -277 0
303 -276 277 0
-303 -276 -277 0
-303 276 277 0
304 -279 305 0
304 279 -305 0
-304 279 305 0
-304 -279 -305 0
-305 231 232 0
-305 232 260 0
-305 231 260 0
305 -231 -260 0
305 -232 -260 0
305 -231 -232 0
-306 283 307 0
-306 -283 -307 0
306 -283 307 0
306 283 -307 0
-307 259 263 0
-307 263 264 0
-307 259 264 0
307 -259 -264 0
307 -263 -264 0
307 -259 -263 0
-308 238 258 0
-308 258 266 0
-308 238 266 0
308 -258 -266 0
308 -238 -258 0
308 -238 -266 0
-309 -310 -335 0
-309 310 335 0
309 310 -335 0
309 -310 335 0
310 -311 312 0
310 311 -312 0
-310 311 312 0
-310 -311 -312 0
-311 269 296 0
-311 269 271 0
-311 271 296 0
311 -271 -296 0
311 -269 -296 0
311 -269 -271 0
-312 313 334 0
-312 -313 -334 0
312 -313 334 0
312 313 -334 0
313 -314 323 0
313 314 -323 0
-313 314 323 0
-313 -314 -323 0
-314 -315 -320 0
-314 315 320 0
314 315 -320 0
314 -315 320 0
-315 -316 -317 0
-315 316 317 0
315 316 -317 0
315 -316 317 0
316 -480 -484 0
-316 480 0
-316 484 0
317 318 -319 0
317 -318 319 0
-317 -318 -319 0
-317 318 319 0
318 -479 -485 0
-318 479 0
-318 485 0
319 -478 -486 0
-319 478 0
-319 486 0
320 -321 322 0
320 321 -322 0
-320 321 322 0
-320 -321 -322 0
-321 290 284 0
-321 284 291 0
-321 290 291 0
321 -284 -291 0
321 -290 -284 0
321 -290 -291 0
-322 274 276 0
-322 276 277 0
-322 274 277 0
322 -276 -277 0
322 -274 -276 0
322 -274 -277 0
-323 -324 -325 0
-323 324 325 0
323 324 -325 0
323 -324 325 0
-324 273 279 0
-324 279 280 0
-324 273 280 0
324 -273 -280 0
324 -279 -280 0
324 -273 -279 0
325 -326 331 0
325 326 -331 0
-325 326 331 0
-325 -326 -331 0
-326 -327 -328 0
-326 327 328 0
326 327 -328 0
326 -327 328 0
327 -477 -487 0
-327 477 0
-327 487 0
328 329 -330 0
328 -329 330 0
-328 -329 -330 0
-328 329 330 0
329 -476 -488 0
-329 476 0
-329 488 0
330 -475 -489 0
-330 475 0
-330 489 0
-331 332 333 0
-331 -332 -333 0
331 -332 333 0
331 332 -333 0
-332 285 288 0
-332 287 288 0
-332 285 287 0
332 -285 -287 0
332 -287 -288 0
332 -285 -288 0
-333 292 295 0
-333 294 295 0
-333 292 294 0
333 -292 -294 0
333 -294 -295 0
333 -292 -295 0
-334 272 282 0
-334 282 283 0
-334 272 283 0
334 -282 -283 0
334 -272 -282 0
334 -272 -283 0
335 -336 337 0
335 336 -337 0
-335 336 337 0
-335 -336 -337 0
-336 298 308 0
-336 298 300 0
-336 300 308 0
336 -300 -308 0
336 -298 -308 0
336 -298 -300 0
-337 338 343 0
-337 -338 -343 0
337 -338 343 0
337 338 -343 0
338 -339 341 0
338 339 -341 0
-338 339 341 0
-338 -339 -341 0
-339 -321 -340 0
-339 321 340 0
339 321 -340 0
339 -321 340 0
340 -315 322 0
340 315 -322 0
-340 315 322 0
-340 -315 -322 0
-341 325 342 0
-341 -325 -342 0
341 -325 342 0
341 325 -342 0
-342 279 302 0
-342 302 305 0
-342 279 305 0
342 -279 -305 0
342 -302 -305 0
342 -279 -302 0
-343 283 301 0
-343 301 307 0
-343 283 307 0
343 -301 -307 0
343 -283 -301 0
343 -283 -307 0
344 -345 346 0
344 345 -346 0
-344 345 346 0
-344 -345 -346 0
-345 311 334 0
-345 311 313 0
-345 313 334 0
345 -313 -334 0
345 -311 -334 0
345 -311 -313 0
-346 347 364 0
-346 -347 -364 0
346 -347 364 0
346 347 -364 0
347 -348 357 0
347 348 -357 0
-347 348 357 0
-347 -348 -357 0
-348 -349 -354 0
-348 349 354 0
348 349 -354 0
348 -349 354 0
-349 -350 -351 0
-349 350 351 0
349 350 -351 0
349 -350 351 0
350 -478 -487 0
-350 478 0
-350 487 0
351 352 -353 0
351 -352 353 0
-351 -352 -353 0
-351 352 353 0
352 -477 -488 0
-352 477 0
-352 488 0
353 -476 -489 0
-353 476 0
-353 489 0
354 -355 356 0
354 355 -356 0
-354 355 356 0
-354 -355 -356 0
-355 326 332 0
-355 332 333 0
-355 326 333 0
355 -326 -333 0
355 -332 -333 0
355 -326 -332 0
-356 485 319 0
-356 479 316 0
-356 316 319 0
-356 485 316 0
-356 479 319 0
356 -316 -319 0
356 -479 -485 -319 0
356 -479 -485 -316 0
-357 -358 -359 0
-357 358 359 0
357 358 -359 0
357 -358 359 0
-358 315 321 0
-358 321 322 0
-358 315 322 0
358 -315 -322 0
358 -321 -322 0
358 -315 -321 0
359 360 -361 0
359 -360 361 0
-359 -360 -361 0
-359 360 361 0
-360 327 330 0
-360 329 330 0
-360 327 329 0
360 -327 -329 0
360 -329 -330 0
360 -327 -330 0
361 362 -363 0
361 -362 363 0
-361 -362 -363 0
-361 362 363 0
362 -480 -485 0
-362 480 0
-362 485 0
363 -479 -486 0
-363 479 0
-363 486 0
-364 314 324 0
-364 324 325 0
-364 314 325 0
364 -324 -325 0
364 -314 -324 0
364 -314 -325 0
365 -366 367 0
365 366 -367 0
-365 366 367 0
-365 -366 -367 0
-366 336 343 0
-366 336 338 0
-366 338 343 0
366 -338 -343 0
366 -336 -343 0
366 -336 -338 0
-367 368 374 0
-367 -368 -374 0
367 -368 374 0
367 368 -374 0
368 -369 373 0
368 369 -373 0
-368 369 373 0
-368 -369 -373 0
-369 -370 -372 0
-369 370 372 0
369 370 -372 0
369 -370 372 0
-370 -349 -371 0
-370 349 371 0
370 349 -371 0
370 -349 371 0
371 -356 360 0
371 356 -360 0
-371 356 360 0
-371 -356 -360 0
372 355 -361 0
372 -355 361 0
-372 -355 -361 0
-372 355 361 0
-373 315 321 0
-373 321 322 0
-373 315 322 0
373 -315 -322 0
373 -321 -322 0
373 -315 -321 0
-374 325 339 0
-374 339 342 0
-374 325 342 0
374 -339 -342 0
374 -325 -339 0
374 -325 -342 0
-375 376 429 438 447 0
-375 376 -429 -438 447 0
375 -447 0
375 -429 438 0
375 -376 0
375 429 -438 0
-376 377 394 -407 -420 0
-376 -377 -394 -407 -420 0
-376 377 394 407 420 0
-376 -377 -394 407 420 0
376 377 -394 0
376 -377 394 0
376 407 -420 0
376 -407 420 0
377 -378 379 0
377 378 -379 0
-377 378 379 0
-377 -378 -379 0
-378 345 364 0
-378 345 347 0
-378 347 364 0
378 -347 -364 0
378 -345 -364 0
378 -345 -347 0
-379 380 393 0
-379 -380 -393 0
379 -380 393 0
379 380 -393 0
380 -381 386 0
380 381 -386 0
-380 381 386 0
-380 -381 -386 0
-381 -382 -383 0
-381 382 383 0
381 382 -383 0
381 -382 383 0
-382 362 363 0
-382 360 362 0
-382 360 363 0
382 -360 -362 0
382 -362 -363 0
382 -360 -363 0
383 384 -385 0
383 -384 385 0
-383 -384 -385 0
-383 384 385 0
-384 350 353 0
-384 352 353 0
-384 350 352 0
384 -350 -352 0
384 -352 -353 0
384 -350 -353 0
385 -480 -486 0
-385 480 0
-385 486 0
-386 -387 -388 0
-386 387 388 0
386 387 -388 0
386 -387 388 0
-387 349 355 0
-387 355 356 0
-387 349 356 0
387 -349 -356 0
387 -355 -356 0
387 -349 -355 0
388 389 -390 0
388 -389 390 0
-388 -389 -390 0
-388 389 390 0
389 -479 -487 0
-389 479 0
-389 487 0
390 391 -392 0
390 -391 392 0
-390 -391 -392 0
-390 391 392 0
391 -478 -488 0
-391 478 0
-391 488 0
392 -477 -489 0
-392 477 0
-392 489 0
-393 348 358 0
-393 358 359 0
-393 348 359 0
393 -358 -359 0
393 -348 -358 0
393 -348 -359 0
394 -395 396 0
394 395 -396 0
-394 395 396 0
-394 -395 -396 0
-395 366 374 0
-395 366 368 0
-395 368 374 0
395 -368 -374 0
395 -366 -374 0
395 -366 -368 0
-396 -397 -398 0
-396 397 398 0
396 397 -398 0
396 -397 398 0
397 -369 -373 0
-397 369 0
-397 373 0
398 -399 406 0
398 399 -406 0
-398 399 406 0
-398 -399 -406 0
-399 -400 -403 0
-399 400 403 0
399 400 -403 0
399 -400 403 0
-400 401 402 0
-400 -401 -402 0
400 -401 402 0
400 401 -402 0
401 -479 -480 -485 -486 0
-401 486 0
-401 479 0
-401 485 0
-401 480 0
-402 -384 -385 0
-402 384 385 0
402 384 -385 0
402 -384 385 0
403 -404 405 0
403 404 -405 0
-403 404 405 0
-403 -404 -405 0
-404 349 356 0
-404 356 360 0
-404 349 360 0
404 -349 -360 0
404 -356 -360 0
404 -349 -356 0
-405 -389 -390 0
-405 389 390 0
405 389 -390 0
405 -389 390 0
-406 355 370 0
-406 355 361 0
-406 361 370 0
406 -361 -370 0
406 -355 -370 0
406 -355 -361 0
407 -408 409 0
407 408 -409 0
-407 408 409 0
-407 -408 -409 0
-408 378 393 0
-408 378 380 0
-408 380 393 0
408 -380 -393 0
408 -378 -393 0
408 -378 -380 0
-409 410 419 0
-409 -410 -419 0
409 -410 419 0
409 410 -419 0
410 -411 416 0
410 411 -416 0
-410 411 416 0
-410 -411 -416 0
-411 -412 -413 0
-411 412 413 0
411 412 -413 0
411 -412 413 0
412 -480 -487 0
-412 480 0
-412 487 0
413 414 -415 0
413 -414 415 0
-413 -414 -415 0
-413 414 415 0
414 -479 -488 0
-414 479 0
-414 488 0
415 -478 -489 0
-415 478 0
-415 489 0
-416 417 418 0
-416 -417 -418 0
416 -417 418 0
416 417 -418 0
-417 382 384 0
-417 384 385 0
-417 382 385 0
417 -384 -385 0
417 -382 -384 0
417 -382 -385 0
-418 488 392 0
-418 478 389 0
-418 389 392 0
-418 488 389 0
-418 478 392 0
418 -389 -392 0
418 -478 -488 -392 0
418 -478 -488 -389 0
-419 381 387 0
-419 387 388 0
-419 381 388 0
419 -387 -388 0
419 -381 -387 0
419 -381 -388 0
420 -421 422 0
420 421 -422 0
-420 421 422 0
-420 -421 -422 0
-421 395 398 0
-421 397 398 0
-421 397 395 0
421 -397 -398 0
421 -397 -395 0
421 -395 -398 0
-422 -423 -424 0
-422 423 424 0
422 423 -424 0
422 -423 424 0
423 -399 -406 0
-423 399 0
-423 406 0
424 -425 428 0
424 425 -428 0
-424 425 428 0
-424 -425 -428 0
-425 426 427 0
-425 -426 -427 0
425 -426 427 0
425 426 -427 0
-426 411 418 0
-426 -411 -418 0
426 -411 418 0
426 411 -418 0
-427 384 385 0
-427 401 385 0
-427 401 384 0
427 -401 -385 0
427 -401 -384 0
427 -384 -385 0
-428 400 404 0
-428 404 405 0
-428 400 405 0
428 -400 -405 0
428 -404 -405 0
428 -400 -404 0
429 -430 431 0
429 430 -431 0
-429 430 431 0
-429 -430 -431 0
-430 408 419 0
-430 408 410 0
-430 410 419 0
430 -410 -419 0
430 -408 -419 0
430 -408 -410 0
-431 432 437 0
-431 -432 -437 0
431 -432 437 0
431 432 -437 0
432 433 -434 0
432 -433 434 0
-432 -433 -434 0
-432 433 434 0
-433 412 415 0
-433 414 415 0
-433 412 414 0
433 -412 -414 0
433 -414 -415 0
433 -412 -415 0
434 435 -436 0
434 -435 436 0
-434 -435 -436 0
-434 435 436 0
435 -480 -488 0
-435 480 0
-435 488 0
436 -479 -489 0
-436 479 0
-436 489 0
-437 411 417 0
-437 417 418 0
-437 411 418 0
437 -411 -418 0
437 -417 -418 0
437 -411 -417 0
438 -439 440 0
438 439 -440 0
-438 439 440 0
-438 -439 -440 0
-439 421 424 0
-439 423 424 0
-439 423 421 0
439 -423 -424 0
439 -423 -421 0
439 -421 -424 0
-440 441 442 0
-440 -441 -442 0
440 -441 442 0
440 441 -442 0
441 -425 -428 0
-441 425 0
-441 428 0
-442 -443 -446 0
-442 443 446 0
442 443 -446 0
442 -443 446 0
-443 444 445 0
-443 -444 -445 0
443 -444 445 0
443 444 -445 0
444 -411 -418 0
-444 411 0
-444 418 0
-445 -433 -434 0
-445 433 434 0
445 433 -434 0
445 -433 434 0
446 -426 -427 0
-446 426 0
-446 427 0
-447 448 453 464 465 0
-447 -448 -453 -464 -465 0
-447 448 453 -464 -465 0
-447 -448 -453 464 465 0
447 448 -453 0
447 -448 453 0
447 -464 465 0
447 464 -465 0
448 -449 450 0
448 449 -450 0
-448 449 450 0
-448 -449 -450 0
-449 430 437 0
-449 430 432 0
-449 432 437 0
449 -432 -437 0
449 -430 -437 0
449 -430 -432 0
-450 -451 -452 0
-450 451 452 0
450 451 -452 0
450 -451 452 0
-451 435 436 0
-451 433 435 0
-451 433 436 0
451 -433 -435 0
451 -435 -436 0
451 -433 -436 0
452 -480 -489 0
-452 480 0
-452 489 0
453 -454 455 0
453 454 -455 0
-453 454 455 0
-453 -454 -455 0
-454 441 439 0
-454 439 442 0
-454 441 442 0
454 -439 -442 0
454 -441 -439 0
454 -441 -442 0
-455 -456 -463 0
-455 456 463 0
455 456 -463 0
455 -456 463 0
-456 -457 -462 0
-456 457 462 0
456 457 -462 0
456 -457 462 0
-457 458 459 0
-457 -458 -459 0
457 -458 459 0
457 458 -459 0
458 -433 -434 0
-458 433 0
-458 434 0
-459 460 0
459 -460 0
460 461 -452 0
-460 -461 0
-460 452 0
461 -479 -480 -488 -489 0
-461 489 0
-461 479 0
-461 488 0
-461 480 0
462 -444 -445 0
-462 444 0
-462 445 0
463 -443 -446 0
-463 443 0
-463 446 0
-464 449 451 0
-464 451 452 0
-464 449 452 0
464 -451 -452 0
464 -449 -451 0
464 -449 -452 0
465 -466 467 0
465 466 -467 0
-465 466 467 0
-465 -466 -467 0
-466 454 456 0
-466 456 463 0
-466 454 463 0
466 -456 -463 0
466 -454 -456 0
466 -454 -463 0
-467 -468 -471 0
-467 468 471 0
467 468 -471 0
467 -468 471 0
-468 -469 -470 0
-468 469 470 0
468 469 -470 0
468 -469 470 0
469 -458 -459 0
-469 458 0
-469 459 0
470 -461 -452 0
-470 461 0
-470 452 0
471 -457 -462 0
-471 457 0
-471 462 0
-490 0
2 0

