c Result of efficient AIG-to-CNF conversion using package CNF
p cnf 1942 7388
-2 3 866 1569 1782 0
2 -1782 0
2 -3 0
2 -1569 0
2 -866 0
-3 4 176 406 609 0
3 -609 0
3 -4 0
3 -406 0
3 -176 0
-4 5 6 18 54 0
-4 -5 -6 18 54 0
4 -54 0
4 5 -6 0
4 -18 0
4 -5 6 0
5 -1916 -1929 0
-5 1916 0
-5 1929 0
-6 7 0
6 -7 0
-7 8 0
7 -8 0
-8 9 0
8 -9 0
-9 10 0
9 -10 0
-10 11 0
10 -11 0
-11 12 0
11 -12 0
-12 13 0
12 -13 0
-13 14 0
13 -14 0
-14 15 0
14 -15 0
-15 16 0
15 -16 0
-16 17 0
16 -17 0
-17 5 0
17 -5 0
-18 19 31 33 48 0
-18 -19 -31 -33 -48 0
-18 19 31 -33 -48 0
-18 -19 -31 33 48 0
18 19 -31 0
18 -19 31 0
18 -33 48 0
18 33 -48 0
-19 20 0
19 -20 0
-20 21 0
20 -21 0
-21 22 0
21 -22 0
-22 23 0
22 -23 0
-23 24 0
23 -24 0
-24 25 0
24 -25 0
-25 26 0
25 -26 0
-26 27 0
26 -27 0
-27 28 0
27 -28 0
-28 29 0
28 -29 0
-29 1916 30 0
-29 1930 30 0
-29 -1916 -1930 -30 0
29 1916 -30 0
29 -1916 -1930 30 0
29 1930 -30 0
30 -1917 -1929 0
-30 1917 0
-30 1929 0
31 30 -32 0
31 -30 32 0
-31 -30 -32 0
-31 30 32 0
32 -1916 -1930 0
-32 1916 0
-32 1930 0
-33 34 0
33 -34 0
-34 35 0
34 -35 0
-35 36 0
35 -36 0
-36 37 0
36 -37 0
-37 38 0
37 -38 0
-38 39 0
38 -39 0
-39 40 0
39 -40 0
-40 41 0
40 -41 0
-41 42 0
41 -42 0
-42 43 0
42 -43 0
-43 1916 44 0
-43 -1916 -1931 -44 0
-43 1931 44 0
43 1916 -44 0
43 1931 -44 0
43 -1916 -1931 44 0
-44 1930 46 0
-44 -1930 -45 -47 0
-44 -1930 45 47 0
44 1930 -46 0
44 -1930 -45 47 0
44 -1930 45 -47 0
45 -1916 -30 0
-45 1916 0
-45 30 0
46 -1918 -1929 0
-46 1918 0
-46 1929 0
47 1917 -46 0
47 -1917 46 0
-47 -1917 -46 0
-47 1917 46 0
48 49 -50 0
48 -49 50 0
-48 -49 -50 0
-48 49 50 0
49 -1916 -1930 -30 0
-49 1916 0
-49 1930 0
-49 30 0
50 46 -51 0
50 -46 51 0
-50 -46 -51 0
-50 46 51 0
51 52 -53 0
51 -52 53 0
-51 -52 -53 0
-51 52 53 0
52 -1916 -1931 0
-52 1916 0
-52 1931 0
53 -1917 -1930 0
-53 1917 0
-53 1930 0
-54 -55 -71 83 0
-54 55 71 83 0
54 -83 0
54 -55 71 0
54 55 -71 0
-55 56 0
55 -56 0
-56 57 0
56 -57 0
-57 58 0
57 -58 0
-58 59 0
58 -59 0
-59 60 0
59 -60 0
-60 61 0
60 -61 0
-61 62 0
61 -62 0
-62 63 0
62 -63 0
-63 1916 64 0
-63 -1916 -1932 -64 0
-63 1932 64 0
63 1916 -64 0
63 1932 -64 0
63 -1916 -1932 64 0
-64 1931 66 0
-64 -1931 -65 -70 0
-64 -1931 65 70 0
64 1931 -66 0
64 -1931 -65 70 0
64 -1931 65 -70 0
65 -1916 -44 0
-65 1916 0
-65 44 0
-66 1930 67 0
-66 -1930 68 69 0
-66 -1930 -68 -69 0
66 1930 -67 0
66 -1930 68 -69 0
66 -1930 -68 69 0
67 -1919 -1929 0
-67 1919 0
-67 1929 0
68 1918 -67 0
68 -1918 67 0
-68 -1918 -67 0
-68 1918 67 0
-69 1929 0
-69 1917 0
-69 1916 1918 0
69 -1916 -1917 -1929 0
69 -1917 -1918 -1929 0
70 -1917 66 0
70 1917 -66 0
-70 1917 66 0
-70 -1917 -66 0
71 72 -73 0
71 -72 73 0
-71 -72 -73 0
-71 72 73 0
72 -49 -50 0
-72 49 0
-72 50 0
73 74 -75 0
73 -74 75 0
-73 -74 -75 0
-73 74 75 0
74 -46 -51 0
-74 46 0
-74 51 0
75 67 -76 0
75 -67 76 0
-75 -67 -76 0
-75 67 76 0
76 77 -78 0
76 -77 78 0
-76 -77 -78 0
-76 77 78 0
77 -1916 -1917 -1930 -1931 0
-77 1931 0
-77 1916 0
-77 1930 0
-77 1917 0
78 79 -82 0
78 -79 82 0
-78 -79 -82 0
-78 79 82 0
79 80 -81 0
79 -80 81 0
-79 -80 -81 0
-79 80 81 0
80 -1916 -1932 0
-80 1916 0
-80 1932 0
81 -1917 -1931 0
-81 1917 0
-81 1931 0
82 -1918 -1930 0
-82 1918 0
-82 1930 0
-83 84 105 125 150 0
-83 -84 -105 -125 -150 0
-83 84 105 -125 -150 0
-83 -84 -105 125 150 0
83 84 -105 0
83 -84 105 0
83 -125 150 0
83 125 -150 0
-84 85 0
84 -85 0
-85 86 0
85 -86 0
-86 87 0
86 -87 0
-87 88 0
87 -88 0
-88 89 0
88 -89 0
-89 90 0
89 -90 0
-90 91 0
90 -91 0
-91 1916 92 0
-91 -1916 -1933 -92 0
-91 1933 92 0
91 1916 -92 0
91 1933 -92 0
91 -1916 -1933 92 0
-92 1932 94 0
-92 -1932 -93 -104 0
-92 -1932 93 104 0
92 1932 -94 0
92 -1932 -93 104 0
92 -1932 93 -104 0
93 -1916 -64 0
-93 1916 0
-93 64 0
-94 1931 95 0
-94 -1931 100 101 0
-94 -1931 -100 -101 0
94 1931 -95 0
94 -1931 100 -101 0
94 -1931 -100 101 0
-95 1930 96 0
-95 -1930 97 98 0
-95 -1930 -97 -98 0
95 1930 -96 0
95 -1930 97 -98 0
95 -1930 -97 98 0
96 -1920 -1929 0
-96 1920 0
-96 1929 0
97 1919 -96 0
97 -1919 96 0
-97 -1919 -96 0
-97 1919 96 0
-98 47 99 0
-98 45 99 0
-98 68 99 0
98 -99 0
98 -45 -47 -68 0
-99 1929 0
-99 1918 0
-99 1917 1919 0
99 -1917 -1918 -1929 0
99 -1918 -1919 -1929 0
100 -1918 95 0
100 1918 -95 0
-100 1918 95 0
-100 -1918 -95 0
-101 102 103 0
101 -102 0
101 -103 0
102 -1917 -66 0
-102 1917 0
-102 66 0
103 -65 -70 0
-103 65 0
-103 70 0
104 -1917 94 0
104 1917 -94 0
-104 1917 94 0
-104 -1917 -94 0
105 106 -107 0
105 -106 107 0
-105 -106 -107 0
-105 106 107 0
106 -72 -73 0
-106 72 0
-106 73 0
107 108 -109 0
107 -108 109 0
-107 -108 -109 0
-107 108 109 0
108 -74 -75 0
-108 74 0
-108 75 0
109 110 -111 0
109 -110 111 0
-109 -110 -111 0
-109 110 111 0
110 -1916 -1933 0
-110 1916 0
-110 1933 0
111 -112 122 0
111 112 -122 0
-111 112 122 0
-111 -112 -122 0
112 96 -113 0
112 -96 113 0
-112 -96 -113 0
-112 96 113 0
113 -114 119 0
113 114 -119 0
-113 114 119 0
-113 -114 -119 0
114 115 -118 0
114 -115 118 0
-114 -115 -118 0
-114 115 118 0
115 116 -117 0
115 -116 117 0
-115 -116 -117 0
-115 116 117 0
116 -1917 -1932 0
-116 1917 0
-116 1932 0
117 -1918 -1931 0
-117 1918 0
-117 1931 0
118 -1919 -1930 0
-118 1919 0
-118 1930 0
-119 120 121 0
119 -120 0
119 -121 0
120 -1916 -1917 -1931 -1932 0
-120 1932 0
-120 1916 0
-120 1931 0
-120 1917 0
121 -1918 -1930 -79 0
-121 1918 0
-121 1930 0
-121 79 0
-122 123 124 0
122 -123 0
122 -124 0
123 -77 -78 0
-123 77 0
-123 78 0
124 -67 -76 0
-124 67 0
-124 76 0
-125 126 0
125 -126 0
-126 127 0
126 -127 0
-127 128 0
127 -128 0
-128 129 0
128 -129 0
-129 130 0
129 -130 0
-130 131 0
130 -131 0
-131 1916 132 0
-131 -1916 -1934 -132 0
-131 1934 132 0
131 1916 -132 0
131 1934 -132 0
131 -1916 -1934 132 0
-132 1933 134 0
-132 1917 133 134 0
-132 -1917 -133 134 0
-132 1917 -1933 -133 -134 0
-132 -1917 -1933 133 -134 0
132 1933 -134 0
132 -1917 -133 -134 0
132 1917 133 -134 0
132 1917 -1933 -133 134 0
132 -1917 -1933 133 134 0
133 -1916 -92 0
-133 1916 0
-133 92 0
-134 1932 135 0
-134 -1932 146 147 0
-134 -1932 -146 -147 0
134 1932 -135 0
134 -1932 146 -147 0
134 -1932 -146 147 0
-135 1931 136 0
-135 -1931 142 143 0
-135 -1931 -142 -143 0
135 1931 -136 0
135 -1931 142 -143 0
135 -1931 -142 143 0
-136 1930 137 0
-136 -1930 138 139 0
-136 -1930 -138 -139 0
136 1930 -137 0
136 -1930 138 -139 0
136 -1930 -138 139 0
137 -1921 -1929 0
-137 1921 0
-137 1929 0
138 1920 -137 0
138 -1920 137 0
-138 -1920 -137 0
-138 1920 137 0
-139 140 141 0
139 -140 0
139 -141 0
140 -1919 -96 0
-140 1919 0
-140 96 0
141 -97 -98 0
-141 97 0
-141 98 0
142 -1919 136 0
142 1919 -136 0
-142 1919 136 0
-142 -1919 -136 0
-143 144 145 0
143 -144 0
143 -145 0
144 -1918 -95 0
-144 1918 0
-144 95 0
145 -100 -101 0
-145 100 0
-145 101 0
146 -1918 135 0
146 1918 -135 0
-146 1918 135 0
-146 -1918 -135 0
-147 148 149 0
147 -148 0
147 -149 0
148 -1917 -94 0
-148 1917 0
-148 94 0
149 -93 -104 0
-149 93 0
-149 104 0
150 151 -152 0
150 -151 152 0
-150 -151 -152 0
-150 151 152 0
151 -106 -107 0
-151 106 0
-151 107 0
152 153 -154 0
152 -153 154 0
-152 -153 -154 0
-152 153 154 0
153 -108 -109 0
-153 108 0
-153 109 0
154 155 -156 0
154 -155 156 0
-154 -155 -156 0
-154 155 156 0
155 -112 -122 0
-155 112 0
-155 122 0
156 157 -158 0
156 -157 158 0
-156 -157 -158 0
-156 157 158 0
157 -1916 -1933 -111 0
-157 1916 0
-157 1933 0
-157 111 0
158 159 -162 0
158 -159 162 0
-158 -159 -162 0
-158 159 162 0
159 160 -161 0
159 -160 161 0
-159 -160 -161 0
-159 160 161 0
160 -1916 -1934 0
-160 1916 0
-160 1934 0
161 -1917 -1933 0
-161 1917 0
-161 1933 0
162 -163 173 0
162 163 -173 0
-162 163 173 0
-162 -163 -173 0
163 137 -164 0
163 -137 164 0
-163 -137 -164 0
-163 137 164 0
164 -165 170 0
164 165 -170 0
-164 165 170 0
-164 -165 -170 0
165 166 -169 0
165 -166 169 0
-165 -166 -169 0
-165 166 169 0
166 167 -168 0
166 -167 168 0
-166 -167 -168 0
-166 167 168 0
167 -1918 -1932 0
-167 1918 0
-167 1932 0
168 -1919 -1931 0
-168 1919 0
-168 1931 0
169 -1920 -1930 0
-169 1920 0
-169 1930 0
-170 171 172 0
170 -171 0
170 -172 0
171 -1917 -1918 -1931 -1932 0
-171 1932 0
-171 1917 0
-171 1931 0
-171 1918 0
172 -1919 -1930 -115 0
-172 1919 0
-172 1930 0
-172 115 0
-173 174 175 0
173 -174 0
173 -175 0
174 -114 -119 0
-174 114 0
-174 119 0
175 -96 -113 0
-175 96 0
-175 113 0
-176 -177 -209 243 0
-176 177 209 243 0
176 -243 0
176 -177 209 0
176 177 -209 0
-177 178 0
177 -178 0
-178 179 0
178 -179 0
-179 180 0
179 -180 0
-180 181 0
180 -181 0
-181 182 0
181 -182 0
-182 183 0
182 -183 0
-183 1916 184 0
-183 -1916 -1935 -184 0
-183 1935 184 0
183 1916 -184 0
183 1935 -184 0
183 -1916 -1935 184 0
-184 1934 186 0
-184 -1934 -185 -208 0
-184 -1934 185 208 0
184 1934 -186 0
184 -1934 -185 208 0
184 -1934 185 -208 0
185 -1916 -132 0
-185 1916 0
-185 132 0
-186 1933 187 0
-186 -1918 187 -204 0
-186 1918 187 204 0
-186 -1918 -1933 -187 204 0
-186 1918 -1933 -187 -204 0
186 1933 -187 0
186 1918 -1933 187 -204 0
186 1918 -187 204 0
186 -1918 -187 -204 0
186 -1918 -1933 187 204 0
-187 1932 188 0
-187 -1932 200 201 0
-187 -1932 -200 -201 0
187 1932 -188 0
187 -1932 200 -201 0
187 -1932 -200 201 0
-188 1931 189 0
-188 -1931 195 196 0
-188 -1931 -195 -196 0
188 1931 -189 0
188 -1931 195 -196 0
188 -1931 -195 196 0
-189 1930 190 0
-189 -1930 191 192 0
-189 -1930 -191 -192 0
189 1930 -190 0
189 -1930 191 -192 0
189 -1930 -191 192 0
190 -1922 -1929 0
-190 1922 0
-190 1929 0
191 1921 -190 0
191 -1921 190 0
-191 -1921 -190 0
-191 1921 190 0
-192 98 193 0
-192 193 194 0
192 -193 0
192 -98 -194 0
-193 1929 0
-193 1920 0
-193 1919 1921 0
193 -1919 -1920 -1929 0
193 -1920 -1921 -1929 0
194 -97 -138 0
-194 97 0
-194 138 0
195 -1920 189 0
195 1920 -189 0
-195 1920 189 0
-195 -1920 -189 0
-196 101 197 0
-196 197 199 0
196 -197 0
196 -101 -199 0
-197 198 142 0
-197 144 198 0
197 -198 0
197 -144 -142 0
198 -1919 -136 0
-198 1919 0
-198 136 0
199 -100 -142 0
-199 100 0
-199 142 0
200 -1919 188 0
200 1919 -188 0
-200 1919 188 0
-200 -1919 -188 0
-201 93 202 0
-201 202 203 0
201 -202 0
201 -93 -203 0
-202 148 135 0
-202 1918 148 0
-202 1918 135 0
202 -1918 -148 0
202 -148 -135 0
202 -1918 -135 0
203 -104 -146 0
-203 104 0
-203 146 0
-204 205 206 0
204 -205 0
204 -206 0
205 -1917 -134 0
-205 1917 0
-205 134 0
206 -133 -207 0
-206 133 0
-206 207 0
207 -1917 134 0
207 1917 -134 0
-207 1917 134 0
-207 -1917 -134 0
208 -1917 186 0
208 1917 -186 0
-208 1917 186 0
-208 -1917 -186 0
209 -210 240 0
209 210 -240 0
-209 210 240 0
-209 -210 -240 0
210 -211 237 0
210 211 -237 0
-210 211 237 0
-210 -211 -237 0
211 212 -213 0
211 -212 213 0
-211 -212 -213 0
-211 212 213 0
212 -163 -173 0
-212 163 0
-212 173 0
213 214 -215 0
213 -214 215 0
-213 -214 -215 0
-213 214 215 0
214 -159 -162 0
-214 159 0
-214 162 0
215 216 -223 0
215 -216 223 0
-215 -216 -223 0
-215 216 223 0
216 217 -218 0
216 -217 218 0
-216 -217 -218 0
-216 217 218 0
217 -1916 -1917 -1933 -1934 0
-217 1934 0
-217 1916 0
-217 1933 0
-217 1917 0
218 219 -222 0
218 -219 222 0
-218 -219 -222 0
-218 219 222 0
219 220 -221 0
219 -220 221 0
-219 -220 -221 0
-219 220 221 0
220 -1916 -1935 0
-220 1916 0
-220 1935 0
221 -1917 -1934 0
-221 1917 0
-221 1934 0
222 -1918 -1933 0
-222 1918 0
-222 1933 0
223 -224 234 0
223 224 -234 0
-223 224 234 0
-223 -224 -234 0
224 190 -225 0
224 -190 225 0
-224 -190 -225 0
-224 190 225 0
225 -226 231 0
225 226 -231 0
-225 226 231 0
-225 -226 -231 0
226 227 -230 0
226 -227 230 0
-226 -227 -230 0
-226 227 230 0
227 228 -229 0
227 -228 229 0
-227 -228 -229 0
-227 228 229 0
228 -1919 -1932 0
-228 1919 0
-228 1932 0
229 -1920 -1931 0
-229 1920 0
-229 1931 0
230 -1921 -1930 0
-230 1921 0
-230 1930 0
-231 232 233 0
231 -232 0
231 -233 0
232 -1918 -1919 -1931 -1932 0
-232 1932 0
-232 1918 0
-232 1931 0
-232 1919 0
233 -1920 -1930 -166 0
-233 1920 0
-233 1930 0
-233 166 0
-234 235 236 0
234 -235 0
234 -236 0
235 -165 -170 0
-235 165 0
-235 170 0
236 -137 -164 0
-236 137 0
-236 164 0
-237 238 239 0
237 -238 0
237 -239 0
238 -157 -158 0
-238 157 0
-238 158 0
239 -155 -156 0
-239 155 0
-239 156 0
-240 241 242 0
240 -241 0
240 -242 0
241 -153 -154 0
-241 153 0
-241 154 0
242 -151 -152 0
-242 151 0
-242 152 0
-243 244 279 319 360 0
-243 -244 -279 -319 -360 0
-243 244 279 -319 -360 0
-243 -244 -279 319 360 0
243 244 -279 0
243 -244 279 0
243 -319 360 0
243 319 -360 0
-244 245 0
244 -245 0
-245 246 0
245 -246 0
-246 247 0
246 -247 0
-247 248 0
247 -248 0
-248 249 0
248 -249 0
-249 1916 250 0
-249 -1916 -1936 -250 0
-249 1936 250 0
249 1916 -250 0
249 1936 -250 0
249 -1916 -1936 250 0
-250 1935 252 0
-250 1917 251 252 0
-250 -1917 -251 252 0
-250 1917 -1935 -251 -252 0
-250 -1917 -1935 251 -252 0
250 1935 -252 0
250 -1917 -251 -252 0
250 1917 251 -252 0
250 1917 -1935 -251 252 0
250 -1917 -1935 251 252 0
251 -1916 -184 0
-251 1916 0
-251 184 0
-252 1934 253 0
-252 -1934 275 276 0
-252 -1934 -275 -276 0
252 1934 -253 0
252 -1934 275 -276 0
252 -1934 -275 276 0
-253 1933 254 0
-253 -1933 270 271 0
-253 -1933 -270 -271 0
253 1933 -254 0
253 -1933 270 -271 0
253 -1933 -270 271 0
-254 1932 255 0
-254 -1932 266 267 0
-254 -1932 -266 -267 0
254 1932 -255 0
254 -1932 266 -267 0
254 -1932 -266 267 0
-255 1931 256 0
-255 -1931 262 263 0
-255 -1931 -262 -263 0
255 1931 -256 0
255 -1931 262 -263 0
255 -1931 -262 263 0
-256 1930 257 0
-256 -1930 258 259 0
-256 -1930 -258 -259 0
256 1930 -257 0
256 -1930 258 -259 0
256 -1930 -258 259 0
257 -1923 -1929 0
-257 1923 0
-257 1929 0
258 1922 -257 0
258 -1922 257 0
-258 -1922 -257 0
-258 1922 257 0
-259 260 261 0
259 -260 0
259 -261 0
260 -1921 -190 0
-260 1921 0
-260 190 0
261 -191 -192 0
-261 191 0
-261 192 0
262 -1921 256 0
262 1921 -256 0
-262 1921 256 0
-262 -1921 -256 0
-263 264 265 0
263 -264 0
263 -265 0
264 -1920 -189 0
-264 1920 0
-264 189 0
265 -195 -196 0
-265 195 0
-265 196 0
266 -1920 255 0
266 1920 -255 0
-266 1920 255 0
-266 -1920 -255 0
-267 268 269 0
267 -268 0
267 -269 0
268 -1919 -188 0
-268 1919 0
-268 188 0
269 -200 -201 0
-269 200 0
-269 201 0
270 -1919 254 0
270 1919 -254 0
-270 1919 254 0
-270 -1919 -254 0
-271 272 273 0
271 -272 0
271 -273 0
272 -1918 -187 0
-272 1918 0
-272 187 0
273 -274 -204 0
-273 274 0
-273 204 0
274 -1918 187 0
274 1918 -187 0
-274 1918 187 0
-274 -1918 -187 0
275 -1918 253 0
275 1918 -253 0
-275 1918 253 0
-275 -1918 -253 0
-276 277 278 0
276 -277 0
276 -278 0
277 -1917 -186 0
-277 1917 0
-277 186 0
278 -185 -208 0
-278 185 0
-278 208 0
279 -280 316 0
279 280 -316 0
-279 280 316 0
-279 -280 -316 0
280 -281 313 0
280 281 -313 0
-280 281 313 0
-280 -281 -313 0
281 282 -283 0
281 -282 283 0
-281 -282 -283 0
-281 282 283 0
282 -224 -234 0
-282 224 0
-282 234 0
283 284 -285 0
283 -284 285 0
-283 -284 -285 0
-283 284 285 0
284 -216 -223 0
-284 216 0
-284 223 0
285 286 -297 0
285 -286 297 0
-285 -286 -297 0
-285 286 297 0
286 287 -288 0
286 -287 288 0
-286 -287 -288 0
-286 287 288 0
287 -1916 -1936 0
-287 1916 0
-287 1936 0
288 -289 294 0
288 289 -294 0
-288 289 294 0
-288 -289 -294 0
289 290 -293 0
289 -290 293 0
-289 -290 -293 0
-289 290 293 0
290 291 -292 0
290 -291 292 0
-290 -291 -292 0
-290 291 292 0
291 -1917 -1935 0
-291 1917 0
-291 1935 0
292 -1918 -1934 0
-292 1918 0
-292 1934 0
293 -1919 -1933 0
-293 1919 0
-293 1933 0
-294 295 296 0
294 -295 0
294 -296 0
295 -1916 -1917 -1934 -1935 0
-295 1935 0
-295 1916 0
-295 1934 0
-295 1917 0
296 -1918 -1933 -219 0
-296 1918 0
-296 1933 0
-296 219 0
297 -298 310 0
297 298 -310 0
-297 298 310 0
-297 -298 -310 0
298 299 -300 0
298 -299 300 0
-298 -299 -300 0
-298 299 300 0
299 -217 -218 0
-299 217 0
-299 218 0
300 257 -301 0
300 -257 301 0
-300 -257 -301 0
-300 257 301 0
301 -302 307 0
301 302 -307 0
-301 302 307 0
-301 -302 -307 0
302 303 -306 0
302 -303 306 0
-302 -303 -306 0
-302 303 306 0
303 304 -305 0
303 -304 305 0
-303 -304 -305 0
-303 304 305 0
304 -1920 -1932 0
-304 1920 0
-304 1932 0
305 -1921 -1931 0
-305 1921 0
-305 1931 0
306 -1922 -1930 0
-306 1922 0
-306 1930 0
-307 308 309 0
307 -308 0
307 -309 0
308 -1919 -1920 -1931 -1932 0
-308 1932 0
-308 1919 0
-308 1931 0
-308 1920 0
309 -1921 -1930 -227 0
-309 1921 0
-309 1930 0
-309 227 0
-310 311 312 0
310 -311 0
310 -312 0
311 -226 -231 0
-311 226 0
-311 231 0
312 -190 -225 0
-312 190 0
-312 225 0
-313 314 315 0
313 -314 0
313 -315 0
314 -214 -215 0
-314 214 0
-314 215 0
315 -212 -213 0
-315 212 0
-315 213 0
-316 317 318 0
316 -317 0
316 -318 0
317 -211 -237 0
-317 211 0
-317 237 0
318 -210 -240 0
-318 210 0
-318 240 0
-319 320 0
319 -320 0
-320 321 0
320 -321 0
-321 322 0
321 -322 0
-322 323 0
322 -323 0
-323 1916 324 0
-323 -1916 -1937 -324 0
-323 1937 324 0
323 1916 -324 0
323 1937 -324 0
323 -1916 -1937 324 0
-324 1936 326 0
-324 -1936 -325 -359 0
-324 -1936 325 359 0
324 1936 -326 0
324 -1936 -325 359 0
324 -1936 325 -359 0
325 -1916 -250 0
-325 1916 0
-325 250 0
-326 1935 327 0
-326 -1918 327 -355 0
-326 1918 327 355 0
-326 -1918 -1935 -327 355 0
-326 1918 -1935 -327 -355 0
326 1935 -327 0
326 1918 -1935 327 -355 0
326 1918 -327 355 0
326 -1918 -327 -355 0
326 -1918 -1935 327 355 0
-327 1934 328 0
-327 -1919 328 -352 0
-327 1919 328 352 0
-327 -1919 -1934 -328 352 0
-327 1919 -1934 -328 -352 0
327 1934 -328 0
327 1919 -1934 328 -352 0
327 1919 -328 352 0
327 -1919 -328 -352 0
327 -1919 -1934 328 352 0
-328 1933 329 0
-328 -1920 329 -349 0
-328 1920 329 349 0
-328 -1920 -1933 -329 349 0
-328 1920 -1933 -329 -349 0
328 1933 -329 0
328 1920 -1933 329 -349 0
328 1920 -329 349 0
328 -1920 -329 -349 0
328 -1920 -1933 329 349 0
-329 1932 330 0
-329 -1921 330 -344 0
-329 1921 330 344 0
-329 -1921 -1932 -330 344 0
-329 1921 -1932 -330 -344 0
329 1932 -330 0
329 1921 -1932 330 -344 0
329 1921 -330 344 0
329 -1921 -330 -344 0
329 -1921 -1932 330 344 0
-330 1931 331 0
-330 -1931 338 339 0
-330 -1931 -338 -339 0
330 1931 -331 0
330 -1931 338 -339 0
330 -1931 -338 339 0
-331 1930 332 0
-331 -1930 333 334 0
-331 -1930 -333 -334 0
331 1930 -332 0
331 -1930 333 -334 0
331 -1930 -333 334 0
332 -1924 -1929 0
-332 1924 0
-332 1929 0
333 1923 -332 0
333 -1923 332 0
-333 -1923 -332 0
-333 1923 332 0
-334 194 336 0
-334 335 336 0
-334 98 336 0
334 -336 0
334 -98 -194 -335 0
335 -191 -258 0
-335 191 0
-335 258 0
-336 193 337 0
-336 337 335 0
336 -337 0
336 -193 -335 0
-337 1929 0
-337 1922 0
-337 1921 1923 0
337 -1921 -1922 -1929 0
337 -1922 -1923 -1929 0
338 -1922 331 0
338 1922 -331 0
-338 1922 331 0
-338 -1922 -331 0
-339 199 341 0
-339 340 341 0
-339 101 341 0
339 -341 0
339 -101 -199 -340 0
340 -195 -262 0
-340 195 0
-340 262 0
-341 264 342 343 0
-341 342 262 343 0
341 -343 0
341 -342 0
341 -264 -262 0
342 -1921 -256 0
-342 1921 0
-342 256 0
343 -197 -340 0
-343 197 0
-343 340 0
-344 203 346 0
-344 93 346 0
-344 345 346 0
344 -346 0
344 -93 -203 -345 0
345 -200 -266 0
-345 200 0
-345 266 0
-346 202 347 348 0
-346 347 348 345 0
346 -348 0
346 -347 0
346 -202 -345 0
347 -1920 -255 0
-347 1920 0
-347 255 0
348 -268 -266 0
-348 268 0
-348 266 0
-349 274 350 0
-349 204 350 0
-349 270 350 0
349 -350 0
349 -274 -204 -270 0
-350 351 270 0
-350 272 351 0
350 -351 0
350 -272 -270 0
351 -1919 -254 0
-351 1919 0
-351 254 0
-352 208 353 0
-352 185 353 0
-352 275 353 0
352 -353 0
352 -185 -208 -275 0
-353 354 275 0
-353 277 354 0
353 -354 0
353 -277 -275 0
354 -1918 -253 0
-354 1918 0
-354 253 0
-355 356 357 0
355 -356 0
355 -357 0
356 -1917 -252 0
-356 1917 0
-356 252 0
357 -251 -358 0
-357 251 0
-357 358 0
358 -1917 252 0
358 1917 -252 0
-358 1917 252 0
-358 -1917 -252 0
359 -1917 326 0
359 1917 -326 0
-359 1917 326 0
-359 -1917 -326 0
360 -361 403 0
360 361 -403 0
-360 361 403 0
-360 -361 -403 0
361 -362 400 0
361 362 -400 0
-361 362 400 0
-361 -362 -400 0
362 -363 397 0
362 363 -397 0
-362 363 397 0
-362 -363 -397 0
363 364 -365 0
363 -364 365 0
-363 -364 -365 0
-363 364 365 0
364 -286 -297 0
-364 286 0
-364 297 0
365 366 -381 0
365 -366 381 0
-365 -366 -381 0
-365 366 381 0
366 367 -368 0
366 -367 368 0
-366 -367 -368 0
-366 367 368 0
367 -1916 -1936 -288 0
-367 1916 0
-367 1936 0
-367 288 0
368 369 -372 0
368 -369 372 0
-368 -369 -372 0
-368 369 372 0
369 370 -371 0
369 -370 371 0
-369 -370 -371 0
-369 370 371 0
370 -1916 -1937 0
-370 1916 0
-370 1937 0
371 -1917 -1936 0
-371 1917 0
-371 1936 0
372 -373 378 0
372 373 -378 0
-372 373 378 0
-372 -373 -378 0
373 374 -377 0
373 -374 377 0
-373 -374 -377 0
-373 374 377 0
374 375 -376 0
374 -375 376 0
-374 -375 -376 0
-374 375 376 0
375 -1918 -1935 0
-375 1918 0
-375 1935 0
376 -1919 -1934 0
-376 1919 0
-376 1934 0
377 -1920 -1933 0
-377 1920 0
-377 1933 0
-378 379 380 0
378 -379 0
378 -380 0
379 -1917 -1918 -1934 -1935 0
-379 1935 0
-379 1917 0
-379 1934 0
-379 1918 0
380 -1919 -1933 -290 0
-380 1919 0
-380 1933 0
-380 290 0
381 -382 394 0
381 382 -394 0
-381 382 394 0
-381 -382 -394 0
382 383 -384 0
382 -383 384 0
-382 -383 -384 0
-382 383 384 0
383 -289 -294 0
-383 289 0
-383 294 0
384 332 -385 0
384 -332 385 0
-384 -332 -385 0
-384 332 385 0
385 -386 391 0
385 386 -391 0
-385 386 391 0
-385 -386 -391 0
386 387 -390 0
386 -387 390 0
-386 -387 -390 0
-386 387 390 0
387 388 -389 0
387 -388 389 0
-387 -388 -389 0
-387 388 389 0
388 -1921 -1932 0
-388 1921 0
-388 1932 0
389 -1922 -1931 0
-389 1922 0
-389 1931 0
390 -1923 -1930 0
-390 1923 0
-390 1930 0
-391 392 393 0
391 -392 0
391 -393 0
392 -1920 -1921 -1931 -1932 0
-392 1932 0
-392 1920 0
-392 1931 0
-392 1921 0
393 -1922 -1930 -303 0
-393 1922 0
-393 1930 0
-393 303 0
-394 395 396 0
394 -395 0
394 -396 0
395 -302 -307 0
-395 302 0
-395 307 0
396 -257 -301 0
-396 257 0
-396 301 0
-397 398 399 0
397 -398 0
397 -399 0
398 -299 -300 0
-398 299 0
-398 300 0
399 -298 -310 0
-399 298 0
-399 310 0
-400 401 402 0
400 -401 0
400 -402 0
401 -284 -285 0
-401 284 0
-401 285 0
402 -282 -283 0
-402 282 0
-402 283 0
-403 210 404 0
-403 240 404 0
-403 280 404 0
403 -404 0
403 -210 -240 -280 0
-404 405 280 0
-404 317 405 0
404 -405 0
404 -317 -280 0
405 -281 -313 0
-405 281 0
-405 313 0
-406 407 453 505 550 0
-406 -407 -453 -505 -550 0
-406 407 453 -505 -550 0
-406 -407 -453 505 550 0
406 407 -453 0
406 -407 453 0
406 -505 550 0
406 505 -550 0
-407 408 0
407 -408 0
-408 409 0
408 -409 0
-409 410 0
409 -410 0
-410 1916 411 0
-410 -1916 -1938 -411 0
-410 1938 411 0
410 1916 -411 0
410 1938 -411 0
410 -1916 -1938 411 0
-411 1937 413 0
-411 1917 412 413 0
-411 -1917 -412 413 0
-411 1917 -1937 -412 -413 0
-411 -1917 -1937 412 -413 0
411 1937 -413 0
411 -1917 -412 -413 0
411 1917 412 -413 0
411 1917 -1937 -412 413 0
411 -1917 -1937 412 413 0
412 -1916 -324 0
-412 1916 0
-412 324 0
-413 1936 414 0
-413 -1936 449 450 0
-413 -1936 -449 -450 0
413 1936 -414 0
413 -1936 449 -450 0
413 -1936 -449 450 0
-414 1935 415 0
-414 -1935 444 445 0
-414 -1935 -444 -445 0
414 1935 -415 0
414 -1935 444 -445 0
414 -1935 -444 445 0
-415 1934 416 0
-415 -1934 439 440 0
-415 -1934 -439 -440 0
415 1934 -416 0
415 -1934 439 -440 0
415 -1934 -439 440 0
-416 1933 417 0
-416 -1933 434 435 0
-416 -1933 -434 -435 0
416 1933 -417 0
416 -1933 434 -435 0
416 -1933 -434 435 0
-417 1932 418 0
-417 -1932 429 430 0
-417 -1932 -429 -430 0
417 1932 -418 0
417 -1932 429 -430 0
417 -1932 -429 430 0
-418 1931 419 0
-418 -1931 425 426 0
-418 -1931 -425 -426 0
418 1931 -419 0
418 -1931 425 -426 0
418 -1931 -425 426 0
-419 1930 420 0
-419 -1930 421 422 0
-419 -1930 -421 -422 0
419 1930 -420 0
419 -1930 421 -422 0
419 -1930 -421 422 0
420 -1925 -1929 0
-420 1925 0
-420 1929 0
421 1924 -420 0
421 -1924 420 0
-421 -1924 -420 0
-421 1924 420 0
-422 423 424 0
422 -423 0
422 -424 0
423 -1923 -332 0
-423 1923 0
-423 332 0
424 -333 -334 0
-424 333 0
-424 334 0
425 -1923 419 0
425 1923 -419 0
-425 1923 419 0
-425 -1923 -419 0
-426 427 428 0
426 -427 0
426 -428 0
427 -1922 -331 0
-427 1922 0
-427 331 0
428 -338 -339 0
-428 338 0
-428 339 0
429 -1922 418 0
429 1922 -418 0
-429 1922 418 0
-429 -1922 -418 0
-430 431 432 0
430 -431 0
430 -432 0
431 -1921 -330 0
-431 1921 0
-431 330 0
432 -433 -344 0
-432 433 0
-432 344 0
433 -1921 330 0
433 1921 -330 0
-433 1921 330 0
-433 -1921 -330 0
434 -1921 417 0
434 1921 -417 0
-434 1921 417 0
-434 -1921 -417 0
-435 436 437 0
435 -436 0
435 -437 0
436 -1920 -329 0
-436 1920 0
-436 329 0
437 -438 -349 0
-437 438 0
-437 349 0
438 -1920 329 0
438 1920 -329 0
-438 1920 329 0
-438 -1920 -329 0
439 -1920 416 0
439 1920 -416 0
-439 1920 416 0
-439 -1920 -416 0
-440 441 442 0
440 -441 0
440 -442 0
441 -1919 -328 0
-441 1919 0
-441 328 0
442 -443 -352 0
-442 443 0
-442 352 0
443 -1919 328 0
443 1919 -328 0
-443 1919 328 0
-443 -1919 -328 0
444 -1919 415 0
444 1919 -415 0
-444 1919 415 0
-444 -1919 -415 0
-445 446 447 0
445 -446 0
445 -447 0
446 -1918 -327 0
-446 1918 0
-446 327 0
447 -448 -355 0
-447 448 0
-447 355 0
448 -1918 327 0
448 1918 -327 0
-448 1918 327 0
-448 -1918 -327 0
449 -1918 414 0
449 1918 -414 0
-449 1918 414 0
-449 -1918 -414 0
-450 451 452 0
450 -451 0
450 -452 0
451 -1917 -326 0
-451 1917 0
-451 326 0
452 -325 -359 0
-452 325 0
-452 359 0
453 -454 502 0
453 454 -502 0
-453 454 502 0
-453 -454 -502 0
454 -455 499 0
454 455 -499 0
-454 455 499 0
-454 -455 -499 0
455 -456 496 0
455 456 -496 0
-455 456 496 0
-455 -456 -496 0
456 -457 493 0
456 457 -493 0
-456 457 493 0
-456 -457 -493 0
457 458 -477 0
457 -458 477 0
-457 -458 -477 0
-457 458 477 0
458 459 -460 0
458 -459 460 0
-458 -459 -460 0
-458 459 460 0
459 -369 -372 0
-459 369 0
-459 372 0
460 461 -466 0
460 -461 466 0
-460 -461 -466 0
-460 461 466 0
461 462 -465 0
461 -462 465 0
-461 -462 -465 0
-461 462 465 0
462 463 -464 0
462 -463 464 0
-462 -463 -464 0
-462 463 464 0
463 -1916 -1938 0
-463 1916 0
-463 1938 0
464 -1917 -1937 0
-464 1917 0
-464 1937 0
465 -1918 -1936 0
-465 1918 0
-465 1936 0
466 -467 474 0
466 467 -474 0
-466 467 474 0
-466 -467 -474 0
467 468 -469 0
467 -468 469 0
-467 -468 -469 0
-467 468 469 0
468 -1916 -1917 -1936 -1937 0
-468 1937 0
-468 1916 0
-468 1936 0
-468 1917 0
469 470 -473 0
469 -470 473 0
-469 -470 -473 0
-469 470 473 0
470 471 -472 0
470 -471 472 0
-470 -471 -472 0
-470 471 472 0
471 -1919 -1935 0
-471 1919 0
-471 1935 0
472 -1920 -1934 0
-472 1920 0
-472 1934 0
473 -1921 -1933 0
-473 1921 0
-473 1933 0
-474 475 476 0
474 -475 0
474 -476 0
475 -1918 -1919 -1934 -1935 0
-475 1935 0
-475 1918 0
-475 1934 0
-475 1919 0
476 -1920 -1933 -374 0
-476 1920 0
-476 1933 0
-476 374 0
477 -478 490 0
477 478 -490 0
-477 478 490 0
-477 -478 -490 0
478 479 -480 0
478 -479 480 0
-478 -479 -480 0
-478 479 480 0
479 -373 -378 0
-479 373 0
-479 378 0
480 420 -481 0
480 -420 481 0
-480 -420 -481 0
-480 420 481 0
481 -482 487 0
481 482 -487 0
-481 482 487 0
-481 -482 -487 0
482 483 -486 0
482 -483 486 0
-482 -483 -486 0
-482 483 486 0
483 484 -485 0
483 -484 485 0
-483 -484 -485 0
-483 484 485 0
484 -1922 -1932 0
-484 1922 0
-484 1932 0
485 -1923 -1931 0
-485 1923 0
-485 1931 0
486 -1924 -1930 0
-486 1924 0
-486 1930 0
-487 488 489 0
487 -488 0
487 -489 0
488 -1921 -1922 -1931 -1932 0
-488 1932 0
-488 1921 0
-488 1931 0
-488 1922 0
489 -1923 -1930 -387 0
-489 1923 0
-489 1930 0
-489 387 0
-490 491 492 0
490 -491 0
490 -492 0
491 -386 -391 0
-491 386 0
-491 391 0
492 -332 -385 0
-492 332 0
-492 385 0
-493 494 495 0
493 -494 0
493 -495 0
494 -367 -368 0
-494 367 0
-494 368 0
495 -366 -381 0
-495 366 0
-495 381 0
-496 497 498 0
496 -497 0
496 -498 0
497 -383 -384 0
-497 383 0
-497 384 0
498 -382 -394 0
-498 382 0
-498 394 0
-499 500 501 0
499 -500 0
499 -501 0
500 -364 -365 0
-500 364 0
-500 365 0
501 -363 -397 0
-501 363 0
-501 397 0
-502 503 504 0
502 -503 0
502 -504 0
503 -362 -400 0
-503 362 0
-503 400 0
504 -361 -403 0
-504 361 0
-504 403 0
-505 506 0
505 -506 0
-506 507 0
506 -507 0
-507 1916 508 0
-507 -1916 -1939 -508 0
-507 1939 508 0
507 1916 -508 0
507 1939 -508 0
507 -1916 -1939 508 0
-508 1938 510 0
-508 1917 509 510 0
-508 -1917 -509 510 0
-508 1917 -1938 -509 -510 0
-508 -1917 -1938 509 -510 0
508 1938 -510 0
508 -1917 -509 -510 0
508 1917 509 -510 0
508 1917 -1938 -509 510 0
508 -1917 -1938 509 510 0
509 -1916 -411 0
-509 1916 0
-509 411 0
-510 1937 511 0
-510 -1918 511 -546 0
-510 1918 511 546 0
-510 -1918 -1937 -511 546 0
-510 1918 -1937 -511 -546 0
510 1937 -511 0
510 1918 -1937 511 -546 0
510 1918 -511 546 0
510 -1918 -511 -546 0
510 -1918 -1937 511 546 0
-511 1936 512 0
-511 -1919 512 -543 0
-511 1919 512 543 0
-511 -1919 -1936 -512 543 0
-511 1919 -1936 -512 -543 0
511 1936 -512 0
511 1919 -1936 512 -543 0
511 1919 -512 543 0
511 -1919 -512 -543 0
511 -1919 -1936 512 543 0
-512 1935 513 0
-512 -1920 513 -540 0
-512 1920 513 540 0
-512 -1920 -1935 -513 540 0
-512 1920 -1935 -513 -540 0
512 1935 -513 0
512 1920 -1935 513 -540 0
512 1920 -513 540 0
512 -1920 -513 -540 0
512 -1920 -1935 513 540 0
-513 1934 514 0
-513 -1921 514 -536 0
-513 1921 514 536 0
-513 -1921 -1934 -514 536 0
-513 1921 -1934 -514 -536 0
513 1934 -514 0
513 1921 -1934 514 -536 0
513 1921 -514 536 0
513 -1921 -514 -536 0
513 -1921 -1934 514 536 0
-514 1933 515 0
-514 -1922 515 -532 0
-514 1922 515 532 0
-514 -1922 -1933 -515 532 0
-514 1922 -1933 -515 -532 0
514 1933 -515 0
514 1922 -1933 515 -532 0
514 1922 -515 532 0
514 -1922 -515 -532 0
514 -1922 -1933 515 532 0
-515 1932 516 0
-515 -1923 516 -528 0
-515 1923 516 528 0
-515 -1923 -1932 -516 528 0
-515 1923 -1932 -516 -528 0
515 1932 -516 0
515 1923 -1932 516 -528 0
515 1923 -516 528 0
515 -1923 -516 -528 0
515 -1923 -1932 516 528 0
-516 1931 517 0
-516 -1931 523 524 0
-516 -1931 -523 -524 0
516 1931 -517 0
516 -1931 523 -524 0
516 -1931 -523 524 0
-517 1930 518 0
-517 -1930 519 520 0
-517 -1930 -519 -520 0
517 1930 -518 0
517 -1930 519 -520 0
517 -1930 -519 520 0
518 -1926 -1929 0
-518 1926 0
-518 1929 0
519 1925 -518 0
519 -1925 518 0
-519 -1925 -518 0
-519 1925 518 0
-520 334 521 0
-520 521 522 0
520 -521 0
520 -334 -522 0
-521 1929 0
-521 1924 0
-521 1923 1925 0
521 -1923 -1924 -1929 0
521 -1924 -1925 -1929 0
522 -333 -421 0
-522 333 0
-522 421 0
523 -1924 517 0
523 1924 -517 0
-523 1924 517 0
-523 -1924 -517 0
-524 339 525 0
-524 525 527 0
524 -525 0
524 -339 -527 0
-525 526 425 0
-525 427 526 0
525 -526 0
525 -427 -425 0
526 -1923 -419 0
-526 1923 0
-526 419 0
527 -338 -425 0
-527 338 0
-527 425 0
-528 344 529 0
-528 529 531 0
528 -529 0
528 -344 -531 0
-529 530 429 0
-529 431 530 0
529 -530 0
529 -431 -429 0
530 -1922 -418 0
-530 1922 0
-530 418 0
531 -433 -429 0
-531 433 0
-531 429 0
-532 349 533 0
-532 533 535 0
532 -533 0
532 -349 -535 0
-533 534 434 0
-533 436 534 0
533 -534 0
533 -436 -434 0
534 -1921 -417 0
-534 1921 0
-534 417 0
535 -438 -434 0
-535 438 0
-535 434 0
-536 352 537 0
-536 537 539 0
536 -537 0
536 -352 -539 0
-537 538 439 0
-537 441 538 0
537 -538 0
537 -441 -439 0
538 -1920 -416 0
-538 1920 0
-538 416 0
539 -443 -439 0
-539 443 0
-539 439 0
-540 355 541 0
-540 541 542 0
540 -541 0
540 -355 -542 0
-541 446 415 0
-541 1919 446 0
-541 1919 415 0
541 -1919 -446 0
541 -446 -415 0
541 -1919 -415 0
542 -448 -444 0
-542 448 0
-542 444 0
-543 325 544 0
-543 544 545 0
543 -544 0
543 -325 -545 0
-544 451 414 0
-544 1918 451 0
-544 1918 414 0
544 -1918 -451 0
544 -451 -414 0
544 -1918 -414 0
545 -359 -449 0
-545 359 0
-545 449 0
-546 547 548 0
546 -547 0
546 -548 0
547 -1917 -413 0
-547 1917 0
-547 413 0
548 -412 -549 0
-548 412 0
-548 549 0
549 -1917 413 0
549 1917 -413 0
-549 1917 413 0
-549 -1917 -413 0
550 -551 605 0
550 551 -605 0
-550 551 605 0
-550 -551 -605 0
551 -552 602 0
551 552 -602 0
-551 552 602 0
-551 -552 -602 0
552 -553 599 0
552 553 -599 0
-552 553 599 0
-552 -553 -599 0
553 -554 596 0
553 554 -596 0
-553 554 596 0
-553 -554 -596 0
554 555 -578 0
554 -555 578 0
-554 -555 -578 0
-554 555 578 0
555 556 -557 0
555 -556 557 0
-555 -556 -557 0
-555 556 557 0
556 -461 -466 0
-556 461 0
-556 466 0
557 558 -565 0
557 -558 565 0
-557 -558 -565 0
-557 558 565 0
558 559 -560 0
558 -559 560 0
-558 -559 -560 0
-558 559 560 0
559 -1916 -1939 0
-559 1916 0
-559 1939 0
560 561 -564 0
560 -561 564 0
-560 -561 -564 0
-560 561 564 0
561 562 -563 0
561 -562 563 0
-561 -562 -563 0
-561 562 563 0
562 -1917 -1938 0
-562 1917 0
-562 1938 0
563 -1918 -1937 0
-563 1918 0
-563 1937 0
564 -1919 -1936 0
-564 1919 0
-564 1936 0
565 -566 575 0
565 566 -575 0
-565 566 575 0
-565 -566 -575 0
566 567 -570 0
566 -567 570 0
-566 -567 -570 0
-566 567 570 0
-567 568 569 0
567 -568 0
567 -569 0
568 -1916 -1917 -1937 -1938 0
-568 1938 0
-568 1916 0
-568 1937 0
-568 1917 0
569 -1918 -1936 -462 0
-569 1918 0
-569 1936 0
-569 462 0
570 571 -574 0
570 -571 574 0
-570 -571 -574 0
-570 571 574 0
571 572 -573 0
571 -572 573 0
-571 -572 -573 0
-571 572 573 0
572 -1920 -1935 0
-572 1920 0
-572 1935 0
573 -1921 -1934 0
-573 1921 0
-573 1934 0
574 -1922 -1933 0
-574 1922 0
-574 1933 0
-575 576 577 0
575 -576 0
575 -577 0
576 -1919 -1920 -1934 -1935 0
-576 1935 0
-576 1919 0
-576 1934 0
-576 1920 0
577 -1921 -1933 -470 0
-577 1921 0
-577 1933 0
-577 470 0
578 -579 593 0
578 579 -593 0
-578 579 593 0
-578 -579 -593 0
579 580 -583 0
579 -580 583 0
-579 -580 -583 0
-579 580 583 0
-580 581 582 0
580 -581 0
580 -582 0
581 -468 -469 0
-581 468 0
-581 469 0
582 -467 -474 0
-582 467 0
-582 474 0
583 518 -584 0
583 -518 584 0
-583 -518 -584 0
-583 518 584 0
584 -585 590 0
584 585 -590 0
-584 585 590 0
-584 -585 -590 0
585 586 -589 0
585 -586 589 0
-585 -586 -589 0
-585 586 589 0
586 587 -588 0
586 -587 588 0
-586 -587 -588 0
-586 587 588 0
587 -1923 -1932 0
-587 1923 0
-587 1932 0
588 -1924 -1931 0
-588 1924 0
-588 1931 0
589 -1925 -1930 0
-589 1925 0
-589 1930 0
-590 591 592 0
590 -591 0
590 -592 0
591 -1922 -1923 -1931 -1932 0
-591 1932 0
-591 1922 0
-591 1931 0
-591 1923 0
592 -1924 -1930 -483 0
-592 1924 0
-592 1930 0
-592 483 0
-593 594 595 0
593 -594 0
593 -595 0
594 -482 -487 0
-594 482 0
-594 487 0
595 -420 -481 0
-595 420 0
-595 481 0
-596 597 598 0
596 -597 0
596 -598 0
597 -459 -460 0
-597 459 0
-597 460 0
598 -458 -477 0
-598 458 0
-598 477 0
-599 600 601 0
599 -600 0
599 -601 0
600 -479 -480 0
-600 479 0
-600 480 0
601 -478 -490 0
-601 478 0
-601 490 0
-602 603 604 0
602 -603 0
602 -604 0
603 -457 -493 0
-603 457 0
-603 493 0
604 -456 -496 0
-604 456 0
-604 496 0
-605 403 606 0
-605 606 608 0
605 -606 0
605 -403 -608 0
-606 607 454 0
-606 503 607 0
606 -607 0
606 -503 -454 0
607 -455 -499 0
-607 455 0
-607 499 0
608 -361 -454 0
-608 361 0
-608 454 0
-609 610 667 729 795 0
-609 -610 -667 -729 -795 0
-609 610 667 -729 -795 0
-609 -610 -667 729 795 0
609 610 -667 0
609 -610 667 0
609 -729 795 0
609 729 -795 0
-610 611 0
610 -611 0
-611 1916 612 0
-611 -1916 -1940 -612 0
-611 1940 612 0
611 1916 -612 0
611 1940 -612 0
611 -1916 -1940 612 0
-612 1939 614 0
-612 1917 613 614 0
-612 -1917 -613 614 0
-612 1917 -1939 -613 -614 0
-612 -1917 -1939 613 -614 0
612 1939 -614 0
612 -1917 -613 -614 0
612 1917 613 -614 0
612 1917 -1939 -613 614 0
612 -1917 -1939 613 614 0
613 -1916 -508 0
-613 1916 0
-613 508 0
-614 1938 615 0
-614 -1938 662 663 0
-614 -1938 -662 -663 0
614 1938 -615 0
614 -1938 662 -663 0
614 -1938 -662 663 0
-615 1937 616 0
-615 -1937 657 658 0
-615 -1937 -657 -658 0
615 1937 -616 0
615 -1937 657 -658 0
615 -1937 -657 658 0
-616 1936 617 0
-616 -1936 652 653 0
-616 -1936 -652 -653 0
616 1936 -617 0
616 -1936 652 -653 0
616 -1936 -652 653 0
-617 1935 618 0
-617 -1935 647 648 0
-617 -1935 -647 -648 0
617 1935 -618 0
617 -1935 647 -648 0
617 -1935 -647 648 0
-618 1934 619 0
-618 -1934 642 643 0
-618 -1934 -642 -643 0
618 1934 -619 0
618 -1934 642 -643 0
618 -1934 -642 643 0
-619 1933 620 0
-619 -1933 637 638 0
-619 -1933 -637 -638 0
619 1933 -620 0
619 -1933 637 -638 0
619 -1933 -637 638 0
-620 1932 621 0
-620 -1932 632 633 0
-620 -1932 -632 -633 0
620 1932 -621 0
620 -1932 632 -633 0
620 -1932 -632 633 0
-621 1931 622 0
-621 -1931 628 629 0
-621 -1931 -628 -629 0
621 1931 -622 0
621 -1931 628 -629 0
621 -1931 -628 629 0
-622 1930 623 0
-622 -1930 624 625 0
-622 -1930 -624 -625 0
622 1930 -623 0
622 -1930 624 -625 0
622 -1930 -624 625 0
623 -1927 -1929 0
-623 1927 0
-623 1929 0
624 1926 -623 0
624 -1926 623 0
-624 -1926 -623 0
-624 1926 623 0
-625 626 627 0
625 -626 0
625 -627 0
626 -1925 -518 0
-626 1925 0
-626 518 0
627 -519 -520 0
-627 519 0
-627 520 0
628 -1925 622 0
628 1925 -622 0
-628 1925 622 0
-628 -1925 -622 0
-629 630 631 0
629 -630 0
629 -631 0
630 -1924 -517 0
-630 1924 0
-630 517 0
631 -523 -524 0
-631 523 0
-631 524 0
632 -1924 621 0
632 1924 -621 0
-632 1924 621 0
-632 -1924 -621 0
-633 634 635 0
633 -634 0
633 -635 0
634 -1923 -516 0
-634 1923 0
-634 516 0
635 -636 -528 0
-635 636 0
-635 528 0
636 -1923 516 0
636 1923 -516 0
-636 1923 516 0
-636 -1923 -516 0
637 -1923 620 0
637 1923 -620 0
-637 1923 620 0
-637 -1923 -620 0
-638 639 640 0
638 -639 0
638 -640 0
639 -1922 -515 0
-639 1922 0
-639 515 0
640 -641 -532 0
-640 641 0
-640 532 0
641 -1922 515 0
641 1922 -515 0
-641 1922 515 0
-641 -1922 -515 0
642 -1922 619 0
642 1922 -619 0
-642 1922 619 0
-642 -1922 -619 0
-643 644 645 0
643 -644 0
643 -645 0
644 -1921 -514 0
-644 1921 0
-644 514 0
645 -646 -536 0
-645 646 0
-645 536 0
646 -1921 514 0
646 1921 -514 0
-646 1921 514 0
-646 -1921 -514 0
647 -1921 618 0
647 1921 -618 0
-647 1921 618 0
-647 -1921 -618 0
-648 649 650 0
648 -649 0
648 -650 0
649 -1920 -513 0
-649 1920 0
-649 513 0
650 -651 -540 0
-650 651 0
-650 540 0
651 -1920 513 0
651 1920 -513 0
-651 1920 513 0
-651 -1920 -513 0
652 -1920 617 0
652 1920 -617 0
-652 1920 617 0
-652 -1920 -617 0
-653 654 655 0
653 -654 0
653 -655 0
654 -1919 -512 0
-654 1919 0
-654 512 0
655 -656 -543 0
-655 656 0
-655 543 0
656 -1919 512 0
656 1919 -512 0
-656 1919 512 0
-656 -1919 -512 0
657 -1919 616 0
657 1919 -616 0
-657 1919 616 0
-657 -1919 -616 0
-658 659 660 0
658 -659 0
658 -660 0
659 -1918 -511 0
-659 1918 0
-659 511 0
660 -661 -546 0
-660 661 0
-660 546 0
661 -1918 511 0
661 1918 -511 0
-661 1918 511 0
-661 -1918 -511 0
662 -1918 615 0
662 1918 -615 0
-662 1918 615 0
-662 -1918 -615 0
-663 664 665 0
663 -664 0
663 -665 0
664 -1917 -510 0
-664 1917 0
-664 510 0
665 -509 -666 0
-665 509 0
-665 666 0
666 -1917 510 0
666 1917 -510 0
-666 1917 510 0
-666 -1917 -510 0
667 -668 726 0
667 668 -726 0
-667 668 726 0
-667 -668 -726 0
668 -669 723 0
668 669 -723 0
-668 669 723 0
-668 -669 -723 0
669 -670 720 0
669 670 -720 0
-669 670 720 0
-669 -670 -720 0
670 -671 717 0
670 671 -717 0
-670 671 717 0
-670 -671 -717 0
671 672 -699 0
671 -672 699 0
-671 -672 -699 0
-671 672 699 0
672 673 -674 0
672 -673 674 0
-672 -673 -674 0
-672 673 674 0
673 -558 -565 0
-673 558 0
-673 565 0
674 675 -686 0
674 -675 686 0
-674 -675 -686 0
-674 675 686 0
675 676 -677 0
675 -676 677 0
-675 -676 -677 0
-675 676 677 0
676 -1916 -1939 -560 0
-676 1916 0
-676 1939 0
-676 560 0
677 678 -681 0
677 -678 681 0
-677 -678 -681 0
-677 678 681 0
678 679 -680 0
678 -679 680 0
-678 -679 -680 0
-678 679 680 0
679 -1916 -1940 0
-679 1916 0
-679 1940 0
680 -1917 -1939 0
-680 1917 0
-680 1939 0
681 682 -685 0
681 -682 685 0
-681 -682 -685 0
-681 682 685 0
682 683 -684 0
682 -683 684 0
-682 -683 -684 0
-682 683 684 0
683 -1918 -1938 0
-683 1918 0
-683 1938 0
684 -1919 -1937 0
-684 1919 0
-684 1937 0
685 -1920 -1936 0
-685 1920 0
-685 1936 0
686 -687 696 0
686 687 -696 0
-686 687 696 0
-686 -687 -696 0
687 688 -691 0
687 -688 691 0
-687 -688 -691 0
-687 688 691 0
-688 689 690 0
688 -689 0
688 -690 0
689 -1917 -1918 -1937 -1938 0
-689 1938 0
-689 1917 0
-689 1937 0
-689 1918 0
690 -1919 -1936 -561 0
-690 1919 0
-690 1936 0
-690 561 0
691 692 -695 0
691 -692 695 0
-691 -692 -695 0
-691 692 695 0
692 693 -694 0
692 -693 694 0
-692 -693 -694 0
-692 693 694 0
693 -1921 -1935 0
-693 1921 0
-693 1935 0
694 -1922 -1934 0
-694 1922 0
-694 1934 0
695 -1923 -1933 0
-695 1923 0
-695 1933 0
-696 697 698 0
696 -697 0
696 -698 0
697 -1920 -1921 -1934 -1935 0
-697 1935 0
-697 1920 0
-697 1934 0
-697 1921 0
698 -1922 -1933 -571 0
-698 1922 0
-698 1933 0
-698 571 0
699 -700 714 0
699 700 -714 0
-699 700 714 0
-699 -700 -714 0
700 701 -704 0
700 -701 704 0
-700 -701 -704 0
-700 701 704 0
-701 702 703 0
701 -702 0
701 -703 0
702 -567 -570 0
-702 567 0
-702 570 0
703 -566 -575 0
-703 566 0
-703 575 0
704 623 -705 0
704 -623 705 0
-704 -623 -705 0
-704 623 705 0
705 -706 711 0
705 706 -711 0
-705 706 711 0
-705 -706 -711 0
706 707 -710 0
706 -707 710 0
-706 -707 -710 0
-706 707 710 0
707 708 -709 0
707 -708 709 0
-707 -708 -709 0
-707 708 709 0
708 -1924 -1932 0
-708 1924 0
-708 1932 0
709 -1925 -1931 0
-709 1925 0
-709 1931 0
710 -1926 -1930 0
-710 1926 0
-710 1930 0
-711 712 713 0
711 -712 0
711 -713 0
712 -1923 -1924 -1931 -1932 0
-712 1932 0
-712 1923 0
-712 1931 0
-712 1924 0
713 -1925 -1930 -586 0
-713 1925 0
-713 1930 0
-713 586 0
-714 715 716 0
714 -715 0
714 -716 0
715 -585 -590 0
-715 585 0
-715 590 0
716 -518 -584 0
-716 518 0
-716 584 0
-717 718 719 0
717 -718 0
717 -719 0
718 -556 -557 0
-718 556 0
-718 557 0
719 -555 -578 0
-719 555 0
-719 578 0
-720 721 722 0
720 -721 0
720 -722 0
721 -580 -583 0
-721 580 0
-721 583 0
722 -579 -593 0
-722 579 0
-722 593 0
-723 724 725 0
723 -724 0
723 -725 0
724 -554 -596 0
-724 554 0
-724 596 0
725 -553 -599 0
-725 553 0
-725 599 0
-726 727 728 0
726 -727 0
726 -728 0
727 -552 -602 0
-727 552 0
-727 602 0
728 -551 -605 0
-728 551 0
-728 605 0
-729 1916 730 0
-729 -1916 -1941 -730 0
-729 1941 730 0
729 1916 -730 0
729 1941 -730 0
729 -1916 -1941 730 0
-730 1940 732 0
-730 -1940 -731 -794 0
-730 -1940 731 794 0
730 1940 -732 0
730 -1940 -731 794 0
730 -1940 731 -794 0
731 -1916 -612 0
-731 1916 0
-731 612 0
-732 1939 733 0
-732 -1918 733 -790 0
-732 1918 733 790 0
-732 -1918 -1939 -733 790 0
-732 1918 -1939 -733 -790 0
732 1939 -733 0
732 1918 -1939 733 -790 0
732 1918 -733 790 0
732 -1918 -733 -790 0
732 -1918 -1939 733 790 0
-733 1938 734 0
-733 -1919 734 -787 0
-733 1919 734 787 0
-733 -1919 -1938 -734 787 0
-733 1919 -1938 -734 -787 0
733 1938 -734 0
733 1919 -1938 734 -787 0
733 1919 -734 787 0
733 -1919 -734 -787 0
733 -1919 -1938 734 787 0
-734 1937 735 0
-734 -1920 735 -784 0
-734 1920 735 784 0
-734 -1920 -1937 -735 784 0
-734 1920 -1937 -735 -784 0
734 1937 -735 0
734 1920 -1937 735 -784 0
734 1920 -735 784 0
734 -1920 -735 -784 0
734 -1920 -1937 735 784 0
-735 1936 736 0
-735 -1921 736 -778 0
-735 1921 736 778 0
-735 -1921 -1936 -736 778 0
-735 1921 -1936 -736 -778 0
735 1936 -736 0
735 1921 -1936 736 -778 0
735 1921 -736 778 0
735 -1921 -736 -778 0
735 -1921 -1936 736 778 0
-736 1935 737 0
-736 -1922 737 -772 0
-736 1922 737 772 0
-736 -1922 -1935 -737 772 0
-736 1922 -1935 -737 -772 0
736 1935 -737 0
736 1922 -1935 737 -772 0
736 1922 -737 772 0
736 -1922 -737 -772 0
736 -1922 -1935 737 772 0
-737 1934 738 0
-737 -1923 738 -766 0
-737 1923 738 766 0
-737 -1923 -1934 -738 766 0
-737 1923 -1934 -738 -766 0
737 1934 -738 0
737 1923 -1934 738 -766 0
737 1923 -738 766 0
737 -1923 -738 -766 0
737 -1923 -1934 738 766 0
-738 1933 739 0
-738 -1924 739 -760 0
-738 1924 739 760 0
-738 -1924 -1933 -739 760 0
-738 1924 -1933 -739 -760 0
738 1933 -739 0
738 1924 -1933 739 -760 0
738 1924 -739 760 0
738 -1924 -739 -760 0
738 -1924 -1933 739 760 0
-739 1932 740 0
-739 -1925 740 -754 0
-739 1925 740 754 0
-739 -1925 -1932 -740 754 0
-739 1925 -1932 -740 -754 0
739 1932 -740 0
739 1925 -1932 740 -754 0
739 1925 -740 754 0
739 -1925 -740 -754 0
739 -1925 -1932 740 754 0
-740 1931 741 0
-740 -1931 748 749 0
-740 -1931 -748 -749 0
740 1931 -741 0
740 -1931 748 -749 0
740 -1931 -748 749 0
-741 1930 742 0
-741 -1930 743 744 0
-741 -1930 -743 -744 0
741 1930 -742 0
741 -1930 743 -744 0
741 -1930 -743 744 0
742 -1928 -1929 0
-742 1928 0
-742 1929 0
743 1927 -742 0
743 -1927 742 0
-743 -1927 -742 0
-743 1927 742 0
-744 522 746 0
-744 745 746 0
-744 334 746 0
744 -746 0
744 -334 -522 -745 0
745 -519 -624 0
-745 519 0
-745 624 0
-746 521 747 0
-746 747 745 0
746 -747 0
746 -521 -745 0
-747 1929 0
-747 1926 0
-747 1925 1927 0
747 -1925 -1926 -1929 0
747 -1926 -1927 -1929 0
748 -1926 741 0
748 1926 -741 0
-748 1926 741 0
-748 -1926 -741 0
-749 527 751 0
-749 750 751 0
-749 339 751 0
749 -751 0
749 -339 -527 -750 0
750 -523 -628 0
-750 523 0
-750 628 0
-751 525 752 753 0
-751 752 753 750 0
751 -753 0
751 -752 0
751 -525 -750 0
752 -1925 -622 0
-752 1925 0
-752 622 0
753 -630 -628 0
-753 630 0
-753 628 0
-754 344 755 0
-754 755 759 0
754 -755 0
754 -344 -759 0
-755 634 756 757 0
-755 756 632 757 0
755 -757 0
755 -756 0
755 -634 -632 0
756 -1924 -621 0
-756 1924 0
-756 621 0
757 -529 -758 0
-757 529 0
-757 758 0
758 -636 -632 0
-758 636 0
-758 632 0
759 -531 -758 0
-759 531 0
-759 758 0
-760 349 761 0
-760 761 765 0
760 -761 0
760 -349 -765 0
-761 639 762 763 0
-761 762 637 763 0
761 -763 0
761 -762 0
761 -639 -637 0
762 -1923 -620 0
-762 1923 0
-762 620 0
763 -533 -764 0
-763 533 0
-763 764 0
764 -641 -637 0
-764 641 0
-764 637 0
765 -535 -764 0
-765 535 0
-765 764 0
-766 352 767 0
-766 767 771 0
766 -767 0
766 -352 -771 0
-767 537 768 769 0
-767 768 769 770 0
767 -769 0
767 -768 0
767 -537 -770 0
768 -1922 -619 0
-768 1922 0
-768 619 0
769 -644 -642 0
-769 644 0
-769 642 0
770 -646 -642 0
-770 646 0
-770 642 0
771 -539 -770 0
-771 539 0
-771 770 0
-772 355 773 0
-772 773 777 0
772 -773 0
772 -355 -777 0
-773 649 774 775 0
-773 774 647 775 0
773 -775 0
773 -774 0
773 -649 -647 0
774 -1921 -618 0
-774 1921 0
-774 618 0
775 -541 -776 0
-775 541 0
-775 776 0
776 -651 -647 0
-776 651 0
-776 647 0
777 -542 -776 0
-777 542 0
-777 776 0
-778 325 779 0
-778 779 783 0
778 -779 0
778 -325 -783 0
-779 544 780 781 0
-779 780 781 782 0
779 -781 0
779 -780 0
779 -544 -782 0
780 -1920 -617 0
-780 1920 0
-780 617 0
781 -654 -652 0
-781 654 0
-781 652 0
782 -656 -652 0
-782 656 0
-782 652 0
783 -545 -782 0
-783 545 0
-783 782 0
-784 661 785 0
-784 546 785 0
-784 657 785 0
784 -785 0
784 -661 -546 -657 0
-785 786 657 0
-785 659 786 0
785 -786 0
785 -659 -657 0
786 -1919 -616 0
-786 1919 0
-786 616 0
-787 666 788 0
-787 509 788 0
-787 662 788 0
787 -788 0
787 -509 -666 -662 0
-788 789 662 0
-788 664 789 0
788 -789 0
788 -664 -662 0
789 -1918 -615 0
-789 1918 0
-789 615 0
-790 791 792 0
790 -791 0
790 -792 0
791 -1917 -614 0
-791 1917 0
-791 614 0
792 -613 -793 0
-792 613 0
-792 793 0
793 -1917 614 0
793 1917 -614 0
-793 1917 614 0
-793 -1917 -614 0
794 -1917 732 0
794 1917 -732 0
-794 1917 732 0
-794 -1917 -732 0
795 -796 860 0
795 796 -860 0
-795 796 860 0
-795 -796 -860 0
796 -797 857 0
796 797 -857 0
-796 797 857 0
-796 -797 -857 0
797 -798 854 0
797 798 -854 0
-797 798 854 0
-797 -798 -854 0
798 -799 851 0
798 799 -851 0
-798 799 851 0
-798 -799 -851 0
799 800 -833 0
799 -800 833 0
-799 -800 -833 0
-799 800 833 0
800 -801 830 0
800 801 -830 0
-800 801 830 0
-800 -801 -830 0
801 802 -817 0
801 -802 817 0
-801 -802 -817 0
-801 802 817 0
802 803 -804 0
802 -803 804 0
-802 -803 -804 0
-802 803 804 0
803 -678 -681 0
-803 678 0
-803 681 0
804 805 -812 0
804 -805 812 0
-804 -805 -812 0
-804 805 812 0
805 806 -807 0
805 -806 807 0
-805 -806 -807 0
-805 806 807 0
806 -1916 -1917 -1939 -1940 0
-806 1940 0
-806 1916 0
-806 1939 0
-806 1917 0
807 808 -811 0
807 -808 811 0
-807 -808 -811 0
-807 808 811 0
808 809 -810 0
808 -809 810 0
-808 -809 -810 0
-808 809 810 0
809 -1916 -1941 0
-809 1916 0
-809 1941 0
810 -1917 -1940 0
-810 1917 0
-810 1940 0
811 -1918 -1939 0
-811 1918 0
-811 1939 0
812 813 -816 0
812 -813 816 0
-812 -813 -816 0
-812 813 816 0
813 814 -815 0
813 -814 815 0
-813 -814 -815 0
-813 814 815 0
814 -1919 -1938 0
-814 1919 0
-814 1938 0
815 -1920 -1937 0
-815 1920 0
-815 1937 0
816 -1921 -1936 0
-816 1921 0
-816 1936 0
817 -818 827 0
817 818 -827 0
-817 818 827 0
-817 -818 -827 0
818 819 -822 0
818 -819 822 0
-818 -819 -822 0
-818 819 822 0
-819 820 821 0
819 -820 0
819 -821 0
820 -1918 -1919 -1937 -1938 0
-820 1938 0
-820 1918 0
-820 1937 0
-820 1919 0
821 -1920 -1936 -682 0
-821 1920 0
-821 1936 0
-821 682 0
822 823 -826 0
822 -823 826 0
-822 -823 -826 0
-822 823 826 0
823 824 -825 0
823 -824 825 0
-823 -824 -825 0
-823 824 825 0
824 -1922 -1935 0
-824 1922 0
-824 1935 0
825 -1923 -1934 0
-825 1923 0
-825 1934 0
826 -1924 -1933 0
-826 1924 0
-826 1933 0
-827 828 829 0
827 -828 0
827 -829 0
828 -1921 -1922 -1934 -1935 0
-828 1935 0
-828 1921 0
-828 1934 0
-828 1922 0
829 -1923 -1933 -692 0
-829 1923 0
-829 1933 0
-829 692 0
-830 831 832 0
830 -831 0
830 -832 0
831 -676 -677 0
-831 676 0
-831 677 0
832 -675 -686 0
-832 675 0
-832 686 0
833 -834 848 0
833 834 -848 0
-833 834 848 0
-833 -834 -848 0
834 835 -838 0
834 -835 838 0
-834 -835 -838 0
-834 835 838 0
-835 836 837 0
835 -836 0
835 -837 0
836 -688 -691 0
-836 688 0
-836 691 0
837 -687 -696 0
-837 687 0
-837 696 0
838 742 -839 0
838 -742 839 0
-838 -742 -839 0
-838 742 839 0
839 -840 845 0
839 840 -845 0
-839 840 845 0
-839 -840 -845 0
840 841 -844 0
840 -841 844 0
-840 -841 -844 0
-840 841 844 0
841 842 -843 0
841 -842 843 0
-841 -842 -843 0
-841 842 843 0
842 -1925 -1932 0
-842 1925 0
-842 1932 0
843 -1926 -1931 0
-843 1926 0
-843 1931 0
844 -1927 -1930 0
-844 1927 0
-844 1930 0
-845 846 847 0
845 -846 0
845 -847 0
846 -1924 -1925 -1931 -1932 0
-846 1932 0
-846 1924 0
-846 1931 0
-846 1925 0
847 -1926 -1930 -707 0
-847 1926 0
-847 1930 0
-847 707 0
-848 849 850 0
848 -849 0
848 -850 0
849 -706 -711 0
-849 706 0
-849 711 0
850 -623 -705 0
-850 623 0
-850 705 0
-851 852 853 0
851 -852 0
851 -853 0
852 -673 -674 0
-852 673 0
-852 674 0
853 -672 -699 0
-853 672 0
-853 699 0
-854 855 856 0
854 -855 0
854 -856 0
855 -701 -704 0
-855 701 0
-855 704 0
856 -700 -714 0
-856 700 0
-856 714 0
-857 858 859 0
857 -858 0
857 -859 0
858 -671 -717 0
-858 671 0
-858 717 0
859 -670 -720 0
-859 670 0
-859 720 0
-860 403 861 0
-860 861 865 0
860 -861 0
860 -403 -865 0
-861 727 862 863 0
-861 862 668 863 0
861 -863 0
861 -862 0
861 -727 -668 0
862 -669 -723 0
-862 669 0
-862 723 0
863 -606 -864 0
-863 606 0
-863 864 0
864 -551 -668 0
-864 551 0
-864 668 0
865 -608 -864 0
-865 608 0
-865 864 0
-866 -867 -931 1002 1244 0
-866 867 931 1002 1244 0
866 -1244 0
866 -867 931 0
866 -1002 0
866 867 -931 0
-867 1941 869 0
-867 1917 868 869 0
-867 -1917 -868 869 0
-867 1917 -1941 -868 -869 0
-867 -1917 -1941 868 -869 0
867 1941 -869 0
867 -1917 -868 -869 0
867 1917 868 -869 0
867 1917 -1941 -868 869 0
867 -1917 -1941 868 869 0
868 -1916 -730 0
-868 1916 0
-868 730 0
-869 1940 870 0
-869 -1940 927 928 0
-869 -1940 -927 -928 0
869 1940 -870 0
869 -1940 927 -928 0
869 -1940 -927 928 0
-870 1939 871 0
-870 -1939 922 923 0
-870 -1939 -922 -923 0
870 1939 -871 0
870 -1939 922 -923 0
870 -1939 -922 923 0
-871 1938 872 0
-871 -1938 917 918 0
-871 -1938 -917 -918 0
871 1938 -872 0
871 -1938 917 -918 0
871 -1938 -917 918 0
-872 1937 873 0
-872 -1937 912 913 0
-872 -1937 -912 -913 0
872 1937 -873 0
872 -1937 912 -913 0
872 -1937 -912 913 0
-873 1936 874 0
-873 -1936 907 908 0
-873 -1936 -907 -908 0
873 1936 -874 0
873 -1936 907 -908 0
873 -1936 -907 908 0
-874 1935 875 0
-874 -1935 902 903 0
-874 -1935 -902 -903 0
874 1935 -875 0
874 -1935 902 -903 0
874 -1935 -902 903 0
-875 1934 876 0
-875 -1934 897 898 0
-875 -1934 -897 -898 0
875 1934 -876 0
875 -1934 897 -898 0
875 -1934 -897 898 0
-876 1933 877 0
-876 -1933 892 893 0
-876 -1933 -892 -893 0
876 1933 -877 0
876 -1933 892 -893 0
876 -1933 -892 893 0
-877 1932 878 0
-877 -1932 887 888 0
-877 -1932 -887 -888 0
877 1932 -878 0
877 -1932 887 -888 0
877 -1932 -887 888 0
-878 1931 879 0
-878 -1931 883 884 0
-878 -1931 -883 -884 0
878 1931 -879 0
878 -1931 883 -884 0
878 -1931 -883 884 0
879 1928 -1930 -880 0
879 -1928 -1930 880 0
-879 1930 0
-879 -1928 -880 0
-879 1928 880 0
-880 881 882 0
880 -881 0
880 -882 0
881 -1927 -742 0
-881 1927 0
-881 742 0
882 -743 -744 0
-882 743 0
-882 744 0
883 1927 -879 0
883 -1927 879 0
-883 -1927 -879 0
-883 1927 879 0
-884 885 886 0
884 -885 0
884 -886 0
885 -1926 -741 0
-885 1926 0
-885 741 0
886 -748 -749 0
-886 748 0
-886 749 0
887 -1926 878 0
887 1926 -878 0
-887 1926 878 0
-887 -1926 -878 0
-888 889 890 0
888 -889 0
888 -890 0
889 -1925 -740 0
-889 1925 0
-889 740 0
890 -891 -754 0
-890 891 0
-890 754 0
891 -1925 740 0
891 1925 -740 0
-891 1925 740 0
-891 -1925 -740 0
892 -1925 877 0
892 1925 -877 0
-892 1925 877 0
-892 -1925 -877 0
-893 894 895 0
893 -894 0
893 -895 0
894 -1924 -739 0
-894 1924 0
-894 739 0
895 -896 -760 0
-895 896 0
-895 760 0
896 -1924 739 0
896 1924 -739 0
-896 1924 739 0
-896 -1924 -739 0
897 -1924 876 0
897 1924 -876 0
-897 1924 876 0
-897 -1924 -876 0
-898 899 900 0
898 -899 0
898 -900 0
899 -1923 -738 0
-899 1923 0
-899 738 0
900 -901 -766 0
-900 901 0
-900 766 0
901 -1923 738 0
901 1923 -738 0
-901 1923 738 0
-901 -1923 -738 0
902 -1923 875 0
902 1923 -875 0
-902 1923 875 0
-902 -1923 -875 0
-903 904 905 0
903 -904 0
903 -905 0
904 -1922 -737 0
-904 1922 0
-904 737 0
905 -906 -772 0
-905 906 0
-905 772 0
906 -1922 737 0
906 1922 -737 0
-906 1922 737 0
-906 -1922 -737 0
907 -1922 874 0
907 1922 -874 0
-907 1922 874 0
-907 -1922 -874 0
-908 909 910 0
908 -909 0
908 -910 0
909 -1921 -736 0
-909 1921 0
-909 736 0
910 -911 -778 0
-910 911 0
-910 778 0
911 -1921 736 0
911 1921 -736 0
-911 1921 736 0
-911 -1921 -736 0
912 -1921 873 0
912 1921 -873 0
-912 1921 873 0
-912 -1921 -873 0
-913 914 915 0
913 -914 0
913 -915 0
914 -1920 -735 0
-914 1920 0
-914 735 0
915 -916 -784 0
-915 916 0
-915 784 0
916 -1920 735 0
916 1920 -735 0
-916 1920 735 0
-916 -1920 -735 0
917 -1920 872 0
917 1920 -872 0
-917 1920 872 0
-917 -1920 -872 0
-918 919 920 0
918 -919 0
918 -920 0
919 -1919 -734 0
-919 1919 0
-919 734 0
920 -921 -787 0
-920 921 0
-920 787 0
921 -1919 734 0
921 1919 -734 0
-921 1919 734 0
-921 -1919 -734 0
922 -1919 871 0
922 1919 -871 0
-922 1919 871 0
-922 -1919 -871 0
-923 924 925 0
923 -924 0
923 -925 0
924 -1918 -733 0
-924 1918 0
-924 733 0
925 -926 -790 0
-925 926 0
-925 790 0
926 -1918 733 0
926 1918 -733 0
-926 1918 733 0
-926 -1918 -733 0
927 -1918 870 0
927 1918 -870 0
-927 1918 870 0
-927 -1918 -870 0
-928 929 930 0
928 -929 0
928 -930 0
929 -1917 -732 0
-929 1917 0
-929 732 0
930 -731 -794 0
-930 731 0
-930 794 0
931 -932 999 0
931 932 -999 0
-931 932 999 0
-931 -932 -999 0
932 -933 996 0
932 933 -996 0
-932 933 996 0
-932 -933 -996 0
933 -934 993 0
933 934 -993 0
-933 934 993 0
-933 -934 -993 0
934 -935 990 0
934 935 -990 0
-934 935 990 0
-934 -935 -990 0
935 936 -973 0
935 -936 973 0
-935 -936 -973 0
-935 936 973 0
936 -937 970 0
936 937 -970 0
-936 937 970 0
-936 -937 -970 0
937 938 -957 0
937 -938 957 0
-937 -938 -957 0
-937 938 957 0
938 -939 954 0
938 939 -954 0
-938 939 954 0
-938 -939 -954 0
939 940 -949 0
939 -940 949 0
-939 -940 -949 0
-939 940 949 0
940 -941 946 0
940 941 -946 0
-940 941 946 0
-940 -941 -946 0
941 942 -945 0
941 -942 945 0
-941 -942 -945 0
-941 942 945 0
942 943 -944 0
942 -943 944 0
-942 -943 -944 0
-942 943 944 0
943 -1917 -1941 0
-943 1917 0
-943 1941 0
944 -1918 -1940 0
-944 1918 0
-944 1940 0
945 -1919 -1939 0
-945 1919 0
-945 1939 0
-946 947 948 0
946 -947 0
946 -948 0
947 -1916 -1917 -1940 -1941 0
-947 1941 0
-947 1916 0
-947 1940 0
-947 1917 0
948 -1918 -1939 -808 0
-948 1918 0
-948 1939 0
-948 808 0
949 950 -953 0
949 -950 953 0
-949 -950 -953 0
-949 950 953 0
950 951 -952 0
950 -951 952 0
-950 -951 -952 0
-950 951 952 0
951 -1920 -1938 0
-951 1920 0
-951 1938 0
952 -1921 -1937 0
-952 1921 0
-952 1937 0
953 -1922 -1936 0
-953 1922 0
-953 1936 0
-954 955 956 0
954 -955 0
954 -956 0
955 -806 -807 0
-955 806 0
-955 807 0
956 -805 -812 0
-956 805 0
-956 812 0
957 -958 967 0
957 958 -967 0
-957 958 967 0
-957 -958 -967 0
958 959 -962 0
958 -959 962 0
-958 -959 -962 0
-958 959 962 0
-959 960 961 0
959 -960 0
959 -961 0
960 -1919 -1920 -1937 -1938 0
-960 1938 0
-960 1919 0
-960 1937 0
-960 1920 0
961 -1921 -1936 -813 0
-961 1921 0
-961 1936 0
-961 813 0
962 963 -966 0
962 -963 966 0
-962 -963 -966 0
-962 963 966 0
963 964 -965 0
963 -964 965 0
-963 -964 -965 0
-963 964 965 0
964 -1923 -1935 0
-964 1923 0
-964 1935 0
965 -1924 -1934 0
-965 1924 0
-965 1934 0
966 -1925 -1933 0
-966 1925 0
-966 1933 0
-967 968 969 0
967 -968 0
967 -969 0
968 -1922 -1923 -1934 -1935 0
-968 1935 0
-968 1922 0
-968 1934 0
-968 1923 0
969 -1924 -1933 -823 0
-969 1924 0
-969 1933 0
-969 823 0
-970 971 972 0
970 -971 0
970 -972 0
971 -803 -804 0
-971 803 0
-971 804 0
972 -802 -817 0
-972 802 0
-972 817 0
973 -974 987 0
973 974 -987 0
-973 974 987 0
-973 -974 -987 0
974 975 -978 0
974 -975 978 0
-974 -975 -978 0
-974 975 978 0
-975 976 977 0
975 -976 0
975 -977 0
976 -819 -822 0
-976 819 0
-976 822 0
977 -818 -827 0
-977 818 0
-977 827 0
978 -979 984 0
978 979 -984 0
-978 979 984 0
-978 -979 -984 0
979 980 -983 0
979 -980 983 0
-979 -980 -983 0
-979 980 983 0
980 981 -982 0
980 -981 982 0
-980 -981 -982 0
-980 981 982 0
981 -1926 -1932 0
-981 1926 0
-981 1932 0
982 -1927 -1931 0
-982 1927 0
-982 1931 0
983 -1928 -1930 0
-983 1928 0
-983 1930 0
-984 985 986 0
984 -985 0
984 -986 0
985 -1925 -1926 -1931 -1932 0
-985 1932 0
-985 1925 0
-985 1931 0
-985 1926 0
986 -1927 -1930 -841 0
-986 1927 0
-986 1930 0
-986 841 0
-987 988 989 0
987 -988 0
987 -989 0
988 -840 -845 0
-988 840 0
-988 845 0
989 -742 -839 0
-989 742 0
-989 839 0
-990 991 992 0
990 -991 0
990 -992 0
991 -801 -830 0
-991 801 0
-991 830 0
992 -800 -833 0
-992 800 0
-992 833 0
-993 994 995 0
993 -994 0
993 -995 0
994 -835 -838 0
-994 835 0
-994 838 0
995 -834 -848 0
-995 834 0
-995 848 0
-996 997 998 0
996 -997 0
996 -998 0
997 -799 -851 0
-997 799 0
-997 851 0
998 -798 -854 0
-998 798 0
-998 854 0
-999 1000 1001 0
999 -1000 0
999 -1001 0
1000 -797 -857 0
-1000 797 0
-1000 857 0
1001 -796 -860 0
-1001 796 0
-1001 860 0
-1002 1003 1051 1119 1183 0
-1002 -1003 -1051 -1119 -1183 0
-1002 1003 1051 -1119 -1183 0
-1002 -1003 -1051 1119 1183 0
1002 1003 -1051 0
1002 -1003 1051 0
1002 -1119 1183 0
1002 1119 -1183 0
-1003 1941 1004 0
-1003 -1918 1004 -1047 0
-1003 1918 1004 1047 0
-1003 -1918 -1941 -1004 1047 0
-1003 1918 -1941 -1004 -1047 0
1003 1941 -1004 0
1003 1918 -1941 1004 -1047 0
1003 1918 -1004 1047 0
1003 -1918 -1004 -1047 0
1003 -1918 -1941 1004 1047 0
-1004 1940 1005 0
-1004 -1919 1005 -1043 0
-1004 1919 1005 1043 0
-1004 -1919 -1940 -1005 1043 0
-1004 1919 -1940 -1005 -1043 0
1004 1940 -1005 0
1004 1919 -1940 1005 -1043 0
1004 1919 -1005 1043 0
1004 -1919 -1005 -1043 0
1004 -1919 -1940 1005 1043 0
-1005 1939 1006 0
-1005 -1920 1006 -1040 0
-1005 1920 1006 1040 0
-1005 -1920 -1939 -1006 1040 0
-1005 1920 -1939 -1006 -1040 0
1005 1939 -1006 0
1005 1920 -1939 1006 -1040 0
1005 1920 -1006 1040 0
1005 -1920 -1006 -1040 0
1005 -1920 -1939 1006 1040 0
-1006 1938 1007 0
-1006 -1921 1007 -1037 0
-1006 1921 1007 1037 0
-1006 -1921 -1938 -1007 1037 0
-1006 1921 -1938 -1007 -1037 0
1006 1938 -1007 0
1006 1921 -1938 1007 -1037 0
1006 1921 -1007 1037 0
1006 -1921 -1007 -1037 0
1006 -1921 -1938 1007 1037 0
-1007 1937 1008 0
-1007 -1922 1008 -1034 0
-1007 1922 1008 1034 0
-1007 -1922 -1937 -1008 1034 0
-1007 1922 -1937 -1008 -1034 0
1007 1937 -1008 0
1007 1922 -1937 1008 -1034 0
1007 1922 -1008 1034 0
1007 -1922 -1008 -1034 0
1007 -1922 -1937 1008 1034 0
-1008 1936 1009 0
-1008 -1923 1009 -1031 0
-1008 1923 1009 1031 0
-1008 -1923 -1936 -1009 1031 0
-1008 1923 -1936 -1009 -1031 0
1008 1936 -1009 0
1008 1923 -1936 1009 -1031 0
1008 1923 -1009 1031 0
1008 -1923 -1009 -1031 0
1008 -1923 -1936 1009 1031 0
-1009 1935 1010 0
-1009 -1924 1010 -1028 0
-1009 1924 1010 1028 0
-1009 -1924 -1935 -1010 1028 0
-1009 1924 -1935 -1010 -1028 0
1009 1935 -1010 0
1009 1924 -1935 1010 -1028 0
1009 1924 -1010 1028 0
1009 -1924 -1010 -1028 0
1009 -1924 -1935 1010 1028 0
-1010 1934 1011 0
-1010 -1925 1011 -1025 0
-1010 1925 1011 1025 0
-1010 -1925 -1934 -1011 1025 0
-1010 1925 -1934 -1011 -1025 0
1010 1934 -1011 0
1010 1925 -1934 1011 -1025 0
1010 1925 -1011 1025 0
1010 -1925 -1011 -1025 0
1010 -1925 -1934 1011 1025 0
-1011 1933 1012 0
-1011 -1926 1012 -1022 0
-1011 1926 1012 1022 0
-1011 -1926 -1933 -1012 1022 0
-1011 1926 -1933 -1012 -1022 0
1011 1933 -1012 0
1011 1926 -1933 1012 -1022 0
1011 1926 -1012 1022 0
1011 -1926 -1012 -1022 0
1011 -1926 -1933 1012 1022 0
-1012 1932 1013 0
-1012 -1927 1013 -1018 0
-1012 1927 1013 1018 0
-1012 -1927 -1932 -1013 1018 0
-1012 1927 -1932 -1013 -1018 0
1012 1932 -1013 0
1012 1927 -1932 1013 -1018 0
1012 1927 -1013 1018 0
1012 -1927 -1013 -1018 0
1012 -1927 -1932 1013 1018 0
-1013 1931 1014 0
-1013 1928 -1931 -1014 -1016 0
-1013 1928 1014 1016 0
-1013 -1928 1014 -1016 0
-1013 -1928 -1931 -1014 1016 0
1013 1931 -1014 0
1013 -1928 -1014 -1016 0
1013 1928 -1014 1016 0
1013 -1928 -1931 1014 1016 0
1013 1928 -1931 1014 -1016 0
1014 -1930 -1015 0
-1014 1930 0
-1014 1015 0
-1015 1927 744 0
-1015 1929 744 0
-1015 1928 0
-1015 1927 1929 0
1015 -1927 -1928 -744 0
1015 -1928 -1929 -744 0
1015 -1927 -1928 -1929 0
-1016 1927 885 1017 0
-1016 1927 879 1017 0
-1016 885 879 1017 0
1016 -1927 -885 0
1016 -885 -879 0
1016 -1017 0
1016 -1927 -879 0
1017 -748 -749 -883 0
-1017 748 0
-1017 749 0
-1017 883 0
-1018 754 1019 0
-1018 1019 1021 0
1018 -1019 0
1018 -754 -1021 0
-1019 1020 887 0
-1019 889 1020 0
1019 -1020 0
1019 -889 -887 0
1020 -1926 -878 0
-1020 1926 0
-1020 878 0
1021 -891 -887 0
-1021 891 0
-1021 887 0
-1022 760 1023 0
-1022 1023 1024 0
1022 -1023 0
1022 -760 -1024 0
-1023 894 877 0
-1023 1925 894 0
-1023 1925 877 0
1023 -1925 -894 0
1023 -894 -877 0
1023 -1925 -877 0
1024 -896 -892 0
-1024 896 0
-1024 892 0
-1025 766 1026 0
-1025 1026 1027 0
1025 -1026 0
1025 -766 -1027 0
-1026 899 876 0
-1026 1924 899 0
-1026 1924 876 0
1026 -1924 -899 0
1026 -899 -876 0
1026 -1924 -876 0
1027 -901 -897 0
-1027 901 0
-1027 897 0
-1028 772 1029 0
-1028 1029 1030 0
1028 -1029 0
1028 -772 -1030 0
-1029 904 875 0
-1029 1923 904 0
-1029 1923 875 0
1029 -1923 -904 0
1029 -904 -875 0
1029 -1923 -875 0
1030 -906 -902 0
-1030 906 0
-1030 902 0
-1031 778 1032 0
-1031 1032 1033 0
1031 -1032 0
1031 -778 -1033 0
-1032 909 874 0
-1032 1922 909 0
-1032 1922 874 0
1032 -1922 -909 0
1032 -909 -874 0
1032 -1922 -874 0
1033 -911 -907 0
-1033 911 0
-1033 907 0
-1034 784 1035 0
-1034 1035 1036 0
1034 -1035 0
1034 -784 -1036 0
-1035 914 873 0
-1035 1921 914 0
-1035 1921 873 0
1035 -1921 -914 0
1035 -914 -873 0
1035 -1921 -873 0
1036 -916 -912 0
-1036 916 0
-1036 912 0
-1037 787 1038 0
-1037 1038 1039 0
1037 -1038 0
1037 -787 -1039 0
-1038 919 872 0
-1038 1920 919 0
-1038 1920 872 0
1038 -1920 -919 0
1038 -919 -872 0
1038 -1920 -872 0
1039 -921 -917 0
-1039 921 0
-1039 917 0
-1040 790 1041 0
-1040 1041 1042 0
1040 -1041 0
1040 -790 -1042 0
-1041 924 871 0
-1041 1919 924 0
-1041 1919 871 0
1041 -1919 -924 0
1041 -924 -871 0
1041 -1919 -871 0
1042 -926 -922 0
-1042 926 0
-1042 922 0
-1043 731 1044 0
-1043 1044 1046 0
1043 -1044 0
1043 -731 -1046 0
-1044 1045 927 0
-1044 929 1045 0
1044 -1045 0
1044 -929 -927 0
1045 -1918 -870 0
-1045 1918 0
-1045 870 0
1046 -794 -927 0
-1046 794 0
-1046 927 0
-1047 1048 1049 0
1047 -1048 0
1047 -1049 0
1048 -1917 -869 0
-1048 1917 0
-1048 869 0
1049 -868 -1050 0
-1049 868 0
-1049 1050 0
1050 -1917 869 0
1050 1917 -869 0
-1050 1917 869 0
-1050 -1917 -869 0
1051 -1052 1115 0
1051 1052 -1115 0
-1051 1052 1115 0
-1051 -1052 -1115 0
1052 -1053 1112 0
1052 1053 -1112 0
-1052 1053 1112 0
-1052 -1053 -1112 0
1053 -1054 1109 0
1053 1054 -1109 0
-1053 1054 1109 0
-1053 -1054 -1109 0
1054 -1055 1106 0
1054 1055 -1106 0
-1054 1055 1106 0
-1054 -1055 -1106 0
1055 1056 -1093 0
1055 -1056 1093 0
-1055 -1056 -1093 0
-1055 1056 1093 0
1056 -1057 1090 0
1056 1057 -1090 0
-1056 1057 1090 0
-1056 -1057 -1090 0
1057 1058 -1077 0
1057 -1058 1077 0
-1057 -1058 -1077 0
-1057 1058 1077 0
1058 -1059 1074 0
1058 1059 -1074 0
-1058 1059 1074 0
-1058 -1059 -1074 0
1059 1060 -1069 0
1059 -1060 1069 0
-1059 -1060 -1069 0
-1059 1060 1069 0
1060 -1061 1066 0
1060 1061 -1066 0
-1060 1061 1066 0
-1060 -1061 -1066 0
1061 1062 -1065 0
1061 -1062 1065 0
-1061 -1062 -1065 0
-1061 1062 1065 0
1062 1063 -1064 0
1062 -1063 1064 0
-1062 -1063 -1064 0
-1062 1063 1064 0
1063 -1918 -1941 0
-1063 1918 0
-1063 1941 0
1064 -1919 -1940 0
-1064 1919 0
-1064 1940 0
1065 -1920 -1939 0
-1065 1920 0
-1065 1939 0
-1066 1067 1068 0
1066 -1067 0
1066 -1068 0
1067 -1917 -1918 -1940 -1941 0
-1067 1941 0
-1067 1917 0
-1067 1940 0
-1067 1918 0
1068 -1919 -1939 -942 0
-1068 1919 0
-1068 1939 0
-1068 942 0
1069 1070 -1073 0
1069 -1070 1073 0
-1069 -1070 -1073 0
-1069 1070 1073 0
1070 1071 -1072 0
1070 -1071 1072 0
-1070 -1071 -1072 0
-1070 1071 1072 0
1071 -1921 -1938 0
-1071 1921 0
-1071 1938 0
1072 -1922 -1937 0
-1072 1922 0
-1072 1937 0
1073 -1923 -1936 0
-1073 1923 0
-1073 1936 0
-1074 1075 1076 0
1074 -1075 0
1074 -1076 0
1075 -941 -946 0
-1075 941 0
-1075 946 0
1076 -940 -949 0
-1076 940 0
-1076 949 0
1077 -1078 1087 0
1077 1078 -1087 0
-1077 1078 1087 0
-1077 -1078 -1087 0
1078 1079 -1082 0
1078 -1079 1082 0
-1078 -1079 -1082 0
-1078 1079 1082 0
-1079 1080 1081 0
1079 -1080 0
1079 -1081 0
1080 -1920 -1921 -1937 -1938 0
-1080 1938 0
-1080 1920 0
-1080 1937 0
-1080 1921 0
1081 -1922 -1936 -950 0
-1081 1922 0
-1081 1936 0
-1081 950 0
1082 1083 -1086 0
1082 -1083 1086 0
-1082 -1083 -1086 0
-1082 1083 1086 0
1083 1084 -1085 0
1083 -1084 1085 0
-1083 -1084 -1085 0
-1083 1084 1085 0
1084 -1924 -1935 0
-1084 1924 0
-1084 1935 0
1085 -1925 -1934 0
-1085 1925 0
-1085 1934 0
1086 -1926 -1933 0
-1086 1926 0
-1086 1933 0
-1087 1088 1089 0
1087 -1088 0
1087 -1089 0
1088 -1923 -1924 -1934 -1935 0
-1088 1935 0
-1088 1923 0
-1088 1934 0
-1088 1924 0
1089 -1925 -1933 -963 0
-1089 1925 0
-1089 1933 0
-1089 963 0
-1090 1091 1092 0
1090 -1091 0
1090 -1092 0
1091 -939 -954 0
-1091 939 0
-1091 954 0
1092 -938 -957 0
-1092 938 0
-1092 957 0
1093 1094 -1095 0
1093 -1094 1095 0
-1093 -1094 -1095 0
-1093 1094 1095 0
1094 -979 -984 0
-1094 979 0
-1094 984 0
1095 1096 -1099 0
1095 -1096 1099 0
-1095 -1096 -1099 0
-1095 1096 1099 0
-1096 1097 1098 0
1096 -1097 0
1096 -1098 0
1097 -959 -962 0
-1097 959 0
-1097 962 0
1098 -958 -967 0
-1098 958 0
-1098 967 0
1099 -1100 1103 0
1099 1100 -1103 0
-1099 1100 1103 0
-1099 -1100 -1103 0
1100 1101 -1102 0
1100 -1101 1102 0
-1100 -1101 -1102 0
-1100 1101 1102 0
1101 -1927 -1932 0
-1101 1927 0
-1101 1932 0
1102 -1928 -1931 0
-1102 1928 0
-1102 1931 0
-1103 1104 1105 0
1103 -1104 0
1103 -1105 0
1104 -1926 -1927 -1931 -1932 0
-1104 1932 0
-1104 1926 0
-1104 1931 0
-1104 1927 0
1105 -1928 -1930 -980 0
-1105 1928 0
-1105 1930 0
-1105 980 0
-1106 1107 1108 0
1106 -1107 0
1106 -1108 0
1107 -937 -970 0
-1107 937 0
-1107 970 0
1108 -936 -973 0
-1108 936 0
-1108 973 0
-1109 1110 1111 0
1109 -1110 0
1109 -1111 0
1110 -975 -978 0
-1110 975 0
-1110 978 0
1111 -974 -987 0
-1111 974 0
-1111 987 0
-1112 1113 1114 0
1112 -1113 0
1112 -1114 0
1113 -935 -990 0
-1113 935 0
-1113 990 0
1114 -934 -993 0
-1114 934 0
-1114 993 0
-1115 860 1116 0
-1115 1116 1118 0
1115 -1116 0
1115 -860 -1118 0
-1116 1117 932 0
-1116 1000 1117 0
1116 -1117 0
1116 -1000 -932 0
1117 -933 -996 0
-1117 933 0
-1117 996 0
1118 -796 -932 0
-1118 796 0
-1118 932 0
-1119 1941 1120 0
-1119 -1941 1178 1179 0
-1119 -1941 -1178 -1179 0
1119 1941 -1120 0
1119 -1941 1178 -1179 0
1119 -1941 -1178 1179 0
-1120 1940 1121 0
-1120 -1940 1173 1174 0
-1120 -1940 -1173 -1174 0
1120 1940 -1121 0
1120 -1940 1173 -1174 0
1120 -1940 -1173 1174 0
-1121 1939 1122 0
-1121 -1939 1168 1169 0
-1121 -1939 -1168 -1169 0
1121 1939 -1122 0
1121 -1939 1168 -1169 0
1121 -1939 -1168 1169 0
-1122 1938 1123 0
-1122 -1938 1163 1164 0
-1122 -1938 -1163 -1164 0
1122 1938 -1123 0
1122 -1938 1163 -1164 0
1122 -1938 -1163 1164 0
-1123 1937 1124 0
-1123 -1937 1158 1159 0
-1123 -1937 -1158 -1159 0
1123 1937 -1124 0
1123 -1937 1158 -1159 0
1123 -1937 -1158 1159 0
-1124 1936 1125 0
-1124 -1936 1153 1154 0
-1124 -1936 -1153 -1154 0
1124 1936 -1125 0
1124 -1936 1153 -1154 0
1124 -1936 -1153 1154 0
-1125 1935 1126 0
-1125 -1935 1148 1149 0
-1125 -1935 -1148 -1149 0
1125 1935 -1126 0
1125 -1935 1148 -1149 0
1125 -1935 -1148 1149 0
-1126 1934 1127 0
-1126 -1934 1143 1144 0
-1126 -1934 -1143 -1144 0
1126 1934 -1127 0
1126 -1934 1143 -1144 0
1126 -1934 -1143 1144 0
-1127 1933 1128 0
-1127 -1933 1138 1139 0
-1127 -1933 -1138 -1139 0
1127 1933 -1128 0
1127 -1933 1138 -1139 0
1127 -1933 -1138 1139 0
-1128 1932 1129 0
-1128 -1932 1133 1134 0
-1128 -1932 -1133 -1134 0
1128 1932 -1129 0
1128 -1932 1133 -1134 0
1128 -1932 -1133 1134 0
1129 -1931 -1130 0
1129 -1931 -1131 0
-1129 1931 0
-1129 1130 1131 0
1130 -1928 -1014 0
-1130 1928 0
-1130 1014 0
1131 -1132 -1016 0
-1131 1132 0
-1131 1016 0
1132 1928 -1014 0
1132 -1928 1014 0
-1132 -1928 -1014 0
-1132 1928 1014 0
1133 1928 -1129 0
1133 -1928 1129 0
-1133 -1928 -1129 0
-1133 1928 1129 0
-1134 1135 1136 0
1134 -1135 0
1134 -1136 0
1135 -1927 -1013 0
-1135 1927 0
-1135 1013 0
1136 -1137 -1018 0
-1136 1137 0
-1136 1018 0
1137 -1927 1013 0
1137 1927 -1013 0
-1137 1927 1013 0
-1137 -1927 -1013 0
1138 -1927 1128 0
1138 1927 -1128 0
-1138 1927 1128 0
-1138 -1927 -1128 0
-1139 1140 1141 0
1139 -1140 0
1139 -1141 0
1140 -1926 -1012 0
-1140 1926 0
-1140 1012 0
1141 -1142 -1022 0
-1141 1142 0
-1141 1022 0
1142 -1926 1012 0
1142 1926 -1012 0
-1142 1926 1012 0
-1142 -1926 -1012 0
1143 -1926 1127 0
1143 1926 -1127 0
-1143 1926 1127 0
-1143 -1926 -1127 0
-1144 1145 1146 0
1144 -1145 0
1144 -1146 0
1145 -1925 -1011 0
-1145 1925 0
-1145 1011 0
1146 -1147 -1025 0
-1146 1147 0
-1146 1025 0
1147 -1925 1011 0
1147 1925 -1011 0
-1147 1925 1011 0
-1147 -1925 -1011 0
1148 -1925 1126 0
1148 1925 -1126 0
-1148 1925 1126 0
-1148 -1925 -1126 0
-1149 1150 1151 0
1149 -1150 0
1149 -1151 0
1150 -1924 -1010 0
-1150 1924 0
-1150 1010 0
1151 -1152 -1028 0
-1151 1152 0
-1151 1028 0
1152 -1924 1010 0
1152 1924 -1010 0
-1152 1924 1010 0
-1152 -1924 -1010 0
1153 -1924 1125 0
1153 1924 -1125 0
-1153 1924 1125 0
-1153 -1924 -1125 0
-1154 1155 1156 0
1154 -1155 0
1154 -1156 0
1155 -1923 -1009 0
-1155 1923 0
-1155 1009 0
1156 -1157 -1031 0
-1156 1157 0
-1156 1031 0
1157 -1923 1009 0
1157 1923 -1009 0
-1157 1923 1009 0
-1157 -1923 -1009 0
1158 -1923 1124 0
1158 1923 -1124 0
-1158 1923 1124 0
-1158 -1923 -1124 0
-1159 1160 1161 0
1159 -1160 0
1159 -1161 0
1160 -1922 -1008 0
-1160 1922 0
-1160 1008 0
1161 -1162 -1034 0
-1161 1162 0
-1161 1034 0
1162 -1922 1008 0
1162 1922 -1008 0
-1162 1922 1008 0
-1162 -1922 -1008 0
1163 -1922 1123 0
1163 1922 -1123 0
-1163 1922 1123 0
-1163 -1922 -1123 0
-1164 1165 1166 0
1164 -1165 0
1164 -1166 0
1165 -1921 -1007 0
-1165 1921 0
-1165 1007 0
1166 -1167 -1037 0
-1166 1167 0
-1166 1037 0
1167 -1921 1007 0
1167 1921 -1007 0
-1167 1921 1007 0
-1167 -1921 -1007 0
1168 -1921 1122 0
1168 1921 -1122 0
-1168 1921 1122 0
-1168 -1921 -1122 0
-1169 1170 1171 0
1169 -1170 0
1169 -1171 0
1170 -1920 -1006 0
-1170 1920 0
-1170 1006 0
1171 -1172 -1040 0
-1171 1172 0
-1171 1040 0
1172 -1920 1006 0
1172 1920 -1006 0
-1172 1920 1006 0
-1172 -1920 -1006 0
1173 -1920 1121 0
1173 1920 -1121 0
-1173 1920 1121 0
-1173 -1920 -1121 0
-1174 1175 1176 0
1174 -1175 0
1174 -1176 0
1175 -1919 -1005 0
-1175 1919 0
-1175 1005 0
1176 -1177 -1043 0
-1176 1177 0
-1176 1043 0
1177 -1919 1005 0
1177 1919 -1005 0
-1177 1919 1005 0
-1177 -1919 -1005 0
1178 -1919 1120 0
1178 1919 -1120 0
-1178 1919 1120 0
-1178 -1919 -1120 0
-1179 1180 1181 0
1179 -1180 0
1179 -1181 0
1180 -1918 -1004 0
-1180 1918 0
-1180 1004 0
1181 -1182 -1047 0
-1181 1182 0
-1181 1047 0
1182 -1918 1004 0
1182 1918 -1004 0
-1182 1918 1004 0
-1182 -1918 -1004 0
1183 -1184 1241 0
1183 1184 -1241 0
-1183 1184 1241 0
-1183 -1184 -1241 0
1184 -1185 1238 0
1184 1185 -1238 0
-1184 1185 1238 0
-1184 -1185 -1238 0
1185 -1186 1235 0
1185 1186 -1235 0
-1185 1186 1235 0
-1185 -1186 -1235 0
1186 -1187 1232 0
1186 1187 -1232 0
-1186 1187 1232 0
-1186 -1187 -1232 0
1187 1188 -1225 0
1187 -1188 1225 0
-1187 -1188 -1225 0
-1187 1188 1225 0
1188 -1189 1222 0
1188 1189 -1222 0
-1188 1189 1222 0
-1188 -1189 -1222 0
1189 1190 -1209 0
1189 -1190 1209 0
-1189 -1190 -1209 0
-1189 1190 1209 0
1190 -1191 1206 0
1190 1191 -1206 0
-1190 1191 1206 0
-1190 -1191 -1206 0
1191 1192 -1201 0
1191 -1192 1201 0
-1191 -1192 -1201 0
-1191 1192 1201 0
1192 -1193 1198 0
1192 1193 -1198 0
-1192 1193 1198 0
-1192 -1193 -1198 0
1193 1194 -1197 0
1193 -1194 1197 0
-1193 -1194 -1197 0
-1193 1194 1197 0
1194 1195 -1196 0
1194 -1195 1196 0
-1194 -1195 -1196 0
-1194 1195 1196 0
1195 -1919 -1941 0
-1195 1919 0
-1195 1941 0
1196 -1920 -1940 0
-1196 1920 0
-1196 1940 0
1197 -1921 -1939 0
-1197 1921 0
-1197 1939 0
-1198 1199 1200 0
1198 -1199 0
1198 -1200 0
1199 -1918 -1919 -1940 -1941 0
-1199 1941 0
-1199 1918 0
-1199 1940 0
-1199 1919 0
1200 -1920 -1939 -1062 0
-1200 1920 0
-1200 1939 0
-1200 1062 0
1201 1202 -1205 0
1201 -1202 1205 0
-1201 -1202 -1205 0
-1201 1202 1205 0
1202 1203 -1204 0
1202 -1203 1204 0
-1202 -1203 -1204 0
-1202 1203 1204 0
1203 -1922 -1938 0
-1203 1922 0
-1203 1938 0
1204 -1923 -1937 0
-1204 1923 0
-1204 1937 0
1205 -1924 -1936 0
-1205 1924 0
-1205 1936 0
-1206 1207 1208 0
1206 -1207 0
1206 -1208 0
1207 -1061 -1066 0
-1207 1061 0
-1207 1066 0
1208 -1060 -1069 0
-1208 1060 0
-1208 1069 0
1209 -1210 1219 0
1209 1210 -1219 0
-1209 1210 1219 0
-1209 -1210 -1219 0
1210 1211 -1214 0
1210 -1211 1214 0
-1210 -1211 -1214 0
-1210 1211 1214 0
-1211 1212 1213 0
1211 -1212 0
1211 -1213 0
1212 -1921 -1922 -1937 -1938 0
-1212 1938 0
-1212 1921 0
-1212 1937 0
-1212 1922 0
1213 -1923 -1936 -1070 0
-1213 1923 0
-1213 1936 0
-1213 1070 0
1214 1215 -1218 0
1214 -1215 1218 0
-1214 -1215 -1218 0
-1214 1215 1218 0
1215 1216 -1217 0
1215 -1216 1217 0
-1215 -1216 -1217 0
-1215 1216 1217 0
1216 -1925 -1935 0
-1216 1925 0
-1216 1935 0
1217 -1926 -1934 0
-1217 1926 0
-1217 1934 0
1218 -1927 -1933 0
-1218 1927 0
-1218 1933 0
-1219 1220 1221 0
1219 -1220 0
1219 -1221 0
1220 -1924 -1925 -1934 -1935 0
-1220 1935 0
-1220 1924 0
-1220 1934 0
-1220 1925 0
1221 -1926 -1933 -1083 0
-1221 1926 0
-1221 1933 0
-1221 1083 0
-1222 1223 1224 0
1222 -1223 0
1222 -1224 0
1223 -1059 -1074 0
-1223 1059 0
-1223 1074 0
1224 -1058 -1077 0
-1224 1058 0
-1224 1077 0
1225 1226 -1227 0
1225 -1226 1227 0
-1225 -1226 -1227 0
-1225 1226 1227 0
1226 -1100 -1103 0
-1226 1100 0
-1226 1103 0
1227 1228 -1231 0
1227 -1228 1231 0
-1227 -1228 -1231 0
-1227 1228 1231 0
-1228 1229 1230 0
1228 -1229 0
1228 -1230 0
1229 -1079 -1082 0
-1229 1079 0
-1229 1082 0
1230 -1078 -1087 0
-1230 1078 0
-1230 1087 0
1231 1927 -1928 -1932 0
1231 -1928 1931 -1932 0
-1231 1932 0
-1231 1928 0
-1231 -1927 -1931 0
-1232 1233 1234 0
1232 -1233 0
1232 -1234 0
1233 -1057 -1090 0
-1233 1057 0
-1233 1090 0
1234 -1056 -1093 0
-1234 1056 0
-1234 1093 0
-1235 1236 1237 0
1235 -1236 0
1235 -1237 0
1236 -1096 -1099 0
-1236 1096 0
-1236 1099 0
1237 -1094 -1095 0
-1237 1094 0
-1237 1095 0
-1238 1239 1240 0
1238 -1239 0
1238 -1240 0
1239 -1055 -1106 0
-1239 1055 0
-1239 1106 0
1240 -1054 -1109 0
-1240 1054 0
-1240 1109 0
-1241 1242 1243 0
1241 -1242 0
1241 -1243 0
1242 -1053 -1112 0
-1242 1053 0
-1242 1112 0
1243 -1052 -1115 0
-1243 1052 0
-1243 1115 0
-1244 -1245 -1313 1376 0
-1244 1245 1313 1376 0
1244 -1376 0
1244 -1245 1313 0
1244 1245 -1313 0
-1245 1941 1246 0
-1245 -1920 1246 -1310 0
-1245 1920 1246 1310 0
-1245 -1920 -1941 -1246 1310 0
-1245 1920 -1941 -1246 -1310 0
1245 1941 -1246 0
1245 1920 -1941 1246 -1310 0
1245 1920 -1246 1310 0
1245 -1920 -1246 -1310 0
1245 -1920 -1941 1246 1310 0
-1246 1940 1247 0
-1246 -1921 1247 -1305 0
-1246 1921 1247 1305 0
-1246 -1921 -1940 -1247 1305 0
-1246 1921 -1940 -1247 -1305 0
1246 1940 -1247 0
1246 1921 -1940 1247 -1305 0
1246 1921 -1247 1305 0
1246 -1921 -1247 -1305 0
1246 -1921 -1940 1247 1305 0
-1247 1939 1248 0
-1247 -1922 1248 -1300 0
-1247 1922 1248 1300 0
-1247 -1922 -1939 -1248 1300 0
-1247 1922 -1939 -1248 -1300 0
1247 1939 -1248 0
1247 1922 -1939 1248 -1300 0
1247 1922 -1248 1300 0
1247 -1922 -1248 -1300 0
1247 -1922 -1939 1248 1300 0
-1248 1938 1249 0
-1248 -1923 1249 -1295 0
-1248 1923 1249 1295 0
-1248 -1923 -1938 -1249 1295 0
-1248 1923 -1938 -1249 -1295 0
1248 1938 -1249 0
1248 1923 -1938 1249 -1295 0
1248 1923 -1249 1295 0
1248 -1923 -1249 -1295 0
1248 -1923 -1938 1249 1295 0
-1249 1937 1250 0
-1249 -1924 1250 -1290 0
-1249 1924 1250 1290 0
-1249 -1924 -1937 -1250 1290 0
-1249 1924 -1937 -1250 -1290 0
1249 1937 -1250 0
1249 1924 -1937 1250 -1290 0
1249 1924 -1250 1290 0
1249 -1924 -1250 -1290 0
1249 -1924 -1937 1250 1290 0
-1250 1936 1251 0
-1250 -1925 1251 -1283 0
-1250 1925 1251 1283 0
-1250 -1925 -1936 -1251 1283 0
-1250 1925 -1936 -1251 -1283 0
1250 1936 -1251 0
1250 1925 -1936 1251 -1283 0
1250 1925 -1251 1283 0
1250 -1925 -1251 -1283 0
1250 -1925 -1936 1251 1283 0
-1251 1935 1252 0
-1251 -1926 1252 -1276 0
-1251 1926 1252 1276 0
-1251 -1926 -1935 -1252 1276 0
-1251 1926 -1935 -1252 -1276 0
1251 1935 -1252 0
1251 1926 -1935 1252 -1276 0
1251 1926 -1252 1276 0
1251 -1926 -1252 -1276 0
1251 -1926 -1935 1252 1276 0
-1252 1934 1253 0
-1252 -1927 1253 -1269 0
-1252 1927 1253 1269 0
-1252 -1927 -1934 -1253 1269 0
-1252 1927 -1934 -1253 -1269 0
1252 1934 -1253 0
1252 1927 -1934 1253 -1269 0
1252 1927 -1253 1269 0
1252 -1927 -1253 -1269 0
1252 -1927 -1934 1253 1269 0
-1253 1933 1254 0
-1253 1928 -1933 -1254 -1262 0
-1253 1928 1254 1262 0
-1253 -1928 1254 -1262 0
-1253 -1928 -1933 -1254 1262 0
1253 1933 -1254 0
1253 -1928 -1254 -1262 0
1253 1928 -1254 1262 0
1253 -1928 -1933 1254 1262 0
1253 1928 -1933 1254 -1262 0
1254 -1932 -1255 0
1254 -1932 -344 -1261 0
-1254 1932 0
-1254 344 1255 0
-1254 1255 1261 0
-1255 755 1256 1258 0
-1255 1256 1258 1260 0
1255 -1256 0
1255 -1258 0
1255 -755 -1260 0
-1256 1257 1133 0
-1256 1135 1257 0
1256 -1257 0
1256 -1135 -1133 0
1257 -1928 -1129 0
-1257 1928 0
-1257 1129 0
1258 -1019 -1259 0
-1258 1019 0
-1258 1259 0
1259 -1137 -1133 0
-1259 1137 0
-1259 1133 0
1260 -1021 -1259 0
-1260 1021 0
-1260 1259 0
1261 -759 -1260 0
-1261 759 0
-1261 1260 0
-1262 765 1265 0
-1262 1263 1265 0
-1262 349 1265 0
1262 -1265 0
1262 -349 -765 -1263 0
1263 -1024 -1264 0
-1263 1024 0
-1263 1264 0
1264 -1142 -1138 0
-1264 1142 0
-1264 1138 0
-1265 761 1266 1268 0
-1265 1266 1268 1263 0
1265 -1266 0
1265 -1268 0
1265 -761 -1263 0
-1266 1267 1138 0
-1266 1140 1267 0
1266 -1267 0
1266 -1140 -1138 0
1267 -1927 -1128 0
-1267 1927 0
-1267 1128 0
1268 -1023 -1264 0
-1268 1023 0
-1268 1264 0
-1269 771 1272 0
-1269 1270 1272 0
-1269 352 1272 0
1269 -1272 0
1269 -352 -771 -1270 0
1270 -1027 -1271 0
-1270 1027 0
-1270 1271 0
1271 -1147 -1143 0
-1271 1147 0
-1271 1143 0
-1272 767 1273 1275 0
-1272 1273 1275 1270 0
1272 -1273 0
1272 -1275 0
1272 -767 -1270 0
-1273 1274 1143 0
-1273 1145 1274 0
1273 -1274 0
1273 -1145 -1143 0
1274 -1926 -1127 0
-1274 1926 0
-1274 1127 0
1275 -1026 -1271 0
-1275 1026 0
-1275 1271 0
-1276 777 1279 0
-1276 1277 1279 0
-1276 355 1279 0
1276 -1279 0
1276 -355 -777 -1277 0
1277 -1030 -1278 0
-1277 1030 0
-1277 1278 0
1278 -1152 -1148 0
-1278 1152 0
-1278 1148 0
-1279 773 1280 0
-1279 1280 1277 0
1279 -1280 0
1279 -773 -1277 0
-1280 1029 1281 1282 0
-1280 1281 1282 1278 0
1280 -1282 0
1280 -1281 0
1280 -1029 -1278 0
1281 -1925 -1126 0
-1281 1925 0
-1281 1126 0
1282 -1150 -1148 0
-1282 1150 0
-1282 1148 0
-1283 783 1286 0
-1283 325 1286 0
-1283 1284 1286 0
1283 -1286 0
1283 -325 -783 -1284 0
1284 -1033 -1285 0
-1284 1033 0
-1284 1285 0
1285 -1157 -1153 0
-1285 1157 0
-1285 1153 0
-1286 779 1287 1289 0
-1286 1287 1289 1284 0
1286 -1287 0
1286 -1289 0
1286 -779 -1284 0
-1287 1288 1153 0
-1287 1155 1288 0
1287 -1288 0
1287 -1155 -1153 0
1288 -1924 -1125 0
-1288 1924 0
-1288 1125 0
1289 -1032 -1285 0
-1289 1032 0
-1289 1285 0
-1290 1036 1292 0
-1290 1291 1292 0
-1290 784 1292 0
1290 -1292 0
1290 -784 -1036 -1291 0
1291 -1162 -1158 0
-1291 1162 0
-1291 1158 0
-1292 1160 1293 1294 0
-1292 1293 1158 1294 0
1292 -1294 0
1292 -1293 0
1292 -1160 -1158 0
1293 -1923 -1124 0
-1293 1923 0
-1293 1124 0
1294 -1035 -1291 0
-1294 1035 0
-1294 1291 0
-1295 1039 1297 0
-1295 1296 1297 0
-1295 787 1297 0
1295 -1297 0
1295 -787 -1039 -1296 0
1296 -1167 -1163 0
-1296 1167 0
-1296 1163 0
-1297 1038 1298 1299 0
-1297 1298 1299 1296 0
1297 -1299 0
1297 -1298 0
1297 -1038 -1296 0
1298 -1922 -1123 0
-1298 1922 0
-1298 1123 0
1299 -1165 -1163 0
-1299 1165 0
-1299 1163 0
-1300 1042 1302 0
-1300 1301 1302 0
-1300 790 1302 0
1300 -1302 0
1300 -790 -1042 -1301 0
1301 -1172 -1168 0
-1301 1172 0
-1301 1168 0
-1302 1170 1303 1304 0
-1302 1303 1168 1304 0
1302 -1304 0
1302 -1303 0
1302 -1170 -1168 0
1303 -1921 -1122 0
-1303 1921 0
-1303 1122 0
1304 -1041 -1301 0
-1304 1041 0
-1304 1301 0
-1305 1046 1307 0
-1305 731 1307 0
-1305 1306 1307 0
1305 -1307 0
1305 -731 -1046 -1306 0
1306 -1177 -1173 0
-1306 1177 0
-1306 1173 0
-1307 1044 1308 1309 0
-1307 1308 1309 1306 0
1307 -1309 0
1307 -1308 0
1307 -1044 -1306 0
1308 -1920 -1121 0
-1308 1920 0
-1308 1121 0
1309 -1175 -1173 0
-1309 1175 0
-1309 1173 0
-1310 1182 1311 0
-1310 1047 1311 0
-1310 1178 1311 0
1310 -1311 0
1310 -1182 -1047 -1178 0
-1311 1312 1178 0
-1311 1180 1312 0
1311 -1312 0
1311 -1180 -1178 0
1312 -1919 -1120 0
-1312 1919 0
-1312 1120 0
1313 -1314 1369 0
1313 1314 -1369 0
-1313 1314 1369 0
-1313 -1314 -1369 0
1314 -1315 1366 0
1314 1315 -1366 0
-1314 1315 1366 0
-1314 -1315 -1366 0
1315 -1316 1363 0
1315 1316 -1363 0
-1315 1316 1363 0
-1315 -1316 -1363 0
1316 -1317 1360 0
1316 1317 -1360 0
-1316 1317 1360 0
-1316 -1317 -1360 0
1317 1318 -1355 0
1317 -1318 1355 0
-1317 -1318 -1355 0
-1317 1318 1355 0
1318 -1319 1352 0
1318 1319 -1352 0
-1318 1319 1352 0
-1318 -1319 -1352 0
1319 1320 -1339 0
1319 -1320 1339 0
-1319 -1320 -1339 0
-1319 1320 1339 0
1320 -1321 1336 0
1320 1321 -1336 0
-1320 1321 1336 0
-1320 -1321 -1336 0
1321 1322 -1331 0
1321 -1322 1331 0
-1321 -1322 -1331 0
-1321 1322 1331 0
1322 -1323 1328 0
1322 1323 -1328 0
-1322 1323 1328 0
-1322 -1323 -1328 0
1323 1324 -1327 0
1323 -1324 1327 0
-1323 -1324 -1327 0
-1323 1324 1327 0
1324 1325 -1326 0
1324 -1325 1326 0
-1324 -1325 -1326 0
-1324 1325 1326 0
1325 -1920 -1941 0
-1325 1920 0
-1325 1941 0
1326 -1921 -1940 0
-1326 1921 0
-1326 1940 0
1327 -1922 -1939 0
-1327 1922 0
-1327 1939 0
-1328 1329 1330 0
1328 -1329 0
1328 -1330 0
1329 -1919 -1920 -1940 -1941 0
-1329 1941 0
-1329 1919 0
-1329 1940 0
-1329 1920 0
1330 -1921 -1939 -1194 0
-1330 1921 0
-1330 1939 0
-1330 1194 0
1331 1332 -1335 0
1331 -1332 1335 0
-1331 -1332 -1335 0
-1331 1332 1335 0
1332 1333 -1334 0
1332 -1333 1334 0
-1332 -1333 -1334 0
-1332 1333 1334 0
1333 -1923 -1938 0
-1333 1923 0
-1333 1938 0
1334 -1924 -1937 0
-1334 1924 0
-1334 1937 0
1335 -1925 -1936 0
-1335 1925 0
-1335 1936 0
-1336 1337 1338 0
1336 -1337 0
1336 -1338 0
1337 -1193 -1198 0
-1337 1193 0
-1337 1198 0
1338 -1192 -1201 0
-1338 1192 0
-1338 1201 0
1339 -1340 1349 0
1339 1340 -1349 0
-1339 1340 1349 0
-1339 -1340 -1349 0
1340 1341 -1344 0
1340 -1341 1344 0
-1340 -1341 -1344 0
-1340 1341 1344 0
-1341 1342 1343 0
1341 -1342 0
1341 -1343 0
1342 -1922 -1923 -1937 -1938 0
-1342 1938 0
-1342 1922 0
-1342 1937 0
-1342 1923 0
1343 -1924 -1936 -1202 0
-1343 1924 0
-1343 1936 0
-1343 1202 0
1344 1345 -1348 0
1344 -1345 1348 0
-1344 -1345 -1348 0
-1344 1345 1348 0
1345 1346 -1347 0
1345 -1346 1347 0
-1345 -1346 -1347 0
-1345 1346 1347 0
1346 -1926 -1935 0
-1346 1926 0
-1346 1935 0
1347 -1927 -1934 0
-1347 1927 0
-1347 1934 0
1348 -1928 -1933 0
-1348 1928 0
-1348 1933 0
-1349 1350 1351 0
1349 -1350 0
1349 -1351 0
1350 -1925 -1926 -1934 -1935 0
-1350 1935 0
-1350 1925 0
-1350 1934 0
-1350 1926 0
1351 -1927 -1933 -1215 0
-1351 1927 0
-1351 1933 0
-1351 1215 0
-1352 1353 1354 0
1352 -1353 0
1352 -1354 0
1353 -1191 -1206 0
-1353 1191 0
-1353 1206 0
1354 -1190 -1209 0
-1354 1190 0
-1354 1209 0
1355 -1356 1357 0
1355 1356 -1357 0
-1355 1356 1357 0
-1355 -1356 -1357 0
1356 -1927 -1928 -1931 -1932 0
-1356 1932 0
-1356 1927 0
-1356 1931 0
-1356 1928 0
-1357 1358 1359 0
1357 -1358 0
1357 -1359 0
1358 -1211 -1214 0
-1358 1211 0
-1358 1214 0
1359 -1210 -1219 0
-1359 1210 0
-1359 1219 0
-1360 1361 1362 0
1360 -1361 0
1360 -1362 0
1361 -1189 -1222 0
-1361 1189 0
-1361 1222 0
1362 -1188 -1225 0
-1362 1188 0
-1362 1225 0
-1363 1364 1365 0
1363 -1364 0
1363 -1365 0
1364 -1228 -1231 0
-1364 1228 0
-1364 1231 0
1365 -1226 -1227 0
-1365 1226 0
-1365 1227 0
-1366 1367 1368 0
1366 -1367 0
1366 -1368 0
1367 -1187 -1232 0
-1367 1187 0
-1367 1232 0
1368 -1186 -1235 0
-1368 1186 0
-1368 1235 0
-1369 865 1372 0
-1369 1370 1372 0
-1369 403 1372 0
1369 -1372 0
1369 -403 -865 -1370 0
1370 -1118 -1371 0
-1370 1118 0
-1370 1371 0
1371 -1052 -1184 0
-1371 1052 0
-1371 1184 0
-1372 861 1373 1375 0
-1372 1373 1375 1370 0
1372 -1373 0
1372 -1375 0
1372 -861 -1370 0
-1373 1374 1184 0
-1373 1242 1374 0
1373 -1374 0
1373 -1242 -1184 0
1374 -1185 -1238 0
-1374 1185 0
-1374 1238 0
1375 -1116 -1371 0
-1375 1116 0
-1375 1371 0
-1376 1377 1425 1478 1521 0
-1376 -1377 -1425 -1478 -1521 0
-1376 1377 1425 -1478 -1521 0
-1376 -1377 -1425 1478 1521 0
1376 1377 -1425 0
1376 -1377 1425 0
1376 -1478 1521 0
1376 1478 -1521 0
-1377 1941 1378 0
-1377 -1941 1420 1421 0
-1377 -1941 -1420 -1421 0
1377 1941 -1378 0
1377 -1941 1420 -1421 0
1377 -1941 -1420 1421 0
-1378 1940 1379 0
-1378 -1940 1415 1416 0
-1378 -1940 -1415 -1416 0
1378 1940 -1379 0
1378 -1940 1415 -1416 0
1378 -1940 -1415 1416 0
-1379 1939 1380 0
-1379 -1939 1410 1411 0
-1379 -1939 -1410 -1411 0
1379 1939 -1380 0
1379 -1939 1410 -1411 0
1379 -1939 -1410 1411 0
-1380 1938 1381 0
-1380 -1938 1405 1406 0
-1380 -1938 -1405 -1406 0
1380 1938 -1381 0
1380 -1938 1405 -1406 0
1380 -1938 -1405 1406 0
-1381 1937 1382 0
-1381 -1925 1382 -1401 0
-1381 1925 1382 1401 0
-1381 -1925 -1937 -1382 1401 0
-1381 1925 -1937 -1382 -1401 0
1381 1937 -1382 0
1381 1925 -1937 1382 -1401 0
1381 1925 -1382 1401 0
1381 -1925 -1382 -1401 0
1381 -1925 -1937 1382 1401 0
-1382 1936 1383 0
-1382 -1926 1383 -1397 0
-1382 1926 1383 1397 0
-1382 -1926 -1936 -1383 1397 0
-1382 1926 -1936 -1383 -1397 0
1382 1936 -1383 0
1382 1926 -1936 1383 -1397 0
1382 1926 -1383 1397 0
1382 -1926 -1383 -1397 0
1382 -1926 -1936 1383 1397 0
-1383 1935 1384 0
-1383 -1927 1384 -1393 0
-1383 1927 1384 1393 0
-1383 -1927 -1935 -1384 1393 0
-1383 1927 -1935 -1384 -1393 0
1383 1935 -1384 0
1383 1927 -1935 1384 -1393 0
1383 1927 -1384 1393 0
1383 -1927 -1384 -1393 0
1383 -1927 -1935 1384 1393 0
-1384 1934 1385 0
-1384 1928 -1934 -1385 -1389 0
-1384 1928 1385 1389 0
-1384 -1928 1385 -1389 0
-1384 -1928 -1934 -1385 1389 0
1384 1934 -1385 0
1384 -1928 -1385 -1389 0
1384 1928 -1385 1389 0
1384 -1928 -1934 1385 1389 0
1384 1928 -1934 1385 -1389 0
1385 -1933 -1386 0
1385 -1933 -1387 0
-1385 1933 0
-1385 1386 1387 0
1386 -1928 -1254 0
-1386 1928 0
-1386 1254 0
1387 -1388 -1262 0
-1387 1388 0
-1387 1262 0
1388 1928 -1254 0
1388 -1928 1254 0
-1388 -1928 -1254 0
-1388 1928 1254 0
-1389 1390 1391 0
1389 -1390 0
1389 -1391 0
1390 -1927 -1253 0
-1390 1927 0
-1390 1253 0
1391 -1392 -1269 0
-1391 1392 0
-1391 1269 0
1392 -1927 1253 0
1392 1927 -1253 0
-1392 1927 1253 0
-1392 -1927 -1253 0
-1393 1394 1395 0
1393 -1394 0
1393 -1395 0
1394 -1926 -1252 0
-1394 1926 0
-1394 1252 0
1395 -1396 -1276 0
-1395 1396 0
-1395 1276 0
1396 -1926 1252 0
1396 1926 -1252 0
-1396 1926 1252 0
-1396 -1926 -1252 0
-1397 1398 1399 0
1397 -1398 0
1397 -1399 0
1398 -1925 -1251 0
-1398 1925 0
-1398 1251 0
1399 -1400 -1283 0
-1399 1400 0
-1399 1283 0
1400 -1925 1251 0
1400 1925 -1251 0
-1400 1925 1251 0
-1400 -1925 -1251 0
-1401 1402 1403 0
1401 -1402 0
1401 -1403 0
1402 -1924 -1250 0
-1402 1924 0
-1402 1250 0
1403 -1404 -1290 0
-1403 1404 0
-1403 1290 0
1404 -1924 1250 0
1404 1924 -1250 0
-1404 1924 1250 0
-1404 -1924 -1250 0
1405 -1924 1381 0
1405 1924 -1381 0
-1405 1924 1381 0
-1405 -1924 -1381 0
-1406 1407 1408 0
1406 -1407 0
1406 -1408 0
1407 -1923 -1249 0
-1407 1923 0
-1407 1249 0
1408 -1409 -1295 0
-1408 1409 0
-1408 1295 0
1409 -1923 1249 0
1409 1923 -1249 0
-1409 1923 1249 0
-1409 -1923 -1249 0
1410 -1923 1380 0
1410 1923 -1380 0
-1410 1923 1380 0
-1410 -1923 -1380 0
-1411 1412 1413 0
1411 -1412 0
1411 -1413 0
1412 -1922 -1248 0
-1412 1922 0
-1412 1248 0
1413 -1414 -1300 0
-1413 1414 0
-1413 1300 0
1414 -1922 1248 0
1414 1922 -1248 0
-1414 1922 1248 0
-1414 -1922 -1248 0
1415 -1922 1379 0
1415 1922 -1379 0
-1415 1922 1379 0
-1415 -1922 -1379 0
-1416 1417 1418 0
1416 -1417 0
1416 -1418 0
1417 -1921 -1247 0
-1417 1921 0
-1417 1247 0
1418 -1419 -1305 0
-1418 1419 0
-1418 1305 0
1419 -1921 1247 0
1419 1921 -1247 0
-1419 1921 1247 0
-1419 -1921 -1247 0
1420 -1921 1378 0
1420 1921 -1378 0
-1420 1921 1378 0
-1420 -1921 -1378 0
-1421 1422 1423 0
1421 -1422 0
1421 -1423 0
1422 -1920 -1246 0
-1422 1920 0
-1422 1246 0
1423 -1424 -1310 0
-1423 1424 0
-1423 1310 0
1424 -1920 1246 0
1424 1920 -1246 0
-1424 1920 1246 0
-1424 -1920 -1246 0
1425 -1426 1475 0
1425 1426 -1475 0
-1425 1426 1475 0
-1425 -1426 -1475 0
1426 -1427 1472 0
1426 1427 -1472 0
-1426 1427 1472 0
-1426 -1427 -1472 0
1427 1428 -1429 0
1427 -1428 1429 0
-1427 -1428 -1429 0
-1427 1428 1429 0
1428 -1356 -1357 0
-1428 1356 0
-1428 1357 0
1429 -1430 1469 0
1429 1430 -1469 0
-1429 1430 1469 0
-1429 -1430 -1469 0
1430 -1431 1466 0
1430 1431 -1466 0
-1430 1431 1466 0
-1430 -1431 -1466 0
1431 -1432 1463 0
1431 1432 -1463 0
-1431 1432 1463 0
-1431 -1432 -1463 0
1432 1433 -1452 0
1432 -1433 1452 0
-1432 -1433 -1452 0
-1432 1433 1452 0
1433 -1434 1449 0
1433 1434 -1449 0
-1433 1434 1449 0
-1433 -1434 -1449 0
1434 1435 -1444 0
1434 -1435 1444 0
-1434 -1435 -1444 0
-1434 1435 1444 0
1435 -1436 1441 0
1435 1436 -1441 0
-1435 1436 1441 0
-1435 -1436 -1441 0
1436 1437 -1440 0
1436 -1437 1440 0
-1436 -1437 -1440 0
-1436 1437 1440 0
1437 1438 -1439 0
1437 -1438 1439 0
-1437 -1438 -1439 0
-1437 1438 1439 0
1438 -1921 -1941 0
-1438 1921 0
-1438 1941 0
1439 -1922 -1940 0
-1439 1922 0
-1439 1940 0
1440 -1923 -1939 0
-1440 1923 0
-1440 1939 0
-1441 1442 1443 0
1441 -1442 0
1441 -1443 0
1442 -1920 -1921 -1940 -1941 0
-1442 1941 0
-1442 1920 0
-1442 1940 0
-1442 1921 0
1443 -1922 -1939 -1324 0
-1443 1922 0
-1443 1939 0
-1443 1324 0
1444 1445 -1448 0
1444 -1445 1448 0
-1444 -1445 -1448 0
-1444 1445 1448 0
1445 1446 -1447 0
1445 -1446 1447 0
-1445 -1446 -1447 0
-1445 1446 1447 0
1446 -1924 -1938 0
-1446 1924 0
-1446 1938 0
1447 -1925 -1937 0
-1447 1925 0
-1447 1937 0
1448 -1926 -1936 0
-1448 1926 0
-1448 1936 0
-1449 1450 1451 0
1449 -1450 0
1449 -1451 0
1450 -1323 -1328 0
-1450 1323 0
-1450 1328 0
1451 -1322 -1331 0
-1451 1322 0
-1451 1331 0
1452 -1453 1460 0
1452 1453 -1460 0
-1452 1453 1460 0
-1452 -1453 -1460 0
1453 1454 -1457 0
1453 -1454 1457 0
-1453 -1454 -1457 0
-1453 1454 1457 0
-1454 1455 1456 0
1454 -1455 0
1454 -1456 0
1455 -1923 -1924 -1937 -1938 0
-1455 1938 0
-1455 1923 0
-1455 1937 0
-1455 1924 0
1456 -1925 -1936 -1332 0
-1456 1925 0
-1456 1936 0
-1456 1332 0
1457 1458 -1459 0
1457 -1458 1459 0
-1457 -1458 -1459 0
-1457 1458 1459 0
1458 -1927 -1935 0
-1458 1927 0
-1458 1935 0
1459 -1928 -1934 0
-1459 1928 0
-1459 1934 0
-1460 1461 1462 0
1460 -1461 0
1460 -1462 0
1461 -1926 -1927 -1934 -1935 0
-1461 1935 0
-1461 1926 0
-1461 1934 0
-1461 1927 0
1462 -1928 -1933 -1345 0
-1462 1928 0
-1462 1933 0
-1462 1345 0
-1463 1464 1465 0
1463 -1464 0
1463 -1465 0
1464 -1321 -1336 0
-1464 1321 0
-1464 1336 0
1465 -1320 -1339 0
-1465 1320 0
-1465 1339 0
-1466 1467 1468 0
1466 -1467 0
1466 -1468 0
1467 -1341 -1344 0
-1467 1341 0
-1467 1344 0
1468 -1340 -1349 0
-1468 1340 0
-1468 1349 0
-1469 1470 1471 0
1469 -1470 0
1469 -1471 0
1470 -1319 -1352 0
-1470 1319 0
-1470 1352 0
1471 -1318 -1355 0
-1471 1318 0
-1471 1355 0
-1472 1473 1474 0
1472 -1473 0
1472 -1474 0
1473 -1317 -1360 0
-1473 1317 0
-1473 1360 0
1474 -1316 -1363 0
-1474 1316 0
-1474 1363 0
-1475 1476 1477 0
1475 -1476 0
1475 -1477 0
1476 -1315 -1366 0
-1476 1315 0
-1476 1366 0
1477 -1314 -1369 0
-1477 1314 0
-1477 1369 0
-1478 1941 1479 0
-1478 -1922 1479 -1517 0
-1478 1922 1479 1517 0
-1478 -1922 -1941 -1479 1517 0
-1478 1922 -1941 -1479 -1517 0
1478 1941 -1479 0
1478 1922 -1941 1479 -1517 0
1478 1922 -1479 1517 0
1478 -1922 -1479 -1517 0
1478 -1922 -1941 1479 1517 0
-1479 1940 1480 0
-1479 -1923 1480 -1513 0
-1479 1923 1480 1513 0
-1479 -1923 -1940 -1480 1513 0
-1479 1923 -1940 -1480 -1513 0
1479 1940 -1480 0
1479 1923 -1940 1480 -1513 0
1479 1923 -1480 1513 0
1479 -1923 -1480 -1513 0
1479 -1923 -1940 1480 1513 0
-1480 1939 1481 0
-1480 -1924 1481 -1509 0
-1480 1924 1481 1509 0
-1480 -1924 -1939 -1481 1509 0
-1480 1924 -1939 -1481 -1509 0
1480 1939 -1481 0
1480 1924 -1939 1481 -1509 0
1480 1924 -1481 1509 0
1480 -1924 -1481 -1509 0
1480 -1924 -1939 1481 1509 0
-1481 1938 1482 0
-1481 -1925 1482 -1505 0
-1481 1925 1482 1505 0
-1481 -1925 -1938 -1482 1505 0
-1481 1925 -1938 -1482 -1505 0
1481 1938 -1482 0
1481 1925 -1938 1482 -1505 0
1481 1925 -1482 1505 0
1481 -1925 -1482 -1505 0
1481 -1925 -1938 1482 1505 0
-1482 1937 1483 0
-1482 -1926 1483 -1499 0
-1482 1926 1483 1499 0
-1482 -1926 -1937 -1483 1499 0
-1482 1926 -1937 -1483 -1499 0
1482 1937 -1483 0
1482 1926 -1937 1483 -1499 0
1482 1926 -1483 1499 0
1482 -1926 -1483 -1499 0
1482 -1926 -1937 1483 1499 0
-1483 1936 1484 0
-1483 -1927 1484 -1494 0
-1483 1927 1484 1494 0
-1483 -1927 -1936 -1484 1494 0
-1483 1927 -1936 -1484 -1494 0
1483 1936 -1484 0
1483 1927 -1936 1484 -1494 0
1483 1927 -1484 1494 0
1483 -1927 -1484 -1494 0
1483 -1927 -1936 1484 1494 0
-1484 1935 1485 0
-1484 1928 -1935 -1485 -1490 0
-1484 1928 1485 1490 0
-1484 -1928 1485 -1490 0
-1484 -1928 -1935 -1485 1490 0
1484 1935 -1485 0
1484 -1928 -1485 -1490 0
1484 1928 -1485 1490 0
1484 -1928 -1935 1485 1490 0
1484 1928 -1935 1485 -1490 0
1485 -1934 -1486 0
1485 -1934 -1489 0
1485 -1934 -1487 0
-1485 1934 0
-1485 1486 1487 1489 0
1486 -1928 -1385 0
-1486 1928 0
-1486 1385 0
1487 -1390 -1488 0
-1487 1390 0
-1487 1488 0
1488 1928 -1385 0
1488 -1928 1385 0
-1488 -1928 -1385 0
-1488 1928 1385 0
1489 -1392 -1269 -1488 0
-1489 1392 0
-1489 1269 0
-1489 1488 0
-1490 1396 1492 0
-1490 1276 1492 0
-1490 1491 1492 0
1490 -1492 0
1490 -1396 -1276 -1491 0
1491 -1927 1384 0
1491 1927 -1384 0
-1491 1927 1384 0
-1491 -1927 -1384 0
-1492 1493 1491 0
-1492 1394 1493 0
1492 -1493 0
1492 -1394 -1491 0
1493 -1927 -1384 0
-1493 1927 0
-1493 1384 0
-1494 1283 1495 0
-1494 1495 1498 0
1494 -1495 0
1494 -1283 -1498 0
-1495 1496 1497 0
-1495 1398 1496 0
1495 -1496 0
1495 -1398 -1497 0
1496 -1926 -1383 0
-1496 1926 0
-1496 1383 0
1497 -1926 1383 0
1497 1926 -1383 0
-1497 1926 1383 0
-1497 -1926 -1383 0
1498 -1400 -1497 0
-1498 1400 0
-1498 1497 0
-1499 1290 1500 0
-1499 1500 1504 0
1499 -1500 0
1499 -1290 -1504 0
-1500 1501 1502 0
1500 -1501 0
1500 -1502 0
1501 -1925 -1382 0
-1501 1925 0
-1501 1382 0
1502 -1402 -1503 0
-1502 1402 0
-1502 1503 0
1503 -1925 1382 0
1503 1925 -1382 0
-1503 1925 1382 0
-1503 -1925 -1382 0
1504 -1404 -1503 0
-1504 1404 0
-1504 1503 0
-1505 1295 1506 0
-1505 1506 1508 0
1505 -1506 0
1505 -1295 -1508 0
-1506 1507 1405 0
-1506 1407 1507 0
1506 -1507 0
1506 -1407 -1405 0
1507 -1924 -1381 0
-1507 1924 0
-1507 1381 0
1508 -1409 -1405 0
-1508 1409 0
-1508 1405 0
-1509 1300 1510 0
-1509 1510 1512 0
1509 -1510 0
1509 -1300 -1512 0
-1510 1511 1410 0
-1510 1412 1511 0
1510 -1511 0
1510 -1412 -1410 0
1511 -1923 -1380 0
-1511 1923 0
-1511 1380 0
1512 -1414 -1410 0
-1512 1414 0
-1512 1410 0
-1513 1305 1514 0
-1513 1514 1516 0
1513 -1514 0
1513 -1305 -1516 0
-1514 1515 1415 0
-1514 1417 1515 0
1514 -1515 0
1514 -1417 -1415 0
1515 -1922 -1379 0
-1515 1922 0
-1515 1379 0
1516 -1419 -1415 0
-1516 1419 0
-1516 1415 0
-1517 1310 1518 0
-1517 1518 1520 0
1517 -1518 0
1517 -1310 -1520 0
-1518 1519 1420 0
-1518 1422 1519 0
1518 -1519 0
1518 -1422 -1420 0
1519 -1921 -1378 0
-1519 1921 0
-1519 1378 0
1520 -1424 -1420 0
-1520 1424 0
-1520 1420 0
1521 -1522 1565 0
1521 1522 -1565 0
-1521 1522 1565 0
-1521 -1522 -1565 0
1522 -1523 1562 0
1522 1523 -1562 0
-1522 1523 1562 0
-1522 -1523 -1562 0
1523 -1524 1559 0
1523 1524 -1559 0
-1523 1524 1559 0
-1523 -1524 -1559 0
1524 -1525 1556 0
1524 1525 -1556 0
-1524 1525 1556 0
-1524 -1525 -1556 0
1525 -1526 1553 0
1525 1526 -1553 0
-1525 1526 1553 0
-1525 -1526 -1553 0
1526 1527 -1546 0
1526 -1527 1546 0
-1526 -1527 -1546 0
-1526 1527 1546 0
1527 -1528 1543 0
1527 1528 -1543 0
-1527 1528 1543 0
-1527 -1528 -1543 0
1528 1529 -1538 0
1528 -1529 1538 0
-1528 -1529 -1538 0
-1528 1529 1538 0
1529 -1530 1535 0
1529 1530 -1535 0
-1529 1530 1535 0
-1529 -1530 -1535 0
1530 1531 -1534 0
1530 -1531 1534 0
-1530 -1531 -1534 0
-1530 1531 1534 0
1531 1532 -1533 0
1531 -1532 1533 0
-1531 -1532 -1533 0
-1531 1532 1533 0
1532 -1922 -1941 0
-1532 1922 0
-1532 1941 0
1533 -1923 -1940 0
-1533 1923 0
-1533 1940 0
1534 -1924 -1939 0
-1534 1924 0
-1534 1939 0
-1535 1536 1537 0
1535 -1536 0
1535 -1537 0
1536 -1921 -1922 -1940 -1941 0
-1536 1941 0
-1536 1921 0
-1536 1940 0
-1536 1922 0
1537 -1923 -1939 -1437 0
-1537 1923 0
-1537 1939 0
-1537 1437 0
1538 1539 -1542 0
1538 -1539 1542 0
-1538 -1539 -1542 0
-1538 1539 1542 0
1539 1540 -1541 0
1539 -1540 1541 0
-1539 -1540 -1541 0
-1539 1540 1541 0
1540 -1925 -1938 0
-1540 1925 0
-1540 1938 0
1541 -1926 -1937 0
-1541 1926 0
-1541 1937 0
1542 -1927 -1936 0
-1542 1927 0
-1542 1936 0
-1543 1544 1545 0
1543 -1544 0
1543 -1545 0
1544 -1436 -1441 0
-1544 1436 0
-1544 1441 0
1545 -1435 -1444 0
-1545 1435 0
-1545 1444 0
1546 1547 -1548 0
1546 -1547 1548 0
-1546 -1547 -1548 0
-1546 1547 1548 0
1547 -1927 -1928 -1934 -1935 0
-1547 1935 0
-1547 1927 0
-1547 1934 0
-1547 1928 0
1548 1549 -1552 0
1548 -1549 1552 0
-1548 -1549 -1552 0
-1548 1549 1552 0
-1549 1550 1551 0
1549 -1550 0
1549 -1551 0
1550 -1924 -1925 -1937 -1938 0
-1550 1938 0
-1550 1924 0
-1550 1937 0
-1550 1925 0
1551 -1926 -1936 -1445 0
-1551 1926 0
-1551 1936 0
-1551 1445 0
1552 -1928 -1935 0
-1552 1928 0
-1552 1935 0
-1553 1554 1555 0
1553 -1554 0
1553 -1555 0
1554 -1434 -1449 0
-1554 1434 0
-1554 1449 0
1555 -1433 -1452 0
-1555 1433 0
-1555 1452 0
-1556 1557 1558 0
1556 -1557 0
1556 -1558 0
1557 -1454 -1457 0
-1557 1454 0
-1557 1457 0
1558 -1453 -1460 0
-1558 1453 0
-1558 1460 0
-1559 1560 1561 0
1559 -1560 0
1559 -1561 0
1560 -1432 -1463 0
-1560 1432 0
-1560 1463 0
1561 -1431 -1466 0
-1561 1431 0
-1561 1466 0
-1562 1563 1564 0
1562 -1563 0
1562 -1564 0
1563 -1430 -1469 0
-1563 1430 0
-1563 1469 0
1564 -1428 -1429 0
-1564 1428 0
-1564 1429 0
-1565 1369 1566 0
-1565 1566 1568 0
1565 -1566 0
1565 -1369 -1568 0
-1566 1567 1426 0
-1566 1476 1567 0
1566 -1567 0
1566 -1476 -1426 0
1567 -1427 -1472 0
-1567 1427 0
-1567 1472 0
1568 -1314 -1426 0
-1568 1314 0
-1568 1426 0
-1569 -1570 -1607 1648 0
-1569 1570 1607 1648 0
1569 -1648 0
1569 -1570 1607 0
1569 1570 -1607 0
-1570 1941 1571 0
-1570 -1941 1602 1603 0
-1570 -1941 -1602 -1603 0
1570 1941 -1571 0
1570 -1941 1602 -1603 0
1570 -1941 -1602 1603 0
-1571 1940 1572 0
-1571 -1940 1597 1598 0
-1571 -1940 -1597 -1598 0
1571 1940 -1572 0
1571 -1940 1597 -1598 0
1571 -1940 -1597 1598 0
-1572 1939 1573 0
-1572 -1939 1592 1593 0
-1572 -1939 -1592 -1593 0
1572 1939 -1573 0
1572 -1939 1592 -1593 0
1572 -1939 -1592 1593 0
-1573 1938 1574 0
-1573 -1926 1574 -1588 0
-1573 1926 1574 1588 0
-1573 -1926 -1938 -1574 1588 0
-1573 1926 -1938 -1574 -1588 0
1573 1938 -1574 0
1573 1926 -1938 1574 -1588 0
1573 1926 -1574 1588 0
1573 -1926 -1574 -1588 0
1573 -1926 -1938 1574 1588 0
-1574 1937 1575 0
-1574 -1927 1575 -1584 0
-1574 1927 1575 1584 0
-1574 -1927 -1937 -1575 1584 0
-1574 1927 -1937 -1575 -1584 0
1574 1937 -1575 0
1574 1927 -1937 1575 -1584 0
1574 1927 -1575 1584 0
1574 -1927 -1575 -1584 0
1574 -1927 -1937 1575 1584 0
-1575 1936 1576 0
-1575 1928 -1936 -1576 -1580 0
-1575 1928 1576 1580 0
-1575 -1928 1576 -1580 0
-1575 -1928 -1936 -1576 1580 0
1575 1936 -1576 0
1575 -1928 -1576 -1580 0
1575 1928 -1576 1580 0
1575 -1928 -1936 1576 1580 0
1575 1928 -1936 1576 -1580 0
1576 -1935 -1577 0
1576 -1935 -1578 0
-1576 1935 0
-1576 1577 1578 0
1577 -1928 -1485 0
-1577 1928 0
-1577 1485 0
1578 -1579 -1490 0
-1578 1579 0
-1578 1490 0
1579 1928 -1485 0
1579 -1928 1485 0
-1579 -1928 -1485 0
-1579 1928 1485 0
-1580 1581 1582 0
1580 -1581 0
1580 -1582 0
1581 -1927 -1484 0
-1581 1927 0
-1581 1484 0
1582 -1583 -1494 0
-1582 1583 0
-1582 1494 0
1583 -1927 1484 0
1583 1927 -1484 0
-1583 1927 1484 0
-1583 -1927 -1484 0
-1584 1585 1586 0
1584 -1585 0
1584 -1586 0
1585 -1926 -1483 0
-1585 1926 0
-1585 1483 0
1586 -1587 -1499 0
-1586 1587 0
-1586 1499 0
1587 -1926 1483 0
1587 1926 -1483 0
-1587 1926 1483 0
-1587 -1926 -1483 0
-1588 1589 1590 0
1588 -1589 0
1588 -1590 0
1589 -1925 -1482 0
-1589 1925 0
-1589 1482 0
1590 -1591 -1505 0
-1590 1591 0
-1590 1505 0
1591 -1925 1482 0
1591 1925 -1482 0
-1591 1925 1482 0
-1591 -1925 -1482 0
1592 -1925 1573 0
1592 1925 -1573 0
-1592 1925 1573 0
-1592 -1925 -1573 0
-1593 1594 1595 0
1593 -1594 0
1593 -1595 0
1594 -1924 -1481 0
-1594 1924 0
-1594 1481 0
1595 -1596 -1509 0
-1595 1596 0
-1595 1509 0
1596 -1924 1481 0
1596 1924 -1481 0
-1596 1924 1481 0
-1596 -1924 -1481 0
1597 -1924 1572 0
1597 1924 -1572 0
-1597 1924 1572 0
-1597 -1924 -1572 0
-1598 1599 1600 0
1598 -1599 0
1598 -1600 0
1599 -1923 -1480 0
-1599 1923 0
-1599 1480 0
1600 -1601 -1513 0
-1600 1601 0
-1600 1513 0
1601 -1923 1480 0
1601 1923 -1480 0
-1601 1923 1480 0
-1601 -1923 -1480 0
1602 -1923 1571 0
1602 1923 -1571 0
-1602 1923 1571 0
-1602 -1923 -1571 0
-1603 1604 1605 0
1603 -1604 0
1603 -1605 0
1604 -1922 -1479 0
-1604 1922 0
-1604 1479 0
1605 -1606 -1517 0
-1605 1606 0
-1605 1517 0
1606 -1922 1479 0
1606 1922 -1479 0
-1606 1922 1479 0
-1606 -1922 -1479 0
1607 -1608 1645 0
1607 1608 -1645 0
-1607 1608 1645 0
-1607 -1608 -1645 0
1608 1609 -1610 0
1608 -1609 1610 0
-1608 -1609 -1610 0
-1608 1609 1610 0
1609 -1524 -1559 0
-1609 1524 0
-1609 1559 0
1610 -1611 1642 0
1610 1611 -1642 0
-1610 1611 1642 0
-1610 -1611 -1642 0
1611 -1612 1639 0
1611 1612 -1639 0
-1611 1612 1639 0
-1611 -1612 -1639 0
1612 -1613 1636 0
1612 1613 -1636 0
-1612 1613 1636 0
-1612 -1613 -1636 0
1613 -1614 1633 0
1613 1614 -1633 0
-1613 1614 1633 0
-1613 -1614 -1633 0
1614 -1615 1630 0
1614 1615 -1630 0
-1614 1615 1630 0
-1614 -1615 -1630 0
1615 1616 -1625 0
1615 -1616 1625 0
-1615 -1616 -1625 0
-1615 1616 1625 0
1616 -1617 1622 0
1616 1617 -1622 0
-1616 1617 1622 0
-1616 -1617 -1622 0
1617 1618 -1621 0
1617 -1618 1621 0
-1617 -1618 -1621 0
-1617 1618 1621 0
1618 1619 -1620 0
1618 -1619 1620 0
-1618 -1619 -1620 0
-1618 1619 1620 0
1619 -1923 -1941 0
-1619 1923 0
-1619 1941 0
1620 -1924 -1940 0
-1620 1924 0
-1620 1940 0
1621 -1925 -1939 0
-1621 1925 0
-1621 1939 0
-1622 1623 1624 0
1622 -1623 0
1622 -1624 0
1623 -1922 -1923 -1940 -1941 0
-1623 1941 0
-1623 1922 0
-1623 1940 0
-1623 1923 0
1624 -1924 -1939 -1531 0
-1624 1924 0
-1624 1939 0
-1624 1531 0
1625 1626 -1629 0
1625 -1626 1629 0
-1625 -1626 -1629 0
-1625 1626 1629 0
1626 1627 -1628 0
1626 -1627 1628 0
-1626 -1627 -1628 0
-1626 1627 1628 0
1627 -1926 -1938 0
-1627 1926 0
-1627 1938 0
1628 -1927 -1937 0
-1628 1927 0
-1628 1937 0
1629 -1928 -1936 0
-1629 1928 0
-1629 1936 0
-1630 1631 1632 0
1630 -1631 0
1630 -1632 0
1631 -1530 -1535 0
-1631 1530 0
-1631 1535 0
1632 -1529 -1538 0
-1632 1529 0
-1632 1538 0
-1633 1634 1635 0
1633 -1634 0
1633 -1635 0
1634 -1925 -1926 -1937 -1938 0
-1634 1938 0
-1634 1925 0
-1634 1937 0
-1634 1926 0
1635 -1927 -1936 -1539 0
-1635 1927 0
-1635 1936 0
-1635 1539 0
-1636 1637 1638 0
1636 -1637 0
1636 -1638 0
1637 -1528 -1543 0
-1637 1528 0
-1637 1543 0
1638 -1527 -1546 0
-1638 1527 0
-1638 1546 0
-1639 1640 1641 0
1639 -1640 0
1639 -1641 0
1640 -1928 -1935 -1549 0
-1640 1928 0
-1640 1935 0
-1640 1549 0
1641 -1547 -1548 0
-1641 1547 0
-1641 1548 0
-1642 1643 1644 0
1642 -1643 0
1642 -1644 0
1643 -1526 -1553 0
-1643 1526 0
-1643 1553 0
1644 -1525 -1556 0
-1644 1525 0
-1644 1556 0
-1645 1646 1647 0
1645 -1646 0
1645 -1647 0
1646 -1523 -1562 0
-1646 1523 0
-1646 1562 0
1647 -1522 -1565 0
-1647 1522 0
-1647 1565 0
-1648 1649 1690 1728 1753 0
-1648 -1649 -1690 -1728 -1753 0
-1648 1649 1690 -1728 -1753 0
-1648 -1649 -1690 1728 1753 0
1648 1649 -1690 0
1648 -1649 1690 0
1648 -1728 1753 0
1648 1728 -1753 0
-1649 1941 1650 0
-1649 -1924 1650 -1684 0
-1649 1924 1650 1684 0
-1649 -1924 -1941 -1650 1684 0
-1649 1924 -1941 -1650 -1684 0
1649 1941 -1650 0
1649 1924 -1941 1650 -1684 0
1649 1924 -1650 1684 0
1649 -1924 -1650 -1684 0
1649 -1924 -1941 1650 1684 0
-1650 1940 1651 0
-1650 -1925 1651 -1678 0
-1650 1925 1651 1678 0
-1650 -1925 -1940 -1651 1678 0
-1650 1925 -1940 -1651 -1678 0
1650 1940 -1651 0
1650 1925 -1940 1651 -1678 0
1650 1925 -1651 1678 0
1650 -1925 -1651 -1678 0
1650 -1925 -1940 1651 1678 0
-1651 1939 1652 0
-1651 -1926 1652 -1673 0
-1651 1926 1652 1673 0
-1651 -1926 -1939 -1652 1673 0
-1651 1926 -1939 -1652 -1673 0
1651 1939 -1652 0
1651 1926 -1939 1652 -1673 0
1651 1926 -1652 1673 0
1651 -1926 -1652 -1673 0
1651 -1926 -1939 1652 1673 0
-1652 1938 1653 0
-1652 -1927 1653 -1667 0
-1652 1927 1653 1667 0
-1652 -1927 -1938 -1653 1667 0
-1652 1927 -1938 -1653 -1667 0
1652 1938 -1653 0
1652 1927 -1938 1653 -1667 0
1652 1927 -1653 1667 0
1652 -1927 -1653 -1667 0
1652 -1927 -1938 1653 1667 0
-1653 1937 1654 0
-1653 1928 -1937 -1654 -1661 0
-1653 1928 1654 1661 0
-1653 -1928 1654 -1661 0
-1653 -1928 -1937 -1654 1661 0
1653 1937 -1654 0
1653 -1928 -1654 -1661 0
1653 1928 -1654 1661 0
1653 -1928 -1937 1654 1661 0
1653 1928 -1937 1654 -1661 0
1654 -1936 -1655 0
1654 -1936 -1283 -1660 0
-1654 1936 0
-1654 1283 1655 0
-1654 1655 1660 0
-1655 1581 1656 1658 0
-1655 1656 1657 1658 0
1655 -1658 0
1655 -1656 0
1655 -1581 -1657 0
1656 -1928 -1576 0
-1656 1928 0
-1656 1576 0
1657 1928 -1576 0
1657 -1928 1576 0
-1657 -1928 -1576 0
-1657 1928 1576 0
1658 -1495 -1659 0
-1658 1495 0
-1658 1659 0
1659 -1583 -1657 0
-1659 1583 0
-1659 1657 0
1660 -1498 -1659 0
-1660 1498 0
-1660 1659 0
-1661 1504 1664 0
-1661 1662 1664 0
-1661 1290 1664 0
1661 -1664 0
1661 -1290 -1504 -1662 0
1662 -1587 -1663 0
-1662 1587 0
-1662 1663 0
1663 -1927 1575 0
1663 1927 -1575 0
-1663 1927 1575 0
-1663 -1927 -1575 0
-1664 1585 1665 1666 0
-1664 1665 1663 1666 0
1664 -1666 0
1664 -1665 0
1664 -1585 -1663 0
1665 -1927 -1575 0
-1665 1927 0
-1665 1575 0
1666 -1500 -1662 0
-1666 1500 0
-1666 1662 0
-1667 1508 1670 0
-1667 1668 1670 0
-1667 1295 1670 0
1667 -1670 0
1667 -1295 -1508 -1668 0
1668 -1591 -1669 0
-1668 1591 0
-1668 1669 0
1669 -1926 1574 0
1669 1926 -1574 0
-1669 1926 1574 0
-1669 -1926 -1574 0
-1670 1506 1671 1672 0
-1670 1671 1672 1668 0
1670 -1672 0
1670 -1671 0
1670 -1506 -1668 0
1671 -1926 -1574 0
-1671 1926 0
-1671 1574 0
1672 -1589 -1669 0
-1672 1589 0
-1672 1669 0
-1673 1512 1675 0
-1673 1674 1675 0
-1673 1300 1675 0
1673 -1675 0
1673 -1300 -1512 -1674 0
1674 -1596 -1592 0
-1674 1596 0
-1674 1592 0
-1675 1594 1676 1677 0
-1675 1676 1592 1677 0
1675 -1677 0
1675 -1676 0
1675 -1594 -1592 0
1676 -1925 -1573 0
-1676 1925 0
-1676 1573 0
1677 -1510 -1674 0
-1677 1510 0
-1677 1674 0
-1678 1305 1679 0
-1678 1679 1683 0
1678 -1679 0
1678 -1305 -1683 0
-1679 1514 1680 1681 0
-1679 1680 1681 1682 0
1679 -1681 0
1679 -1680 0
1679 -1514 -1682 0
1680 -1924 -1572 0
-1680 1924 0
-1680 1572 0
1681 -1599 -1597 0
-1681 1599 0
-1681 1597 0
1682 -1601 -1597 0
-1682 1601 0
-1682 1597 0
1683 -1516 -1682 0
-1683 1516 0
-1683 1682 0
-1684 1310 1685 0
-1684 1685 1689 0
1684 -1685 0
1684 -1310 -1689 0
-1685 1604 1686 1687 0
-1685 1686 1602 1687 0
1685 -1687 0
1685 -1686 0
1685 -1604 -1602 0
1686 -1923 -1571 0
-1686 1923 0
-1686 1571 0
1687 -1518 -1688 0
-1687 1518 0
-1687 1688 0
1688 -1606 -1602 0
-1688 1606 0
-1688 1602 0
1689 -1520 -1688 0
-1689 1520 0
-1689 1688 0
1690 -1691 1722 0
1690 1691 -1722 0
-1690 1691 1722 0
-1690 -1691 -1722 0
1691 1692 -1693 0
1691 -1692 1693 0
-1691 -1692 -1693 0
-1691 1692 1693 0
1692 -1611 -1642 0
-1692 1611 0
-1692 1642 0
1693 -1694 1719 0
1693 1694 -1719 0
-1693 1694 1719 0
-1693 -1694 -1719 0
1694 -1695 1716 0
1694 1695 -1716 0
-1694 1695 1716 0
-1694 -1695 -1716 0
1695 -1696 1713 0
1695 1696 -1713 0
-1695 1696 1713 0
-1695 -1696 -1713 0
1696 -1697 1710 0
1696 1697 -1710 0
-1696 1697 1710 0
-1696 -1697 -1710 0
1697 1698 -1707 0
1697 -1698 1707 0
-1697 -1698 -1707 0
-1697 1698 1707 0
1698 -1699 1704 0
1698 1699 -1704 0
-1698 1699 1704 0
-1698 -1699 -1704 0
1699 1700 -1703 0
1699 -1700 1703 0
-1699 -1700 -1703 0
-1699 1700 1703 0
1700 1701 -1702 0
1700 -1701 1702 0
-1700 -1701 -1702 0
-1700 1701 1702 0
1701 -1924 -1941 0
-1701 1924 0
-1701 1941 0
1702 -1925 -1940 0
-1702 1925 0
-1702 1940 0
1703 -1926 -1939 0
-1703 1926 0
-1703 1939 0
-1704 1705 1706 0
1704 -1705 0
1704 -1706 0
1705 -1923 -1924 -1940 -1941 0
-1705 1941 0
-1705 1923 0
-1705 1940 0
-1705 1924 0
1706 -1925 -1939 -1618 0
-1706 1925 0
-1706 1939 0
-1706 1618 0
1707 1708 -1709 0
1707 -1708 1709 0
-1707 -1708 -1709 0
-1707 1708 1709 0
1708 -1927 -1938 0
-1708 1927 0
-1708 1938 0
1709 -1928 -1937 0
-1709 1928 0
-1709 1937 0
-1710 1711 1712 0
1710 -1711 0
1710 -1712 0
1711 -1617 -1622 0
-1711 1617 0
-1711 1622 0
1712 -1616 -1625 0
-1712 1616 0
-1712 1625 0
-1713 1714 1715 0
1713 -1714 0
1713 -1715 0
1714 -1926 -1927 -1937 -1938 0
-1714 1938 0
-1714 1926 0
-1714 1937 0
-1714 1927 0
1715 -1928 -1936 -1626 0
-1715 1928 0
-1715 1936 0
-1715 1626 0
-1716 1717 1718 0
1716 -1717 0
1716 -1718 0
1717 -1615 -1630 0
-1717 1615 0
-1717 1630 0
1718 -1614 -1633 0
-1718 1614 0
-1718 1633 0
-1719 1720 1721 0
1719 -1720 0
1719 -1721 0
1720 -1613 -1636 0
-1720 1613 0
-1720 1636 0
1721 -1612 -1639 0
-1721 1612 0
-1721 1639 0
-1722 1369 1723 0
-1722 1723 1727 0
1722 -1723 0
1722 -1369 -1727 0
-1723 1646 1724 1725 0
-1723 1724 1608 1725 0
1723 -1725 0
1723 -1724 0
1723 -1646 -1608 0
1724 -1609 -1610 0
-1724 1609 0
-1724 1610 0
1725 -1566 -1726 0
-1725 1566 0
-1725 1726 0
1726 -1522 -1608 0
-1726 1522 0
-1726 1608 0
1727 -1568 -1726 0
-1727 1568 0
-1727 1726 0
-1728 1941 1729 0
-1728 -1941 1748 1749 0
-1728 -1941 -1748 -1749 0
1728 1941 -1729 0
1728 -1941 1748 -1749 0
1728 -1941 -1748 1749 0
-1729 1940 1730 0
-1729 -1926 1730 -1744 0
-1729 1926 1730 1744 0
-1729 -1926 -1940 -1730 1744 0
-1729 1926 -1940 -1730 -1744 0
1729 1940 -1730 0
1729 1926 -1940 1730 -1744 0
1729 1926 -1730 1744 0
1729 -1926 -1730 -1744 0
1729 -1926 -1940 1730 1744 0
-1730 1939 1731 0
-1730 -1927 1731 -1740 0
-1730 1927 1731 1740 0
-1730 -1927 -1939 -1731 1740 0
-1730 1927 -1939 -1731 -1740 0
1730 1939 -1731 0
1730 1927 -1939 1731 -1740 0
1730 1927 -1731 1740 0
1730 -1927 -1731 -1740 0
1730 -1927 -1939 1731 1740 0
-1731 1938 1732 0
-1731 1928 -1938 -1732 -1736 0
-1731 1928 1732 1736 0
-1731 -1928 1732 -1736 0
-1731 -1928 -1938 -1732 1736 0
1731 1938 -1732 0
1731 -1928 -1732 -1736 0
1731 1928 -1732 1736 0
1731 -1928 -1938 1732 1736 0
1731 1928 -1938 1732 -1736 0
1732 -1937 -1733 0
1732 -1937 -1734 0
-1732 1937 0
-1732 1733 1734 0
1733 -1928 -1654 0
-1733 1928 0
-1733 1654 0
1734 -1735 -1661 0
-1734 1735 0
-1734 1661 0
1735 1928 -1654 0
1735 -1928 1654 0
-1735 -1928 -1654 0
-1735 1928 1654 0
-1736 1737 1738 0
1736 -1737 0
1736 -1738 0
1737 -1927 -1653 0
-1737 1927 0
-1737 1653 0
1738 -1739 -1667 0
-1738 1739 0
-1738 1667 0
1739 -1927 1653 0
1739 1927 -1653 0
-1739 1927 1653 0
-1739 -1927 -1653 0
-1740 1741 1742 0
1740 -1741 0
1740 -1742 0
1741 -1926 -1652 0
-1741 1926 0
-1741 1652 0
1742 -1743 -1673 0
-1742 1743 0
-1742 1673 0
1743 -1926 1652 0
1743 1926 -1652 0
-1743 1926 1652 0
-1743 -1926 -1652 0
-1744 1745 1746 0
1744 -1745 0
1744 -1746 0
1745 -1925 -1651 0
-1745 1925 0
-1745 1651 0
1746 -1747 -1678 0
-1746 1747 0
-1746 1678 0
1747 -1925 1651 0
1747 1925 -1651 0
-1747 1925 1651 0
-1747 -1925 -1651 0
1748 -1925 1729 0
1748 1925 -1729 0
-1748 1925 1729 0
-1748 -1925 -1729 0
-1749 1750 1751 0
1749 -1750 0
1749 -1751 0
1750 -1924 -1650 0
-1750 1924 0
-1750 1650 0
1751 -1752 -1684 0
-1751 1752 0
-1751 1684 0
1752 -1924 1650 0
1752 1924 -1650 0
-1752 1924 1650 0
-1752 -1924 -1650 0
1753 -1754 1779 0
1753 1754 -1779 0
-1753 1754 1779 0
-1753 -1754 -1779 0
1754 1755 -1756 0
1754 -1755 1756 0
-1754 -1755 -1756 0
-1754 1755 1756 0
1755 -1694 -1719 0
-1755 1694 0
-1755 1719 0
1756 1757 -1758 0
1756 -1757 1758 0
-1756 -1757 -1758 0
-1756 1757 1758 0
1757 -1695 -1716 0
-1757 1695 0
-1757 1716 0
1758 -1759 1776 0
1758 1759 -1776 0
-1758 1759 1776 0
-1758 -1759 -1776 0
1759 1760 -1761 0
1759 -1760 1761 0
-1759 -1760 -1761 0
-1759 1760 1761 0
1760 -1927 -1928 -1937 -1938 0
-1760 1938 0
-1760 1927 0
-1760 1937 0
-1760 1928 0
1761 -1762 1773 0
1761 1762 -1773 0
-1761 1762 1773 0
-1761 -1762 -1773 0
1762 1763 -1772 0
1762 -1763 1772 0
-1762 -1763 -1772 0
-1762 1763 1772 0
1763 -1764 1769 0
1763 1764 -1769 0
-1763 1764 1769 0
-1763 -1764 -1769 0
1764 1765 -1768 0
1764 -1765 1768 0
-1764 -1765 -1768 0
-1764 1765 1768 0
1765 1766 -1767 0
1765 -1766 1767 0
-1765 -1766 -1767 0
-1765 1766 1767 0
1766 -1925 -1941 0
-1766 1925 0
-1766 1941 0
1767 -1926 -1940 0
-1767 1926 0
-1767 1940 0
1768 -1927 -1939 0
-1768 1927 0
-1768 1939 0
-1769 1770 1771 0
1769 -1770 0
1769 -1771 0
1770 -1924 -1925 -1940 -1941 0
-1770 1941 0
-1770 1924 0
-1770 1940 0
-1770 1925 0
1771 -1926 -1939 -1700 0
-1771 1926 0
-1771 1939 0
-1771 1700 0
1772 -1928 -1938 0
-1772 1928 0
-1772 1938 0
-1773 1774 1775 0
1773 -1774 0
1773 -1775 0
1774 -1699 -1704 0
-1774 1699 0
-1774 1704 0
1775 -1698 -1707 0
-1775 1698 0
-1775 1707 0
-1776 1777 1778 0
1776 -1777 0
1776 -1778 0
1777 -1697 -1710 0
-1777 1697 0
-1777 1710 0
1778 -1696 -1713 0
-1778 1696 0
-1778 1713 0
-1779 1780 1781 0
1779 -1780 0
1779 -1781 0
1780 -1692 -1693 0
-1780 1692 0
-1780 1693 0
1781 -1691 -1722 0
-1781 1691 0
-1781 1722 0
-1782 1783 -1864 -1882 1899 0
-1782 1783 1864 1882 1899 0
1782 -1899 0
1782 1864 -1882 0
1782 -1783 0
1782 -1864 1882 0
-1783 1784 1805 1831 1845 0
-1783 -1784 -1805 -1831 -1845 0
-1783 1784 1805 -1831 -1845 0
-1783 -1784 -1805 1831 1845 0
1783 1784 -1805 0
1783 -1784 1805 0
1783 -1831 1845 0
1783 1831 -1845 0
-1784 1941 1785 0
-1784 -1926 1785 -1801 0
-1784 1926 1785 1801 0
-1784 -1926 -1941 -1785 1801 0
-1784 1926 -1941 -1785 -1801 0
1784 1941 -1785 0
1784 1926 -1941 1785 -1801 0
1784 1926 -1785 1801 0
1784 -1926 -1785 -1801 0
1784 -1926 -1941 1785 1801 0
-1785 1940 1786 0
-1785 -1927 1786 -1796 0
-1785 1927 1786 1796 0
-1785 -1927 -1940 -1786 1796 0
-1785 1927 -1940 -1786 -1796 0
1785 1940 -1786 0
1785 1927 -1940 1786 -1796 0
1785 1927 -1786 1796 0
1785 -1927 -1786 -1796 0
1785 -1927 -1940 1786 1796 0
-1786 1939 1787 0
-1786 1928 -1939 -1787 -1792 0
-1786 1928 1787 1792 0
-1786 -1928 1787 -1792 0
-1786 -1928 -1939 -1787 1792 0
1786 1939 -1787 0
1786 -1928 -1787 -1792 0
1786 1928 -1787 1792 0
1786 -1928 -1939 1787 1792 0
1786 1928 -1939 1787 -1792 0
1787 -1938 -1788 0
1787 -1938 -1667 -1791 0
-1787 1938 0
-1787 1667 1788 0
-1787 1788 1791 0
-1788 1789 1790 0
-1788 1737 1789 0
1788 -1789 0
1788 -1737 -1790 0
1789 -1928 -1732 0
-1789 1928 0
-1789 1732 0
1790 1928 -1732 0
1790 -1928 1732 0
-1790 -1928 -1732 0
-1790 1928 1732 0
1791 -1739 -1790 0
-1791 1739 0
-1791 1790 0
-1792 1743 1794 0
-1792 1673 1794 0
-1792 1793 1794 0
1792 -1794 0
1792 -1743 -1673 -1793 0
1793 -1927 1731 0
1793 1927 -1731 0
-1793 1927 1731 0
-1793 -1927 -1731 0
-1794 1795 1793 0
-1794 1741 1795 0
1794 -1795 0
1794 -1741 -1793 0
1795 -1927 -1731 0
-1795 1927 0
-1795 1731 0
-1796 1678 1797 0
-1796 1797 1800 0
1796 -1797 0
1796 -1678 -1800 0
-1797 1798 1799 0
-1797 1745 1798 0
1797 -1798 0
1797 -1745 -1799 0
1798 -1926 -1730 0
-1798 1926 0
-1798 1730 0
1799 -1926 1730 0
1799 1926 -1730 0
-1799 1926 1730 0
-1799 -1926 -1730 0
1800 -1747 -1799 0
-1800 1747 0
-1800 1799 0
-1801 1684 1802 0
-1801 1802 1804 0
1801 -1802 0
1801 -1684 -1804 0
-1802 1803 1748 0
-1802 1750 1803 0
1802 -1803 0
1802 -1750 -1748 0
1803 -1925 -1729 0
-1803 1925 0
-1803 1729 0
1804 -1752 -1748 0
-1804 1752 0
-1804 1748 0
1805 -1806 1827 0
1805 1806 -1827 0
-1805 1806 1827 0
-1805 -1806 -1827 0
1806 1807 -1808 0
1806 -1807 1808 0
-1806 -1807 -1808 0
-1806 1807 1808 0
1807 -1757 -1758 0
-1807 1757 0
-1807 1758 0
1808 1809 -1810 0
1808 -1809 1810 0
-1808 -1809 -1810 0
-1808 1809 1810 0
1809 -1759 -1776 0
-1809 1759 0
-1809 1776 0
1810 -1811 1824 0
1810 1811 -1824 0
-1810 1811 1824 0
-1810 -1811 -1824 0
1811 -1812 1821 0
1811 1812 -1821 0
-1811 1812 1821 0
-1811 -1812 -1821 0
1812 -1813 1818 0
1812 1813 -1818 0
-1812 1813 1818 0
-1812 -1813 -1818 0
1813 1814 -1817 0
1813 -1814 1817 0
-1813 -1814 -1817 0
-1813 1814 1817 0
1814 1815 -1816 0
1814 -1815 1816 0
-1814 -1815 -1816 0
-1814 1815 1816 0
1815 -1926 -1941 0
-1815 1926 0
-1815 1941 0
1816 -1927 -1940 0
-1816 1927 0
-1816 1940 0
1817 -1928 -1939 0
-1817 1928 0
-1817 1939 0
-1818 1819 1820 0
1818 -1819 0
1818 -1820 0
1819 -1925 -1926 -1940 -1941 0
-1819 1941 0
-1819 1925 0
-1819 1940 0
-1819 1926 0
1820 -1927 -1939 -1765 0
-1820 1927 0
-1820 1939 0
-1820 1765 0
-1821 1822 1823 0
1821 -1822 0
1821 -1823 0
1822 -1764 -1769 0
-1822 1764 0
-1822 1769 0
1823 -1928 -1938 -1763 0
-1823 1928 0
-1823 1938 0
-1823 1763 0
-1824 1825 1826 0
1824 -1825 0
1824 -1826 0
1825 -1762 -1773 0
-1825 1762 0
-1825 1773 0
1826 -1760 -1761 0
-1826 1760 0
-1826 1761 0
-1827 1722 1828 0
-1827 1828 1830 0
1827 -1828 0
1827 -1722 -1830 0
-1828 1829 1754 0
-1828 1780 1829 0
1828 -1829 0
1828 -1780 -1754 0
1829 -1755 -1756 0
-1829 1755 0
-1829 1756 0
1830 -1691 -1754 0
-1830 1691 0
-1830 1754 0
-1831 1941 1832 0
-1831 -1927 1832 -1841 0
-1831 1927 1832 1841 0
-1831 -1927 -1941 -1832 1841 0
-1831 1927 -1941 -1832 -1841 0
1831 1941 -1832 0
1831 1927 -1941 1832 -1841 0
1831 1927 -1832 1841 0
1831 -1927 -1832 -1841 0
1831 -1927 -1941 1832 1841 0
-1832 1940 1833 0
-1832 1928 -1940 -1833 -1837 0
-1832 1928 1833 1837 0
-1832 -1928 1833 -1837 0
-1832 -1928 -1940 -1833 1837 0
1832 1940 -1833 0
1832 -1928 -1833 -1837 0
1832 1928 -1833 1837 0
1832 -1928 -1940 1833 1837 0
1832 1928 -1940 1833 -1837 0
1833 -1939 -1834 0
1833 -1939 -1835 0
-1833 1939 0
-1833 1834 1835 0
1834 -1928 -1787 0
-1834 1928 0
-1834 1787 0
1835 -1836 -1792 0
-1835 1836 0
-1835 1792 0
1836 1928 -1787 0
1836 -1928 1787 0
-1836 -1928 -1787 0
-1836 1928 1787 0
-1837 1838 1839 0
1837 -1838 0
1837 -1839 0
1838 -1927 -1786 0
-1838 1927 0
-1838 1786 0
1839 -1840 -1796 0
-1839 1840 0
-1839 1796 0
1840 -1927 1786 0
1840 1927 -1786 0
-1840 1927 1786 0
-1840 -1927 -1786 0
-1841 1842 1843 0
1841 -1842 0
1841 -1843 0
1842 -1926 -1785 0
-1842 1926 0
-1842 1785 0
1843 -1844 -1801 0
-1843 1844 0
-1843 1801 0
1844 -1926 1785 0
1844 1926 -1785 0
-1844 1926 1785 0
-1844 -1926 -1785 0
1845 -1846 1861 0
1845 1846 -1861 0
-1845 1846 1861 0
-1845 -1846 -1861 0
1846 1847 -1848 0
1846 -1847 1848 0
-1846 -1847 -1848 0
-1846 1847 1848 0
1847 -1809 -1810 0
-1847 1809 0
-1847 1810 0
1848 1849 -1850 0
1848 -1849 1850 0
-1848 -1849 -1850 0
-1848 1849 1850 0
1849 -1811 -1824 0
-1849 1811 0
-1849 1824 0
1850 1851 -1852 0
1850 -1851 1852 0
-1850 -1851 -1852 0
-1850 1851 1852 0
1851 -1812 -1821 0
-1851 1812 0
-1851 1821 0
1852 1853 -1854 0
1852 -1853 1854 0
-1852 -1853 -1854 0
-1852 1853 1854 0
1853 -1813 -1818 0
-1853 1813 0
-1853 1818 0
1854 -1855 1858 0
1854 1855 -1858 0
-1854 1855 1858 0
-1854 -1855 -1858 0
1855 1856 -1857 0
1855 -1856 1857 0
-1855 -1856 -1857 0
-1855 1856 1857 0
1856 -1927 -1941 0
-1856 1927 0
-1856 1941 0
1857 -1928 -1940 0
-1857 1928 0
-1857 1940 0
-1858 1859 1860 0
1858 -1859 0
1858 -1860 0
1859 -1926 -1927 -1940 -1941 0
-1859 1941 0
-1859 1926 0
-1859 1940 0
-1859 1927 0
1860 -1928 -1939 -1814 0
-1860 1928 0
-1860 1939 0
-1860 1814 0
-1861 1862 1863 0
1861 -1862 0
1861 -1863 0
1862 -1807 -1808 0
-1862 1807 0
-1862 1808 0
1863 -1806 -1827 0
-1863 1806 0
-1863 1827 0
-1864 1941 1865 0
-1864 1928 -1941 -1865 -1874 0
-1864 1928 1865 1874 0
-1864 -1928 1865 -1874 0
-1864 -1928 -1941 -1865 1874 0
1864 1941 -1865 0
1864 -1928 -1865 -1874 0
1864 1928 -1865 1874 0
1864 -1928 -1941 1865 1874 0
1864 1928 -1941 1865 -1874 0
1865 -1940 -1866 0
1865 -1940 -1305 -1873 0
-1865 1940 0
-1865 1305 1866 0
-1865 1866 1873 0
-1866 1679 1867 0
-1866 1867 1872 0
1866 -1867 0
1866 -1679 -1872 0
-1867 1797 1868 1869 0
-1867 1868 1869 1871 0
1867 -1869 0
1867 -1868 0
1867 -1797 -1871 0
1868 -1928 -1833 0
-1868 1928 0
-1868 1833 0
1869 -1838 -1870 0
-1869 1838 0
-1869 1870 0
1870 1928 -1833 0
1870 -1928 1833 0
-1870 -1928 -1833 0
-1870 1928 1833 0
1871 -1840 -1870 0
-1871 1840 0
-1871 1870 0
1872 -1800 -1871 0
-1872 1800 0
-1872 1871 0
1873 -1683 -1872 0
-1873 1683 0
-1873 1872 0
-1874 1689 1878 0
-1874 1875 1878 0
-1874 1310 1878 0
1874 -1878 0
1874 -1310 -1689 -1875 0
1875 -1804 -1876 0
-1875 1804 0
-1875 1876 0
1876 -1844 -1877 0
-1876 1844 0
-1876 1877 0
1877 -1927 1832 0
1877 1927 -1832 0
-1877 1927 1832 0
-1877 -1927 -1832 0
-1878 1685 1879 1881 0
-1878 1879 1881 1875 0
1878 -1879 0
1878 -1881 0
1878 -1685 -1875 0
-1879 1880 1877 0
-1879 1842 1880 0
1879 -1880 0
1879 -1842 -1877 0
1880 -1927 -1832 0
-1880 1927 0
-1880 1832 0
1881 -1802 -1876 0
-1881 1802 0
-1881 1876 0
1882 -1883 1892 0
1882 1883 -1892 0
-1882 1883 1892 0
-1882 -1883 -1892 0
1883 1884 -1885 0
1883 -1884 1885 0
-1883 -1884 -1885 0
-1883 1884 1885 0
1884 -1849 -1850 0
-1884 1849 0
-1884 1850 0
1885 1886 -1887 0
1885 -1886 1887 0
-1885 -1886 -1887 0
-1885 1886 1887 0
1886 -1851 -1852 0
-1886 1851 0
-1886 1852 0
1887 1888 -1889 0
1887 -1888 1889 0
-1887 -1888 -1889 0
-1887 1888 1889 0
1888 -1853 -1854 0
-1888 1853 0
-1888 1854 0
1889 1890 -1891 0
1889 -1890 1891 0
-1889 -1890 -1891 0
-1889 1890 1891 0
1890 -1855 -1858 0
-1890 1855 0
-1890 1858 0
1891 1927 -1928 -1941 0
1891 -1928 1940 -1941 0
-1891 1941 0
-1891 1928 0
-1891 -1927 -1940 0
-1892 1727 1895 0
-1892 1893 1895 0
-1892 1369 1895 0
1892 -1895 0
1892 -1369 -1727 -1893 0
1893 -1830 -1894 0
-1893 1830 0
-1893 1894 0
1894 -1806 -1846 0
-1894 1806 0
-1894 1846 0
-1895 1723 1896 1898 0
-1895 1896 1898 1893 0
1895 -1896 0
1895 -1898 0
1895 -1723 -1893 0
-1896 1897 1846 0
-1896 1862 1897 0
1896 -1897 0
1896 -1862 -1846 0
1897 -1847 -1848 0
-1897 1847 0
-1897 1848 0
1898 -1828 -1894 0
-1898 1828 0
-1898 1894 0
-1899 -1900 -1904 0
-1899 1900 1904 0
1899 1900 -1904 0
1899 -1900 1904 0
1900 -1941 -1901 0
1900 -1941 -1902 0
-1900 1941 0
-1900 1901 1902 0
1901 -1928 -1865 0
-1901 1928 0
-1901 1865 0
1902 -1903 -1874 0
-1902 1903 0
-1902 1874 0
1903 1928 -1865 0
1903 -1928 1865 0
-1903 -1928 -1865 0
-1903 1928 1865 0
1904 -1905 1913 0
1904 1905 -1913 0
-1904 1905 1913 0
-1904 -1905 -1913 0
1905 1906 -1907 0
1905 -1906 1907 0
-1905 -1906 -1907 0
-1905 1906 1907 0
1906 -1886 -1887 0
-1906 1886 0
-1906 1887 0
1907 1908 -1909 0
1907 -1908 1909 0
-1907 -1908 -1909 0
-1907 1908 1909 0
1908 -1888 -1889 0
-1908 1888 0
-1908 1889 0
1909 -1910 0
-1909 1910 0
-1910 1911 1912 0
1910 -1911 0
1910 -1912 0
1911 -1927 -1928 -1940 -1941 0
-1911 1941 0
-1911 1927 0
-1911 1940 0
-1911 1928 0
1912 -1890 -1891 0
-1912 1890 0
-1912 1891 0
-1913 1914 1915 0
1913 -1914 0
1913 -1915 0
1914 -1884 -1885 0
-1914 1884 0
-1914 1885 0
1915 -1883 -1892 0
-1915 1883 0
-1915 1892 0
-1942 0
2 0

