c Result of efficient AIG-to-CNF conversion using package CNF
p cnf 34 90
-2 3 0
2 -3 0
-3 4 7 12 0
-3 -4 -7 12 0
3 -12 0
3 4 -7 0
3 -4 7 0
-4 30 5 0
-4 24 30 0
-4 24 5 0
4 -24 -30 0
4 -30 -5 0
4 -24 -5 0
-5 23 6 0
-5 29 6 0
-5 23 29 0
5 -23 -29 0
5 -29 -6 0
5 -23 -6 0
6 -22 -28 0
-6 22 0
-6 28 0
-7 8 9 0
7 -8 0
7 -9 0
8 -24 -30 0
-8 24 0
-8 30 0
9 -10 -11 0
-9 10 0
-9 11 0
10 24 -30 0
10 -24 30 0
-10 -24 -30 0
-10 24 30 0
-11 23 6 0
-11 29 6 0
-11 23 29 0
11 -23 -29 0
11 -29 -6 0
11 -23 -6 0
-12 -13 -14 18 19 0
-12 13 14 18 19 0
-12 -13 -14 -18 -19 0
-12 13 14 -18 -19 0
12 -13 14 0
12 13 -14 0
12 -18 19 0
12 18 -19 0
-13 31 4 0
-13 25 31 0
-13 25 4 0
13 -25 -31 0
13 -31 -4 0
13 -25 -4 0
-14 10 16 0
-14 11 16 0
-14 15 16 0
14 -16 0
14 -10 -11 -15 0
15 25 -31 0
15 -25 31 0
-15 -25 -31 0
-15 25 31 0
-16 17 15 0
-16 8 17 0
16 -17 0
16 -8 -15 0
17 -25 -31 0
-17 25 0
-17 31 0
-18 32 13 0
-18 26 32 0
-18 26 13 0
18 -26 -32 0
18 -32 -13 0
18 -26 -13 0
-19 26 20 0
-19 32 20 0
19 -20 0
19 -26 -32 0
20 -21 -14 0
-20 21 0
-20 14 0
21 26 -32 0
21 -26 32 0
-21 -26 -32 0
-21 26 32 0
-34 0
2 0

