c Result of efficient AIG-to-CNF conversion using package CNF
p cnf 233 924
-2 3 92 181 200 0
2 -200 0
2 -3 0
2 -181 0
2 -92 0
-3 -4 -23 32 0
-3 4 23 32 0
3 -32 0
3 -4 23 0
3 4 -23 0
4 5 -6 0
4 -5 6 0
-4 -5 -6 0
-4 5 6 0
5 -224 -227 0
-5 224 0
-5 227 0
6 -7 8 0
6 7 -8 0
-6 7 8 0
-6 -7 -8 0
7 -223 -228 0
-7 223 0
-7 228 0
-8 -9 -18 0
-8 9 18 0
8 9 -18 0
8 -9 18 0
9 -10 -11 0
-9 10 0
-9 11 0
10 -223 -227 0
-10 223 0
-10 227 0
11 -12 13 0
11 12 -13 0
-11 12 13 0
-11 -12 -13 0
12 -222 -228 0
-12 222 0
-12 228 0
-13 -14 -17 0
-13 14 17 0
13 14 -17 0
13 -14 17 0
14 -15 -16 0
-14 15 0
-14 16 0
15 -222 -227 0
-15 222 0
-15 227 0
16 -221 -228 0
-16 221 0
-16 228 0
17 -221 -229 0
-17 221 0
-17 229 0
18 19 -20 0
18 -19 20 0
-18 -19 -20 0
-18 19 20 0
19 -222 -229 0
-19 222 0
-19 229 0
20 -21 22 0
20 21 -22 0
-20 21 22 0
-20 -21 -22 0
21 -221 -230 0
-21 221 0
-21 230 0
-22 14 17 0
-22 12 17 0
-22 14 12 0
22 -14 -12 0
22 -12 -17 0
22 -14 -17 0
23 -24 27 0
23 24 -27 0
-23 24 27 0
-23 -24 -27 0
24 -14 -25 0
-24 14 0
-24 25 0
-25 -10 -26 0
-25 10 26 0
25 10 -26 0
25 -10 26 0
26 12 -17 0
26 -12 17 0
-26 -12 -17 0
-26 12 17 0
-27 28 30 0
-27 -28 -30 0
27 -28 30 0
27 28 -30 0
-28 -7 -29 0
-28 7 29 0
28 7 -29 0
28 -7 29 0
29 19 -21 0
29 -19 21 0
-29 -19 -21 0
-29 19 21 0
-30 5 31 0
-30 -5 -31 0
30 -5 31 0
30 5 -31 0
-31 10 17 0
-31 12 17 0
-31 10 12 0
31 -10 -12 0
31 -12 -17 0
31 -10 -17 0
-32 33 48 -58 -77 0
-32 -33 -48 -58 -77 0
-32 33 48 58 77 0
-32 -33 -48 58 77 0
32 33 -48 0
32 -33 48 0
32 58 -77 0
32 -58 77 0
33 34 -35 0
33 -34 35 0
-33 -34 -35 0
-33 34 35 0
34 -225 -227 0
-34 225 0
-34 227 0
35 -36 37 0
35 36 -37 0
-35 36 37 0
-35 -36 -37 0
36 -224 -228 0
-36 224 0
-36 228 0
-37 38 39 0
-37 -38 -39 0
37 -38 39 0
37 38 -39 0
38 -5 -6 0
-38 5 0
-38 6 0
-39 40 41 0
-39 -40 -41 0
39 -40 41 0
39 40 -41 0
40 -223 -229 0
-40 223 0
-40 229 0
-41 42 47 0
-41 -42 -47 0
41 -42 47 0
41 42 -47 0
-42 -43 -44 0
-42 43 44 0
42 43 -44 0
42 -43 44 0
43 -222 -230 0
-43 222 0
-43 230 0
44 -45 46 0
44 45 -46 0
-44 45 46 0
-44 -45 -46 0
45 -221 -231 0
-45 221 0
-45 231 0
-46 21 22 0
-46 19 21 0
-46 19 22 0
46 -19 -21 0
46 -21 -22 0
46 -19 -22 0
-47 9 18 0
-47 7 18 0
-47 9 7 0
47 -9 -7 0
47 -7 -18 0
47 -9 -18 0
48 -49 50 0
48 49 -50 0
-48 49 50 0
-48 -49 -50 0
49 -24 -27 0
-49 24 0
-49 27 0
-50 51 57 0
-50 -51 -57 0
50 -51 57 0
50 51 -57 0
-51 -52 -53 0
-51 52 53 0
51 52 -53 0
51 -52 53 0
-52 -34 -36 0
-52 34 36 0
52 34 -36 0
52 -34 36 0
53 -54 56 0
53 54 -56 0
-53 54 56 0
-53 -54 -56 0
54 -40 55 0
54 40 -55 0
-54 40 55 0
-54 -40 -55 0
-55 -43 -45 0
-55 43 45 0
55 43 -45 0
55 -43 45 0
-56 7 21 0
-56 19 21 0
-56 7 19 0
56 -7 -19 0
56 -19 -21 0
56 -7 -21 0
-57 5 28 0
-57 28 31 0
-57 5 31 0
57 -28 -31 0
57 -5 -28 0
57 -5 -31 0
58 59 -60 0
58 -59 60 0
-58 -59 -60 0
-58 59 60 0
59 -226 -227 0
-59 226 0
-59 227 0
60 61 -62 0
60 -61 62 0
-60 -61 -62 0
-60 61 62 0
61 -225 -228 0
-61 225 0
-61 228 0
62 63 -64 0
62 -63 64 0
-62 -63 -64 0
-62 63 64 0
63 -34 -35 0
-63 34 0
-63 35 0
64 -65 66 0
64 65 -66 0
-64 65 66 0
-64 -65 -66 0
65 -224 -229 0
-65 224 0
-65 229 0
-66 67 76 0
-66 -67 -76 0
66 -67 76 0
66 67 -76 0
-67 68 69 0
-67 -68 -69 0
67 -68 69 0
67 68 -69 0
68 -223 -230 0
-68 223 0
-68 230 0
-69 70 75 0
-69 -70 -75 0
69 -70 75 0
69 70 -75 0
-70 -71 -72 0
-70 71 72 0
70 71 -72 0
70 -71 72 0
71 -222 -231 0
-71 222 0
-71 231 0
72 -73 74 0
72 73 -74 0
-72 73 74 0
-72 -73 -74 0
73 -221 -232 0
-73 221 0
-73 232 0
-74 45 46 0
-74 43 45 0
-74 43 46 0
74 -43 -45 0
74 -45 -46 0
74 -43 -46 0
-75 40 42 0
-75 42 47 0
-75 40 47 0
75 -42 -47 0
75 -40 -42 0
75 -40 -47 0
-76 36 39 0
-76 38 36 0
-76 38 39 0
76 -38 -36 0
76 -36 -39 0
76 -38 -39 0
77 -78 79 0
77 78 -79 0
-77 78 79 0
-77 -78 -79 0
78 -49 -50 0
-78 49 0
-78 50 0
-79 -80 -91 0
-79 80 91 0
79 80 -91 0
79 -80 91 0
-80 81 87 0
-80 -81 -87 0
80 -81 87 0
80 81 -87 0
-81 -82 -84 0
-81 82 84 0
81 82 -84 0
81 -82 84 0
-82 68 83 0
-82 -68 -83 0
82 -68 83 0
82 68 -83 0
-83 -71 -73 0
-83 71 73 0
83 71 -73 0
83 -71 73 0
84 -85 86 0
84 85 -86 0
-84 85 86 0
-84 -85 -86 0
85 -34 -36 0
-85 34 0
-85 36 0
-86 40 45 0
-86 43 45 0
-86 40 43 0
86 -40 -43 0
86 -43 -45 0
86 -40 -45 0
-87 -88 -89 0
-87 88 89 0
87 88 -89 0
87 -88 89 0
-88 52 56 0
-88 52 54 0
-88 54 56 0
88 -54 -56 0
88 -52 -56 0
88 -52 -54 0
89 59 -90 0
89 -59 90 0
-89 -59 -90 0
-89 59 90 0
90 61 -65 0
90 -61 65 0
-90 -61 -65 0
-90 61 65 0
91 -51 -57 0
-91 51 0
-91 57 0
-92 -93 -112 127 0
-92 93 112 127 0
92 -127 0
92 -93 112 0
92 93 -112 0
93 -94 95 0
93 94 -95 0
-93 94 95 0
-93 -94 -95 0
94 -226 -228 0
-94 226 0
-94 228 0
-95 96 97 0
-95 -96 -97 0
95 -96 97 0
95 96 -97 0
96 -225 -229 0
-96 225 0
-96 229 0
-97 98 99 0
-97 -98 -99 0
97 -98 99 0
97 98 -99 0
98 -59 -60 0
-98 59 0
-98 60 0
-99 100 101 0
-99 -100 -101 0
99 -100 101 0
99 100 -101 0
100 -224 -230 0
-100 224 0
-100 230 0
-101 102 111 0
-101 -102 -111 0
101 -102 111 0
101 102 -111 0
-102 103 104 0
-102 -103 -104 0
102 -103 104 0
102 103 -104 0
103 -223 -231 0
-103 223 0
-103 231 0
-104 105 110 0
-104 -105 -110 0
104 -105 110 0
104 105 -110 0
-105 106 107 0
-105 -106 -107 0
105 -106 107 0
105 106 -107 0
106 -222 -232 0
-106 222 0
-106 232 0
-107 108 109 0
-107 -108 -109 0
107 -108 109 0
107 108 -109 0
-108 73 74 0
-108 71 73 0
-108 71 74 0
108 -71 -73 0
108 -73 -74 0
108 -71 -74 0
-109 68 70 0
-109 70 75 0
-109 68 75 0
109 -70 -75 0
109 -68 -70 0
109 -68 -75 0
-110 65 67 0
-110 67 76 0
-110 65 76 0
110 -67 -76 0
110 -65 -67 0
110 -65 -76 0
-111 63 64 0
-111 61 64 0
-111 63 61 0
111 -63 -61 0
111 -61 -64 0
111 -63 -64 0
112 -113 115 0
112 113 -115 0
-112 113 115 0
-112 -113 -115 0
-113 114 0
113 -114 0
-114 80 0
-114 78 91 0
114 -78 -80 0
114 -80 -91 0
-115 116 126 0
-115 -116 -126 0
115 -116 126 0
115 116 -126 0
-116 117 123 0
-116 -117 -123 0
116 -117 123 0
116 117 -123 0
-117 -118 -120 0
-117 118 120 0
117 118 -120 0
117 -118 120 0
-118 -100 -119 0
-118 100 119 0
118 100 -119 0
118 -100 119 0
119 103 -106 0
119 -103 106 0
-119 -103 -106 0
-119 103 106 0
120 -121 122 0
120 121 -122 0
-120 121 122 0
-120 -121 -122 0
-121 59 65 0
-121 61 65 0
-121 59 61 0
121 -59 -61 0
121 -61 -65 0
121 -59 -65 0
-122 68 73 0
-122 71 73 0
-122 68 71 0
122 -68 -71 0
122 -71 -73 0
122 -68 -73 0
-123 -124 -125 0
-123 124 125 0
123 124 -125 0
123 -124 125 0
-124 82 86 0
-124 82 85 0
-124 85 86 0
124 -85 -86 0
124 -82 -86 0
124 -82 -85 0
125 94 -96 0
125 -94 96 0
-125 -94 -96 0
-125 94 96 0
-126 81 88 0
-126 88 89 0
-126 81 89 0
126 -88 -89 0
126 -81 -88 0
126 -81 -89 0
-127 128 145 -158 -171 0
-127 -128 -145 -158 -171 0
-127 128 145 158 171 0
-127 -128 -145 158 171 0
127 128 -145 0
127 -128 145 0
127 158 -171 0
127 -158 171 0
128 129 -130 0
128 -129 130 0
-128 -129 -130 0
-128 129 130 0
129 -94 -95 0
-129 94 0
-129 95 0
130 131 -132 0
130 -131 132 0
-130 -131 -132 0
-130 131 132 0
131 -226 -229 0
-131 226 0
-131 229 0
132 -133 134 0
132 133 -134 0
-132 133 134 0
-132 -133 -134 0
133 -225 -230 0
-133 225 0
-133 230 0
-134 135 144 0
-134 -135 -144 0
134 -135 144 0
134 135 -144 0
-135 136 137 0
-135 -136 -137 0
135 -136 137 0
135 136 -137 0
136 -224 -231 0
-136 224 0
-136 231 0
-137 138 143 0
-137 -138 -143 0
137 -138 143 0
137 138 -143 0
-138 139 140 0
-138 -139 -140 0
138 -139 140 0
138 139 -140 0
139 -223 -232 0
-139 223 0
-139 232 0
-140 141 142 0
-140 -141 -142 0
140 -141 142 0
140 141 -142 0
-141 106 108 0
-141 108 109 0
-141 106 109 0
141 -108 -109 0
141 -106 -108 0
141 -106 -109 0
-142 103 105 0
-142 105 110 0
-142 103 110 0
142 -105 -110 0
142 -103 -105 0
142 -103 -110 0
-143 100 102 0
-143 102 111 0
-143 100 111 0
143 -102 -111 0
143 -100 -102 0
143 -100 -111 0
-144 96 99 0
-144 98 96 0
-144 98 99 0
144 -98 -96 0
144 -96 -99 0
144 -98 -99 0
145 -146 147 0
145 146 -147 0
-145 146 147 0
-145 -146 -147 0
-146 113 116 0
-146 116 126 0
-146 113 126 0
146 -113 -126 0
146 -116 -126 0
146 -113 -116 0
-147 148 157 0
-147 -148 -157 0
147 -148 157 0
147 148 -157 0
148 -149 153 0
148 149 -153 0
-148 149 153 0
-148 -149 -153 0
-149 150 151 0
-149 -150 -151 0
149 -150 151 0
149 150 -151 0
150 -94 -96 0
-150 94 0
-150 96 0
-151 131 152 0
-151 -131 -152 0
151 -131 152 0
151 131 -152 0
-152 100 106 0
-152 103 106 0
-152 100 103 0
152 -100 -103 0
152 -103 -106 0
152 -100 -106 0
-153 -154 -155 0
-153 154 155 0
153 154 -155 0
153 -154 155 0
-154 118 121 0
-154 121 122 0
-154 118 122 0
154 -118 -122 0
154 -121 -122 0
154 -118 -121 0
155 133 -156 0
155 -133 156 0
-155 -133 -156 0
-155 133 156 0
156 136 -139 0
156 -136 139 0
-156 -136 -139 0
-156 136 139 0
-157 117 124 0
-157 124 125 0
-157 117 125 0
157 -124 -125 0
157 -117 -124 0
157 -117 -125 0
158 159 -160 0
158 -159 160 0
-158 -159 -160 0
-158 159 160 0
-159 129 132 0
-159 131 132 0
-159 129 131 0
159 -129 -131 0
159 -131 -132 0
159 -129 -132 0
160 161 -162 0
160 -161 162 0
-160 -161 -162 0
-160 161 162 0
161 -226 -230 0
-161 226 0
-161 230 0
162 -163 164 0
162 163 -164 0
-162 163 164 0
-162 -163 -164 0
163 -225 -231 0
-163 225 0
-163 231 0
-164 165 170 0
-164 -165 -170 0
164 -165 170 0
164 165 -170 0
-165 166 167 0
-165 -166 -167 0
165 -166 167 0
165 166 -167 0
166 -224 -232 0
-166 224 0
-166 232 0
-167 168 169 0
-167 -168 -169 0
167 -168 169 0
167 168 -169 0
-168 139 141 0
-168 141 142 0
-168 139 142 0
168 -141 -142 0
168 -139 -141 0
168 -139 -142 0
-169 136 138 0
-169 138 143 0
-169 136 143 0
169 -138 -143 0
169 -136 -138 0
169 -136 -143 0
-170 133 135 0
-170 135 144 0
-170 133 144 0
170 -135 -144 0
170 -133 -135 0
170 -133 -144 0
171 -172 173 0
171 172 -173 0
-171 172 173 0
-171 -172 -173 0
-172 146 157 0
-172 146 148 0
-172 148 157 0
172 -148 -157 0
172 -146 -157 0
172 -146 -148 0
-173 174 180 0
-173 -174 -180 0
173 -174 180 0
173 174 -180 0
174 -175 179 0
174 175 -179 0
-174 175 179 0
-174 -175 -179 0
-175 176 178 0
-175 -176 -178 0
175 -176 178 0
175 176 -178 0
-176 -161 -177 0
-176 161 177 0
176 161 -177 0
176 -161 177 0
177 163 -166 0
177 -163 166 0
-177 -163 -166 0
-177 163 166 0
-178 133 139 0
-178 136 139 0
-178 133 136 0
178 -133 -136 0
178 -136 -139 0
178 -133 -139 0
-179 131 152 0
-179 150 131 0
-179 150 152 0
179 -150 -131 0
179 -131 -152 0
179 -150 -152 0
-180 149 154 0
-180 154 155 0
-180 149 155 0
180 -154 -155 0
180 -149 -154 0
180 -149 -155 0
-181 -182 -191 0
-181 182 191 0
181 182 -191 0
181 -182 191 0
182 183 -184 0
182 -183 184 0
-182 -183 -184 0
-182 183 184 0
-183 161 162 0
-183 159 161 0
-183 159 162 0
183 -159 -161 0
183 -161 -162 0
183 -159 -162 0
184 185 -186 0
184 -185 186 0
-184 -185 -186 0
-184 185 186 0
185 -226 -231 0
-185 226 0
-185 231 0
186 -187 188 0
186 187 -188 0
-186 187 188 0
-186 -187 -188 0
187 -225 -232 0
-187 225 0
-187 232 0
-188 189 190 0
-188 -189 -190 0
188 -189 190 0
188 189 -190 0
-189 166 168 0
-189 168 169 0
-189 166 169 0
189 -168 -169 0
189 -166 -168 0
189 -166 -169 0
-190 163 165 0
-190 165 170 0
-190 163 170 0
190 -165 -170 0
190 -163 -165 0
190 -163 -170 0
191 -192 193 0
191 192 -193 0
-191 192 193 0
-191 -192 -193 0
-192 172 180 0
-192 172 174 0
-192 174 180 0
192 -174 -180 0
192 -172 -180 0
192 -172 -174 0
-193 194 195 0
-193 -194 -195 0
193 -194 195 0
193 194 -195 0
194 -175 -179 0
-194 175 0
-194 179 0
-195 -196 -199 0
-195 196 199 0
195 196 -199 0
195 -196 199 0
-196 197 198 0
-196 -197 -198 0
196 -197 198 0
196 197 -198 0
197 185 -187 0
197 -185 187 0
-197 -185 -187 0
-197 185 187 0
-198 161 166 0
-198 163 166 0
-198 161 163 0
198 -161 -163 0
198 -163 -166 0
198 -161 -166 0
199 -176 -178 0
-199 176 0
-199 178 0
-200 201 206 215 216 0
-200 -201 -206 -215 -216 0
-200 201 206 -215 -216 0
-200 -201 -206 215 216 0
200 201 -206 0
200 -201 206 0
200 -215 216 0
200 215 -216 0
201 202 -203 0
201 -202 203 0
-201 -202 -203 0
-201 202 203 0
-202 185 186 0
-202 183 185 0
-202 183 186 0
202 -183 -185 0
202 -185 -186 0
202 -183 -186 0
203 -204 205 0
203 204 -205 0
-203 204 205 0
-203 -204 -205 0
204 -226 -232 0
-204 226 0
-204 232 0
-205 187 189 0
-205 189 190 0
-205 187 190 0
205 -189 -190 0
205 -187 -189 0
205 -187 -190 0
206 -207 208 0
206 207 -208 0
-206 207 208 0
-206 -207 -208 0
-207 194 192 0
-207 192 195 0
-207 194 195 0
207 -192 -195 0
207 -194 -192 0
207 -194 -195 0
-208 -209 -214 0
-208 209 214 0
208 209 -214 0
208 -209 214 0
-209 -210 -213 0
-209 210 213 0
209 210 -213 0
209 -210 213 0
-210 211 0
210 -211 0
211 212 -204 0
-211 -212 0
-211 204 0
212 -185 -187 0
-212 185 0
-212 187 0
213 -197 -198 0
-213 197 0
-213 198 0
214 -196 -199 0
-214 196 0
-214 199 0
-215 202 205 0
-215 202 204 0
-215 204 205 0
215 -204 -205 0
215 -202 -205 0
215 -202 -204 0
216 -217 218 0
216 217 -218 0
-216 217 218 0
-216 -217 -218 0
-217 207 209 0
-217 209 214 0
-217 207 214 0
217 -209 -214 0
217 -207 -209 0
217 -207 -214 0
-218 -219 -220 0
-218 219 220 0
218 219 -220 0
218 -219 220 0
219 -210 -213 0
-219 210 0
-219 213 0
220 -212 -204 0
-220 212 0
-220 204 0
-233 0
2 0

