c Result of efficient AIG-to-CNF conversion using package CNF
p cnf 647 2750
-2 3 57 290 544 0
2 -544 0
2 -3 0
2 -290 0
2 -57 0
-3 4 0
3 -4 0
-4 5 24 -32 -47 0
-4 -5 -24 -32 -47 0
-4 5 24 32 47 0
-4 -5 -24 32 47 0
4 5 -24 0
4 -5 24 0
4 32 -47 0
4 -32 47 0
5 6 -7 0
5 -6 7 0
-5 -6 -7 0
-5 6 7 0
6 -630 -637 0
-6 630 0
-6 637 0
7 -8 9 0
7 8 -9 0
-7 8 9 0
-7 -8 -9 0
8 -629 -638 0
-8 629 0
-8 638 0
-9 -10 -19 0
-9 10 19 0
9 10 -19 0
9 -10 19 0
10 -11 -12 0
-10 11 0
-10 12 0
11 -629 -637 0
-11 629 0
-11 637 0
12 -13 14 0
12 13 -14 0
-12 13 14 0
-12 -13 -14 0
13 -628 -638 0
-13 628 0
-13 638 0
-14 -15 -18 0
-14 15 18 0
14 15 -18 0
14 -15 18 0
15 -16 -17 0
-15 16 0
-15 17 0
16 -628 -637 0
-16 628 0
-16 637 0
17 -627 -638 0
-17 627 0
-17 638 0
18 -627 -639 0
-18 627 0
-18 639 0
19 20 -21 0
19 -20 21 0
-19 -20 -21 0
-19 20 21 0
20 -628 -639 0
-20 628 0
-20 639 0
21 -22 23 0
21 22 -23 0
-21 22 23 0
-21 -22 -23 0
22 -627 -640 0
-22 627 0
-22 640 0
-23 15 18 0
-23 13 18 0
-23 15 13 0
23 -15 -13 0
23 -13 -18 0
23 -15 -18 0
24 -25 27 0
24 25 -27 0
-24 25 27 0
-24 -25 -27 0
-25 11 26 0
-25 15 11 0
-25 15 26 0
25 -15 -11 0
25 -11 -26 0
25 -15 -26 0
-26 -13 -18 0
-26 13 18 0
26 13 -18 0
26 -13 18 0
-27 28 29 0
-27 -28 -29 0
27 -28 29 0
27 28 -29 0
28 -13 -18 0
-28 13 0
-28 18 0
-29 -30 -31 0
-29 30 31 0
29 30 -31 0
29 -30 31 0
-30 -20 -22 0
-30 20 22 0
30 20 -22 0
30 -20 22 0
31 6 -8 0
31 -6 8 0
-31 -6 -8 0
-31 6 8 0
32 33 -34 0
32 -33 34 0
-32 -33 -34 0
-32 33 34 0
33 -631 -637 0
-33 631 0
-33 637 0
34 -35 36 0
34 35 -36 0
-34 35 36 0
-34 -35 -36 0
35 -630 -638 0
-35 630 0
-35 638 0
-36 37 38 0
-36 -37 -38 0
36 -37 38 0
36 37 -38 0
37 -6 -7 0
-37 6 0
-37 7 0
-38 39 40 0
-38 -39 -40 0
38 -39 40 0
38 39 -40 0
39 -629 -639 0
-39 629 0
-39 639 0
-40 41 46 0
-40 -41 -46 0
40 -41 46 0
40 41 -46 0
-41 -42 -43 0
-41 42 43 0
41 42 -43 0
41 -42 43 0
42 -628 -640 0
-42 628 0
-42 640 0
43 -44 45 0
43 44 -45 0
-43 44 45 0
-43 -44 -45 0
44 -627 -641 0
-44 627 0
-44 641 0
-45 22 23 0
-45 20 22 0
-45 20 23 0
45 -20 -22 0
45 -22 -23 0
45 -20 -23 0
-46 10 19 0
-46 8 19 0
-46 10 8 0
46 -10 -8 0
46 -8 -19 0
46 -10 -19 0
47 -48 49 0
47 48 -49 0
-47 48 49 0
-47 -48 -49 0
-48 28 25 0
-48 25 29 0
-48 28 29 0
48 -25 -29 0
48 -28 -25 0
48 -28 -29 0
-49 50 56 0
-49 -50 -56 0
49 -50 56 0
49 50 -56 0
-50 -51 -53 0
-50 51 53 0
50 51 -53 0
50 -51 53 0
-51 33 52 0
-51 -33 -52 0
51 -33 52 0
51 33 -52 0
-52 -35 -39 0
-52 35 39 0
52 35 -39 0
52 -35 39 0
53 54 -55 0
53 -54 55 0
-53 -54 -55 0
-53 54 55 0
54 -20 -22 0
-54 20 0
-54 22 0
55 42 -44 0
55 -42 44 0
-55 -42 -44 0
-55 42 44 0
-56 8 30 0
-56 6 8 0
-56 6 30 0
56 -6 -8 0
56 -8 -30 0
56 -6 -30 0
-57 58 130 158 176 0
-57 58 -130 -158 176 0
57 -176 0
57 -130 158 0
57 -58 0
57 130 -158 0
-58 59 78 -91 -114 0
-58 -59 -78 -91 -114 0
-58 59 78 91 114 0
-58 -59 -78 91 114 0
58 59 -78 0
58 -59 78 0
58 91 -114 0
58 -91 114 0
59 60 -61 0
59 -60 61 0
-59 -60 -61 0
-59 60 61 0
60 -632 -637 0
-60 632 0
-60 637 0
61 -62 63 0
61 62 -63 0
-61 62 63 0
-61 -62 -63 0
62 -631 -638 0
-62 631 0
-62 638 0
-63 64 65 0
-63 -64 -65 0
63 -64 65 0
63 64 -65 0
64 -33 -34 0
-64 33 0
-64 34 0
-65 66 67 0
-65 -66 -67 0
65 -66 67 0
65 66 -67 0
66 -630 -639 0
-66 630 0
-66 639 0
-67 68 77 0
-67 -68 -77 0
67 -68 77 0
67 68 -77 0
-68 69 70 0
-68 -69 -70 0
68 -69 70 0
68 69 -70 0
69 -629 -640 0
-69 629 0
-69 640 0
-70 71 76 0
-70 -71 -76 0
70 -71 76 0
70 71 -76 0
-71 -72 -73 0
-71 72 73 0
71 72 -73 0
71 -72 73 0
72 -628 -641 0
-72 628 0
-72 641 0
73 -74 75 0
73 74 -75 0
-73 74 75 0
-73 -74 -75 0
74 -627 -642 0
-74 627 0
-74 642 0
-75 44 45 0
-75 42 44 0
-75 42 45 0
75 -42 -44 0
75 -44 -45 0
75 -42 -45 0
-76 39 41 0
-76 41 46 0
-76 39 46 0
76 -41 -46 0
76 -39 -41 0
76 -39 -46 0
-77 35 38 0
-77 37 35 0
-77 37 38 0
77 -37 -35 0
77 -35 -38 0
77 -37 -38 0
78 79 -80 0
78 -79 80 0
-78 -79 -80 0
-78 79 80 0
-79 48 50 0
-79 50 56 0
-79 48 56 0
79 -48 -56 0
79 -50 -56 0
79 -48 -50 0
80 -81 90 0
80 81 -90 0
-80 81 90 0
-80 -81 -90 0
81 -82 87 0
81 82 -87 0
-81 82 87 0
-81 -82 -87 0
-82 -83 -85 0
-82 83 85 0
82 83 -85 0
82 -83 85 0
-83 -69 -84 0
-83 69 84 0
83 69 -84 0
83 -69 84 0
84 72 -74 0
84 -72 74 0
-84 -72 -74 0
-84 72 74 0
85 86 -60 0
85 -86 60 0
-85 -86 -60 0
-85 86 60 0
86 -42 -44 0
-86 42 0
-86 44 0
-87 -88 -89 0
-87 88 89 0
87 88 -89 0
87 -88 89 0
-88 33 39 0
-88 35 39 0
-88 33 35 0
88 -33 -35 0
88 -35 -39 0
88 -33 -39 0
89 62 -66 0
89 -62 66 0
-89 -62 -66 0
-89 62 66 0
-90 22 55 0
-90 20 51 0
-90 22 51 0
-90 51 55 0
-90 20 55 0
90 -51 -55 0
90 -20 -22 -55 0
90 -20 -22 -51 0
91 92 -93 0
91 -92 93 0
-91 -92 -93 0
-91 92 93 0
92 -633 -637 0
-92 633 0
-92 637 0
93 -94 95 0
93 94 -95 0
-93 94 95 0
-93 -94 -95 0
94 -632 -638 0
-94 632 0
-94 638 0
-95 96 97 0
-95 -96 -97 0
95 -96 97 0
95 96 -97 0
96 -60 -61 0
-96 60 0
-96 61 0
-97 98 99 0
-97 -98 -99 0
97 -98 99 0
97 98 -99 0
98 -631 -639 0
-98 631 0
-98 639 0
-99 100 113 0
-99 -100 -113 0
99 -100 113 0
99 100 -113 0
-100 101 102 0
-100 -101 -102 0
100 -101 102 0
100 101 -102 0
101 -630 -640 0
-101 630 0
-101 640 0
-102 103 112 0
-102 -103 -112 0
102 -103 112 0
102 103 -112 0
-103 104 105 0
-103 -104 -105 0
103 -104 105 0
103 104 -105 0
104 -629 -641 0
-104 629 0
-104 641 0
-105 106 111 0
-105 -106 -111 0
105 -106 111 0
105 106 -111 0
-106 -107 -108 0
-106 107 108 0
106 107 -108 0
106 -107 108 0
107 -628 -642 0
-107 628 0
-107 642 0
108 -109 110 0
108 109 -110 0
-108 109 110 0
-108 -109 -110 0
109 -627 -643 0
-109 627 0
-109 643 0
-110 74 75 0
-110 72 74 0
-110 72 75 0
110 -72 -74 0
110 -74 -75 0
110 -72 -75 0
-111 69 71 0
-111 71 76 0
-111 69 76 0
111 -71 -76 0
111 -69 -71 0
111 -69 -76 0
-112 66 68 0
-112 68 77 0
-112 66 77 0
112 -68 -77 0
112 -66 -68 0
112 -66 -77 0
-113 62 65 0
-113 64 62 0
-113 64 65 0
113 -64 -62 0
113 -62 -65 0
113 -64 -65 0
114 -115 116 0
114 115 -116 0
-114 115 116 0
-114 -115 -116 0
-115 79 90 0
-115 79 81 0
-115 81 90 0
115 -81 -90 0
115 -79 -90 0
115 -79 -81 0
-116 117 129 0
-116 -117 -129 0
116 -117 129 0
116 117 -129 0
117 -118 124 0
117 118 -124 0
-117 118 124 0
-117 -118 -124 0
-118 -119 -121 0
-118 119 121 0
118 119 -121 0
118 -119 121 0
-119 -98 -120 0
-119 98 120 0
119 98 -120 0
119 -98 120 0
120 101 -104 0
120 -101 104 0
-120 -101 -104 0
-120 101 104 0
121 -122 123 0
121 122 -123 0
-121 122 123 0
-121 -122 -123 0
122 -62 -66 0
-122 62 0
-122 66 0
-123 69 74 0
-123 72 74 0
-123 69 72 0
123 -69 -72 0
123 -72 -74 0
123 -69 -74 0
-124 -125 -126 0
-124 125 126 0
124 125 -126 0
124 -125 126 0
-125 60 83 0
-125 86 60 0
-125 86 83 0
125 -86 -60 0
125 -60 -83 0
125 -86 -83 0
126 127 -128 0
126 -127 128 0
-126 -127 -128 0
-126 127 128 0
127 107 -109 0
127 -107 109 0
-127 -107 -109 0
-127 107 109 0
128 92 -94 0
128 -92 94 0
-128 -92 -94 0
-128 92 94 0
-129 82 88 0
-129 88 89 0
-129 82 89 0
129 -88 -89 0
129 -82 -88 0
129 -82 -89 0
130 131 -132 0
130 -131 132 0
-130 -131 -132 0
-130 131 132 0
131 -634 -637 0
-131 634 0
-131 637 0
132 -133 134 0
132 133 -134 0
-132 133 134 0
-132 -133 -134 0
133 -633 -638 0
-133 633 0
-133 638 0
-134 135 136 0
-134 -135 -136 0
134 -135 136 0
134 135 -136 0
135 -92 -93 0
-135 92 0
-135 93 0
-136 137 138 0
-136 -137 -138 0
136 -137 138 0
136 137 -138 0
137 -632 -639 0
-137 632 0
-137 639 0
-138 139 157 0
-138 -139 -157 0
138 -139 157 0
138 139 -157 0
-139 140 141 0
-139 -140 -141 0
139 -140 141 0
139 140 -141 0
140 -631 -640 0
-140 631 0
-140 640 0
-141 142 156 0
-141 -142 -156 0
141 -142 156 0
141 142 -156 0
-142 143 144 0
-142 -143 -144 0
142 -143 144 0
142 143 -144 0
143 -630 -641 0
-143 630 0
-143 641 0
-144 145 155 0
-144 -145 -155 0
144 -145 155 0
144 145 -155 0
-145 146 147 0
-145 -146 -147 0
145 -146 147 0
145 146 -147 0
146 -629 -642 0
-146 629 0
-146 642 0
-147 148 154 0
-147 -148 -154 0
147 -148 154 0
147 148 -154 0
-148 -149 -150 0
-148 149 150 0
148 149 -150 0
148 -149 150 0
149 -628 -643 0
-149 628 0
-149 643 0
150 -151 152 0
150 151 -152 0
-150 151 152 0
-150 -151 -152 0
151 -627 -644 0
-151 627 0
-151 644 0
-152 110 153 0
-152 107 109 153 0
152 -153 0
152 -109 -110 0
152 -107 -110 0
153 -107 -109 0
-153 107 0
-153 109 0
-154 104 106 0
-154 106 111 0
-154 104 111 0
154 -106 -111 0
154 -104 -106 0
154 -104 -111 0
-155 101 103 0
-155 103 112 0
-155 101 112 0
155 -103 -112 0
155 -101 -103 0
155 -101 -112 0
-156 98 100 0
-156 100 113 0
-156 98 113 0
156 -100 -113 0
156 -98 -100 0
156 -98 -113 0
-157 94 97 0
-157 96 94 0
-157 96 97 0
157 -96 -94 0
157 -94 -97 0
157 -96 -97 0
158 159 -160 0
158 -159 160 0
-158 -159 -160 0
-158 159 160 0
-159 115 129 0
-159 115 117 0
-159 117 129 0
159 -117 -129 0
159 -115 -129 0
159 -115 -117 0
160 -161 175 0
160 161 -175 0
-160 161 175 0
-160 -161 -175 0
161 -162 168 0
161 162 -168 0
-161 162 168 0
-161 -162 -168 0
-162 -163 -165 0
-162 163 165 0
162 163 -165 0
162 -163 165 0
-163 -131 -164 0
-163 131 164 0
163 131 -164 0
163 -131 164 0
164 133 -137 0
164 -133 137 0
-164 -133 -137 0
-164 133 137 0
165 -166 167 0
165 166 -167 0
-165 166 167 0
-165 -166 -167 0
-166 92 127 0
-166 94 127 0
-166 92 94 0
166 -92 -94 0
166 -94 -127 0
166 -92 -127 0
-167 98 104 0
-167 101 104 0
-167 98 101 0
167 -98 -101 0
167 -101 -104 0
167 -98 -104 0
-168 -169 -170 0
-168 169 170 0
168 169 -170 0
168 -169 170 0
-169 122 119 0
-169 119 123 0
-169 122 123 0
169 -119 -123 0
169 -122 -119 0
169 -122 -123 0
170 -171 172 0
170 171 -172 0
-170 171 172 0
-170 -171 -172 0
171 140 -143 0
171 -140 143 0
-171 -140 -143 0
-171 140 143 0
-172 153 173 0
-172 -153 -173 0
172 -153 173 0
172 153 -173 0
-173 -146 -174 0
-173 146 174 0
173 146 -174 0
173 -146 174 0
174 149 -151 0
174 -149 151 0
-174 -149 -151 0
-174 149 151 0
-175 118 125 0
-175 125 126 0
-175 118 126 0
175 -125 -126 0
175 -118 -125 0
175 -118 -126 0
-176 177 208 -230 -265 0
-176 -177 -208 -230 -265 0
-176 177 208 230 265 0
-176 -177 -208 230 265 0
176 177 -208 0
176 -177 208 0
176 230 -265 0
176 -230 265 0
177 178 -179 0
177 -178 179 0
-177 -178 -179 0
-177 178 179 0
178 -635 -637 0
-178 635 0
-178 637 0
179 -180 181 0
179 180 -181 0
-179 180 181 0
-179 -180 -181 0
180 -634 -638 0
-180 634 0
-180 638 0
-181 182 183 0
-181 -182 -183 0
181 -182 183 0
181 182 -183 0
182 -131 -132 0
-182 131 0
-182 132 0
-183 184 185 0
-183 -184 -185 0
183 -184 185 0
183 184 -185 0
184 -633 -639 0
-184 633 0
-184 639 0
-185 186 207 0
-185 -186 -207 0
185 -186 207 0
185 186 -207 0
-186 187 188 0
-186 -187 -188 0
186 -187 188 0
186 187 -188 0
187 -632 -640 0
-187 632 0
-187 640 0
-188 189 206 0
-188 -189 -206 0
188 -189 206 0
188 189 -206 0
-189 190 191 0
-189 -190 -191 0
189 -190 191 0
189 190 -191 0
190 -631 -641 0
-190 631 0
-190 641 0
-191 192 205 0
-191 -192 -205 0
191 -192 205 0
191 192 -205 0
-192 193 194 0
-192 -193 -194 0
192 -193 194 0
192 193 -194 0
193 -630 -642 0
-193 630 0
-193 642 0
-194 195 204 0
-194 -195 -204 0
194 -195 204 0
194 195 -204 0
-195 196 197 0
-195 -196 -197 0
195 -196 197 0
195 196 -197 0
196 -629 -643 0
-196 629 0
-196 643 0
-197 198 203 0
-197 -198 -203 0
197 -198 203 0
197 198 -203 0
-198 -199 -200 0
-198 199 200 0
198 199 -200 0
198 -199 200 0
199 -628 -644 0
-199 628 0
-199 644 0
200 -201 202 0
200 201 -202 0
-200 201 202 0
-200 -201 -202 0
201 -627 -645 0
-201 627 0
-201 645 0
-202 151 152 0
-202 149 151 0
-202 149 152 0
202 -149 -151 0
202 -151 -152 0
202 -149 -152 0
-203 146 148 0
-203 148 154 0
-203 146 154 0
203 -148 -154 0
203 -146 -148 0
203 -146 -154 0
-204 143 145 0
-204 145 155 0
-204 143 155 0
204 -145 -155 0
204 -143 -145 0
204 -143 -155 0
-205 140 142 0
-205 142 156 0
-205 140 156 0
205 -142 -156 0
205 -140 -142 0
205 -140 -156 0
-206 137 139 0
-206 139 157 0
-206 137 157 0
206 -139 -157 0
206 -137 -139 0
206 -137 -157 0
-207 133 136 0
-207 135 133 0
-207 135 136 0
207 -135 -133 0
207 -133 -136 0
207 -135 -136 0
208 209 -210 0
208 -209 210 0
-208 -209 -210 0
-208 209 210 0
-209 159 175 0
-209 159 161 0
-209 161 175 0
209 -161 -175 0
209 -159 -175 0
209 -159 -161 0
210 -211 229 0
210 211 -229 0
-210 211 229 0
-210 -211 -229 0
211 -212 220 0
211 212 -220 0
-211 212 220 0
-211 -212 -220 0
-212 -213 -217 0
-212 213 217 0
212 213 -217 0
212 -213 217 0
-213 214 215 0
-213 -214 -215 0
213 -214 215 0
213 214 -215 0
214 -140 -143 0
-214 140 0
-214 143 0
-215 178 216 0
-215 -178 -216 0
215 -178 216 0
215 178 -216 0
-216 146 151 0
-216 149 151 0
-216 146 149 0
216 -146 -149 0
216 -149 -151 0
216 -146 -151 0
217 -218 219 0
217 218 -219 0
-217 218 219 0
-217 -218 -219 0
-218 171 173 0
-218 153 171 0
-218 153 173 0
218 -153 -171 0
218 -171 -173 0
218 -153 -173 0
-219 131 137 0
-219 133 137 0
-219 131 133 0
219 -131 -133 0
219 -133 -137 0
219 -131 -137 0
-220 -221 -222 0
-220 221 222 0
220 221 -222 0
220 -221 222 0
-221 163 166 0
-221 166 167 0
-221 163 167 0
221 -163 -167 0
221 -166 -167 0
221 -163 -166 0
222 223 -224 0
222 -223 224 0
-222 -223 -224 0
-222 223 224 0
223 180 -184 0
223 -180 184 0
-223 -180 -184 0
-223 180 184 0
224 -225 227 0
224 225 -227 0
-224 225 227 0
-224 -225 -227 0
-225 -187 -226 0
-225 187 226 0
225 187 -226 0
225 -187 226 0
226 190 -193 0
226 -190 193 0
-226 -190 -193 0
-226 190 193 0
-227 -196 -228 0
-227 196 228 0
227 196 -228 0
227 -196 228 0
228 199 -201 0
228 -199 201 0
-228 -199 -201 0
-228 199 201 0
-229 162 169 0
-229 169 170 0
-229 162 170 0
229 -169 -170 0
229 -162 -169 0
229 -162 -170 0
230 231 -232 0
230 -231 232 0
-230 -231 -232 0
-230 231 232 0
231 -636 -637 0
-231 636 0
-231 637 0
232 233 -234 0
232 -233 234 0
-232 -233 -234 0
-232 233 234 0
233 -635 -638 0
-233 635 0
-233 638 0
234 235 -236 0
234 -235 236 0
-234 -235 -236 0
-234 235 236 0
235 -178 -179 0
-235 178 0
-235 179 0
236 -237 238 0
236 237 -238 0
-236 237 238 0
-236 -237 -238 0
237 -634 -639 0
-237 634 0
-237 639 0
-238 239 264 0
-238 -239 -264 0
238 -239 264 0
238 239 -264 0
-239 240 241 0
-239 -240 -241 0
239 -240 241 0
239 240 -241 0
240 -633 -640 0
-240 633 0
-240 640 0
-241 242 263 0
-241 -242 -263 0
241 -242 263 0
241 242 -263 0
-242 243 244 0
-242 -243 -244 0
242 -243 244 0
242 243 -244 0
243 -632 -641 0
-243 632 0
-243 641 0
-244 245 262 0
-244 -245 -262 0
244 -245 262 0
244 245 -262 0
-245 246 247 0
-245 -246 -247 0
245 -246 247 0
245 246 -247 0
246 -631 -642 0
-246 631 0
-246 642 0
-247 248 261 0
-247 -248 -261 0
247 -248 261 0
247 248 -261 0
-248 249 250 0
-248 -249 -250 0
248 -249 250 0
248 249 -250 0
249 -630 -643 0
-249 630 0
-249 643 0
-250 251 260 0
-250 -251 -260 0
250 -251 260 0
250 251 -260 0
-251 252 253 0
-251 -252 -253 0
251 -252 253 0
251 252 -253 0
252 -629 -644 0
-252 629 0
-252 644 0
-253 254 259 0
-253 -254 -259 0
253 -254 259 0
253 254 -259 0
-254 -255 -256 0
-254 255 256 0
254 255 -256 0
254 -255 256 0
255 -628 -645 0
-255 628 0
-255 645 0
256 -257 258 0
256 257 -258 0
-256 257 258 0
-256 -257 -258 0
257 -627 -646 0
-257 627 0
-257 646 0
-258 201 202 0
-258 199 201 0
-258 199 202 0
258 -199 -201 0
258 -201 -202 0
258 -199 -202 0
-259 196 198 0
-259 198 203 0
-259 196 203 0
259 -198 -203 0
259 -196 -198 0
259 -196 -203 0
-260 193 195 0
-260 195 204 0
-260 193 204 0
260 -195 -204 0
260 -193 -195 0
260 -193 -204 0
-261 190 192 0
-261 192 205 0
-261 190 205 0
261 -192 -205 0
261 -190 -192 0
261 -190 -205 0
-262 187 189 0
-262 189 206 0
-262 187 206 0
262 -189 -206 0
262 -187 -189 0
262 -187 -206 0
-263 184 186 0
-263 186 207 0
-263 184 207 0
263 -186 -207 0
263 -184 -186 0
263 -184 -207 0
-264 180 183 0
-264 182 180 0
-264 182 183 0
264 -182 -180 0
264 -180 -183 0
264 -182 -183 0
265 266 -267 0
265 -266 267 0
-265 -266 -267 0
-265 266 267 0
-266 209 229 0
-266 209 211 0
-266 211 229 0
266 -211 -229 0
266 -209 -229 0
266 -209 -211 0
267 -268 289 0
267 268 -289 0
-267 268 289 0
-267 -268 -289 0
268 -269 278 0
268 269 -278 0
-268 269 278 0
-268 -269 -278 0
-269 -270 -275 0
-269 270 275 0
269 270 -275 0
269 -270 275 0
-270 271 272 0
-270 -271 -272 0
270 -271 272 0
270 271 -272 0
271 -180 -184 0
-271 180 0
-271 184 0
-272 273 274 0
-272 -273 -274 0
272 -273 274 0
272 273 -274 0
-273 187 193 0
-273 190 193 0
-273 187 190 0
273 -187 -190 0
273 -190 -193 0
273 -187 -193 0
-274 645 199 0
-274 627 196 0
-274 196 199 0
-274 645 196 0
-274 627 199 0
274 -196 -199 0
274 -627 -645 -199 0
274 -627 -645 -196 0
275 -276 277 0
275 276 -277 0
-275 276 277 0
-275 -276 -277 0
-276 223 225 0
-276 225 227 0
-276 223 227 0
276 -225 -227 0
276 -223 -225 0
276 -223 -227 0
-277 178 216 0
-277 214 178 0
-277 214 216 0
277 -214 -178 0
277 -178 -216 0
277 -214 -216 0
-278 -279 -280 0
-278 279 280 0
278 279 -280 0
278 -279 280 0
-279 213 218 0
-279 218 219 0
-279 213 219 0
279 -213 -219 0
279 -218 -219 0
279 -213 -218 0
280 281 -284 0
280 -281 284 0
-280 -281 -284 0
-280 281 284 0
-281 -282 -283 0
-281 282 283 0
281 282 -283 0
281 -282 283 0
282 255 -257 0
282 -255 257 0
-282 -255 -257 0
-282 255 257 0
283 231 -233 0
283 -231 233 0
-283 -231 -233 0
-283 231 233 0
284 -285 287 0
284 285 -287 0
-284 285 287 0
-284 -285 -287 0
-285 -237 -286 0
-285 237 286 0
285 237 -286 0
285 -237 286 0
286 240 -243 0
286 -240 243 0
-286 -240 -243 0
-286 240 243 0
-287 -246 -288 0
-287 246 288 0
287 246 -288 0
287 -246 288 0
288 249 -252 0
288 -249 252 0
-288 -249 -252 0
-288 249 252 0
-289 212 221 0
-289 221 222 0
-289 212 222 0
289 -221 -222 0
289 -212 -221 0
289 -212 -222 0
-290 291 411 440 462 0
-290 291 -411 -440 462 0
290 -462 0
290 -411 440 0
290 -291 0
290 411 -440 0
-291 292 327 -353 -386 0
-291 -292 -327 -353 -386 0
-291 292 327 353 386 0
-291 -292 -327 353 386 0
291 292 -327 0
291 -292 327 0
291 353 -386 0
291 -353 386 0
292 -293 294 0
292 293 -294 0
-292 293 294 0
-292 -293 -294 0
293 -636 -638 0
-293 636 0
-293 638 0
-294 295 296 0
-294 -295 -296 0
294 -295 296 0
294 295 -296 0
295 -635 -639 0
-295 635 0
-295 639 0
-296 297 298 0
-296 -297 -298 0
296 -297 298 0
296 297 -298 0
297 -231 -232 0
-297 231 0
-297 232 0
-298 299 300 0
-298 -299 -300 0
298 -299 300 0
298 299 -300 0
299 -634 -640 0
-299 634 0
-299 640 0
-300 301 326 0
-300 -301 -326 0
300 -301 326 0
300 301 -326 0
-301 302 303 0
-301 -302 -303 0
301 -302 303 0
301 302 -303 0
302 -633 -641 0
-302 633 0
-302 641 0
-303 304 325 0
-303 -304 -325 0
303 -304 325 0
303 304 -325 0
-304 305 306 0
-304 -305 -306 0
304 -305 306 0
304 305 -306 0
305 -632 -642 0
-305 632 0
-305 642 0
-306 307 324 0
-306 -307 -324 0
306 -307 324 0
306 307 -324 0
-307 308 309 0
-307 -308 -309 0
307 -308 309 0
307 308 -309 0
308 -631 -643 0
-308 631 0
-308 643 0
-309 310 323 0
-309 -310 -323 0
309 -310 323 0
309 310 -323 0
-310 311 312 0
-310 -311 -312 0
310 -311 312 0
310 311 -312 0
311 -630 -644 0
-311 630 0
-311 644 0
-312 313 322 0
-312 -313 -322 0
312 -313 322 0
312 313 -322 0
-313 314 315 0
-313 -314 -315 0
313 -314 315 0
313 314 -315 0
314 -629 -645 0
-314 629 0
-314 645 0
-315 316 321 0
-315 -316 -321 0
315 -316 321 0
315 316 -321 0
-316 317 318 0
-316 -317 -318 0
316 -317 318 0
316 317 -318 0
317 -628 -646 0
-317 628 0
-317 646 0
-318 319 320 0
-318 -319 -320 0
318 -319 320 0
318 319 -320 0
-319 257 258 0
-319 255 257 0
-319 255 258 0
319 -255 -257 0
319 -257 -258 0
319 -255 -258 0
-320 252 254 0
-320 254 259 0
-320 252 259 0
320 -254 -259 0
320 -252 -254 0
320 -252 -259 0
-321 249 251 0
-321 251 260 0
-321 249 260 0
321 -251 -260 0
321 -249 -251 0
321 -249 -260 0
-322 246 248 0
-322 248 261 0
-322 246 261 0
322 -248 -261 0
322 -246 -248 0
322 -246 -261 0
-323 243 245 0
-323 245 262 0
-323 243 262 0
323 -245 -262 0
323 -243 -245 0
323 -243 -262 0
-324 240 242 0
-324 242 263 0
-324 240 263 0
324 -242 -263 0
324 -240 -242 0
324 -240 -263 0
-325 237 239 0
-325 239 264 0
-325 237 264 0
325 -239 -264 0
325 -237 -239 0
325 -237 -264 0
-326 235 236 0
-326 233 236 0
-326 235 233 0
326 -235 -233 0
326 -233 -236 0
326 -235 -236 0
327 328 -329 0
327 -328 329 0
-327 -328 -329 0
-327 328 329 0
-328 266 289 0
-328 266 268 0
-328 268 289 0
328 -268 -289 0
328 -266 -289 0
328 -266 -268 0
329 -330 352 0
329 330 -352 0
-329 330 352 0
-329 -330 -352 0
330 -331 340 0
330 331 -340 0
-330 331 340 0
-330 -331 -340 0
-331 -332 -337 0
-331 332 337 0
331 332 -337 0
331 -332 337 0
-332 -333 -334 0
-332 333 334 0
332 333 -334 0
332 -333 334 0
-333 231 282 0
-333 233 282 0
-333 231 233 0
333 -231 -233 0
333 -233 -282 0
333 -231 -282 0
334 -335 336 0
334 335 -336 0
-334 335 336 0
-334 -335 -336 0
-335 237 243 0
-335 240 243 0
-335 237 240 0
335 -237 -240 0
335 -240 -243 0
335 -237 -243 0
-336 246 252 0
-336 249 252 0
-336 246 249 0
336 -246 -249 0
336 -249 -252 0
336 -246 -252 0
337 -338 339 0
337 338 -339 0
-337 338 339 0
-337 -338 -339 0
-338 281 285 0
-338 285 287 0
-338 281 287 0
338 -281 -287 0
338 -285 -287 0
338 -281 -285 0
-339 271 273 0
-339 273 274 0
-339 271 274 0
339 -273 -274 0
339 -271 -273 0
339 -271 -274 0
-340 -341 -342 0
-340 341 342 0
340 341 -342 0
340 -341 342 0
-341 270 276 0
-341 276 277 0
-341 270 277 0
341 -270 -277 0
341 -276 -277 0
341 -270 -276 0
342 343 -347 0
342 -343 347 0
-342 -343 -347 0
-342 343 347 0
-343 -344 -345 0
-343 344 345 0
343 344 -345 0
343 -344 345 0
344 314 -317 0
344 -314 317 0
-344 -314 -317 0
-344 314 317 0
345 346 -293 0
345 -346 293 0
-345 -346 -293 0
-345 346 293 0
346 -255 -257 0
-346 255 0
-346 257 0
347 -348 350 0
347 348 -350 0
-347 348 350 0
-347 -348 -350 0
-348 -295 -349 0
-348 295 349 0
348 295 -349 0
348 -295 349 0
349 299 -302 0
349 -299 302 0
-349 -299 -302 0
-349 299 302 0
-350 -305 -351 0
-350 305 351 0
350 305 -351 0
350 -305 351 0
351 308 -311 0
351 -308 311 0
-351 -308 -311 0
-351 308 311 0
-352 269 279 0
-352 279 280 0
-352 269 280 0
352 -279 -280 0
352 -269 -279 0
352 -269 -280 0
353 354 -355 0
353 -354 355 0
-353 -354 -355 0
-353 354 355 0
354 -293 -294 0
-354 293 0
-354 294 0
355 356 -357 0
355 -356 357 0
-355 -356 -357 0
-355 356 357 0
356 -636 -639 0
-356 636 0
-356 639 0
357 -358 359 0
357 358 -359 0
-357 358 359 0
-357 -358 -359 0
358 -635 -640 0
-358 635 0
-358 640 0
-359 360 385 0
-359 -360 -385 0
359 -360 385 0
359 360 -385 0
-360 361 362 0
-360 -361 -362 0
360 -361 362 0
360 361 -362 0
361 -634 -641 0
-361 634 0
-361 641 0
-362 363 384 0
-362 -363 -384 0
362 -363 384 0
362 363 -384 0
-363 364 365 0
-363 -364 -365 0
363 -364 365 0
363 364 -365 0
364 -633 -642 0
-364 633 0
-364 642 0
-365 366 383 0
-365 -366 -383 0
365 -366 383 0
365 366 -383 0
-366 367 368 0
-366 -367 -368 0
366 -367 368 0
366 367 -368 0
367 -632 -643 0
-367 632 0
-367 643 0
-368 369 382 0
-368 -369 -382 0
368 -369 382 0
368 369 -382 0
-369 370 371 0
-369 -370 -371 0
369 -370 371 0
369 370 -371 0
370 -631 -644 0
-370 631 0
-370 644 0
-371 372 381 0
-371 -372 -381 0
371 -372 381 0
371 372 -381 0
-372 373 374 0
-372 -373 -374 0
372 -373 374 0
372 373 -374 0
373 -630 -645 0
-373 630 0
-373 645 0
-374 375 380 0
-374 -375 -380 0
374 -375 380 0
374 375 -380 0
-375 376 377 0
-375 -376 -377 0
375 -376 377 0
375 376 -377 0
376 -629 -646 0
-376 629 0
-376 646 0
-377 378 379 0
-377 -378 -379 0
377 -378 379 0
377 378 -379 0
-378 317 319 0
-378 319 320 0
-378 317 320 0
378 -319 -320 0
378 -317 -319 0
378 -317 -320 0
-379 314 316 0
-379 316 321 0
-379 314 321 0
379 -316 -321 0
379 -314 -316 0
379 -314 -321 0
-380 311 313 0
-380 313 322 0
-380 311 322 0
380 -313 -322 0
380 -311 -313 0
380 -311 -322 0
-381 308 310 0
-381 310 323 0
-381 308 323 0
381 -310 -323 0
381 -308 -310 0
381 -308 -323 0
-382 305 307 0
-382 307 324 0
-382 305 324 0
382 -307 -324 0
382 -305 -307 0
382 -305 -324 0
-383 302 304 0
-383 304 325 0
-383 302 325 0
383 -304 -325 0
383 -302 -304 0
383 -302 -325 0
-384 299 301 0
-384 301 326 0
-384 299 326 0
384 -301 -326 0
384 -299 -301 0
384 -299 -326 0
-385 295 298 0
-385 297 295 0
-385 297 298 0
385 -297 -295 0
385 -295 -298 0
385 -297 -298 0
386 -387 388 0
386 387 -388 0
-386 387 388 0
-386 -387 -388 0
-387 328 352 0
-387 328 330 0
-387 330 352 0
387 -330 -352 0
387 -328 -352 0
387 -328 -330 0
-388 389 410 0
-388 -389 -410 0
388 -389 410 0
388 389 -410 0
389 -390 399 0
389 390 -399 0
-389 390 399 0
-389 -390 -399 0
-390 -391 -396 0
-390 391 396 0
390 391 -396 0
390 -391 396 0
-391 -392 -393 0
-391 392 393 0
391 392 -393 0
391 -392 393 0
-392 346 344 0
-392 293 344 0
-392 346 293 0
392 -346 -293 0
392 -293 -344 0
392 -346 -344 0
393 -394 395 0
393 394 -395 0
-393 394 395 0
-393 -394 -395 0
-394 295 302 0
-394 299 302 0
-394 295 299 0
394 -295 -299 0
394 -299 -302 0
394 -295 -302 0
-395 305 311 0
-395 308 311 0
-395 305 308 0
395 -305 -308 0
395 -308 -311 0
395 -305 -311 0
396 -397 398 0
396 397 -398 0
-396 397 398 0
-396 -397 -398 0
-397 343 348 0
-397 348 350 0
-397 343 350 0
397 -343 -350 0
397 -348 -350 0
397 -343 -348 0
-398 333 335 0
-398 335 336 0
-398 333 336 0
398 -333 -336 0
398 -335 -336 0
398 -333 -335 0
-399 -400 -401 0
-399 400 401 0
399 400 -401 0
399 -400 401 0
-400 332 338 0
-400 338 339 0
-400 332 339 0
400 -332 -339 0
400 -338 -339 0
400 -332 -338 0
401 402 -405 0
401 -402 405 0
-401 -402 -405 0
-401 402 405 0
-402 -403 -404 0
-402 403 404 0
402 403 -404 0
402 -403 404 0
403 -314 -317 0
-403 314 0
-403 317 0
404 356 -358 0
404 -356 358 0
-404 -356 -358 0
-404 356 358 0
405 -406 408 0
405 406 -408 0
-405 406 408 0
-405 -406 -408 0
-406 -361 -407 0
-406 361 407 0
406 361 -407 0
406 -361 407 0
407 364 -367 0
407 -364 367 0
-407 -364 -367 0
-407 364 367 0
-408 -370 -409 0
-408 370 409 0
408 370 -409 0
408 -370 409 0
409 373 -376 0
409 -373 376 0
-409 -373 -376 0
-409 373 376 0
-410 331 341 0
-410 341 342 0
-410 331 342 0
410 -341 -342 0
410 -331 -341 0
410 -331 -342 0
411 412 -413 0
411 -412 413 0
-411 -412 -413 0
-411 412 413 0
-412 639 357 0
-412 636 354 0
-412 354 357 0
-412 639 354 0
-412 636 357 0
412 -354 -357 0
412 -636 -639 -357 0
412 -636 -639 -354 0
413 414 -415 0
413 -414 415 0
-413 -414 -415 0
-413 414 415 0
414 -636 -640 0
-414 636 0
-414 640 0
415 -416 417 0
415 416 -417 0
-415 416 417 0
-415 -416 -417 0
416 -635 -641 0
-416 635 0
-416 641 0
-417 418 439 0
-417 -418 -439 0
417 -418 439 0
417 418 -439 0
-418 419 420 0
-418 -419 -420 0
418 -419 420 0
418 419 -420 0
419 -634 -642 0
-419 634 0
-419 642 0
-420 421 438 0
-420 -421 -438 0
420 -421 438 0
420 421 -438 0
-421 422 423 0
-421 -422 -423 0
421 -422 423 0
421 422 -423 0
422 -633 -643 0
-422 633 0
-422 643 0
-423 424 437 0
-423 -424 -437 0
423 -424 437 0
423 424 -437 0
-424 425 426 0
-424 -425 -426 0
424 -425 426 0
424 425 -426 0
425 -632 -644 0
-425 632 0
-425 644 0
-426 427 436 0
-426 -427 -436 0
426 -427 436 0
426 427 -436 0
-427 428 429 0
-427 -428 -429 0
427 -428 429 0
427 428 -429 0
428 -631 -645 0
-428 631 0
-428 645 0
-429 430 435 0
-429 -430 -435 0
429 -430 435 0
429 430 -435 0
-430 431 432 0
-430 -431 -432 0
430 -431 432 0
430 431 -432 0
431 -630 -646 0
-431 630 0
-431 646 0
-432 433 434 0
-432 -433 -434 0
432 -433 434 0
432 433 -434 0
-433 376 378 0
-433 378 379 0
-433 376 379 0
433 -378 -379 0
433 -376 -378 0
433 -376 -379 0
-434 373 375 0
-434 375 380 0
-434 373 380 0
434 -375 -380 0
434 -373 -375 0
434 -373 -380 0
-435 370 372 0
-435 372 381 0
-435 370 381 0
435 -372 -381 0
435 -370 -372 0
435 -370 -381 0
-436 367 369 0
-436 369 382 0
-436 367 382 0
436 -369 -382 0
436 -367 -369 0
436 -367 -382 0
-437 364 366 0
-437 366 383 0
-437 364 383 0
437 -366 -383 0
437 -364 -366 0
437 -364 -383 0
-438 361 363 0
-438 363 384 0
-438 361 384 0
438 -363 -384 0
438 -361 -363 0
438 -361 -384 0
-439 358 360 0
-439 360 385 0
-439 358 385 0
439 -360 -385 0
439 -358 -360 0
439 -358 -385 0
440 441 -442 0
440 -441 442 0
-440 -441 -442 0
-440 441 442 0
-441 387 410 0
-441 387 389 0
-441 389 410 0
441 -389 -410 0
441 -387 -410 0
441 -387 -389 0
442 -443 461 0
442 443 -461 0
-442 443 461 0
-442 -443 -461 0
443 -444 452 0
443 444 -452 0
-443 444 452 0
-443 -444 -452 0
-444 -445 -449 0
-444 445 449 0
444 445 -449 0
444 -445 449 0
-445 446 447 0
-445 -446 -447 0
445 -446 447 0
445 446 -447 0
-446 361 367 0
-446 364 367 0
-446 361 364 0
446 -361 -364 0
446 -364 -367 0
446 -361 -367 0
-447 414 448 0
-447 -414 -448 0
447 -414 448 0
447 414 -448 0
-448 370 376 0
-448 373 376 0
-448 370 373 0
448 -370 -373 0
448 -373 -376 0
448 -370 -376 0
449 -450 451 0
449 450 -451 0
-449 450 451 0
-449 -450 -451 0
-450 402 406 0
-450 406 408 0
-450 402 408 0
450 -402 -408 0
450 -406 -408 0
450 -402 -406 0
-451 392 394 0
-451 394 395 0
-451 392 395 0
451 -392 -395 0
451 -394 -395 0
451 -392 -394 0
-452 -453 -454 0
-452 453 454 0
452 453 -454 0
452 -453 454 0
-453 391 397 0
-453 397 398 0
-453 391 398 0
453 -391 -398 0
453 -397 -398 0
453 -391 -397 0
454 -455 457 0
454 455 -457 0
-454 455 457 0
-454 -455 -457 0
-455 -416 -456 0
-455 416 456 0
455 416 -456 0
455 -416 456 0
456 419 -422 0
456 -419 422 0
-456 -419 -422 0
-456 419 422 0
-457 458 460 0
-457 -458 -460 0
457 -458 460 0
457 458 -460 0
-458 -425 -459 0
-458 425 459 0
458 425 -459 0
458 -425 459 0
459 428 -431 0
459 -428 431 0
-459 -428 -431 0
-459 428 431 0
-460 639 358 0
-460 636 403 0
-460 403 358 0
-460 639 403 0
-460 636 358 0
460 -403 -358 0
460 -636 -639 -358 0
460 -636 -639 -403 0
-461 390 400 0
-461 400 401 0
-461 390 401 0
461 -400 -401 0
461 -390 -400 0
461 -390 -401 0
-462 463 488 -507 -528 0
-462 -463 -488 -507 -528 0
-462 463 488 507 528 0
-462 -463 -488 507 528 0
462 463 -488 0
462 -463 488 0
462 507 -528 0
462 -507 528 0
463 464 -465 0
463 -464 465 0
-463 -464 -465 0
-463 464 465 0
-464 414 415 0
-464 412 414 0
-464 412 415 0
464 -412 -414 0
464 -414 -415 0
464 -412 -415 0
465 466 -467 0
465 -466 467 0
-465 -466 -467 0
-465 466 467 0
466 -636 -641 0
-466 636 0
-466 641 0
467 -468 469 0
467 468 -469 0
-467 468 469 0
-467 -468 -469 0
468 -635 -642 0
-468 635 0
-468 642 0
-469 470 487 0
-469 -470 -487 0
469 -470 487 0
469 470 -487 0
-470 471 472 0
-470 -471 -472 0
470 -471 472 0
470 471 -472 0
471 -634 -643 0
-471 634 0
-471 643 0
-472 473 486 0
-472 -473 -486 0
472 -473 486 0
472 473 -486 0
-473 474 475 0
-473 -474 -475 0
473 -474 475 0
473 474 -475 0
474 -633 -644 0
-474 633 0
-474 644 0
-475 476 485 0
-475 -476 -485 0
475 -476 485 0
475 476 -485 0
-476 477 478 0
-476 -477 -478 0
476 -477 478 0
476 477 -478 0
477 -632 -645 0
-477 632 0
-477 645 0
-478 479 484 0
-478 -479 -484 0
478 -479 484 0
478 479 -484 0
-479 480 481 0
-479 -480 -481 0
479 -480 481 0
479 480 -481 0
480 -631 -646 0
-480 631 0
-480 646 0
-481 482 483 0
-481 -482 -483 0
481 -482 483 0
481 482 -483 0
-482 431 433 0
-482 433 434 0
-482 431 434 0
482 -433 -434 0
482 -431 -433 0
482 -431 -434 0
-483 428 430 0
-483 430 435 0
-483 428 435 0
483 -430 -435 0
483 -428 -430 0
483 -428 -435 0
-484 425 427 0
-484 427 436 0
-484 425 436 0
484 -427 -436 0
484 -425 -427 0
484 -425 -436 0
-485 422 424 0
-485 424 437 0
-485 422 437 0
485 -424 -437 0
485 -422 -424 0
485 -422 -437 0
-486 419 421 0
-486 421 438 0
-486 419 438 0
486 -421 -438 0
486 -419 -421 0
486 -419 -438 0
-487 416 418 0
-487 418 439 0
-487 416 439 0
487 -418 -439 0
487 -416 -418 0
487 -416 -439 0
488 -489 490 0
488 489 -490 0
-488 489 490 0
-488 -489 -490 0
-489 441 461 0
-489 441 443 0
-489 443 461 0
489 -443 -461 0
489 -441 -461 0
489 -441 -443 0
-490 491 506 0
-490 -491 -506 0
490 -491 506 0
490 491 -506 0
491 -492 498 0
491 492 -498 0
-491 492 498 0
-491 -492 -498 0
-492 -493 -495 0
-492 493 495 0
492 493 -495 0
492 -493 495 0
-493 -466 -494 0
-493 466 494 0
493 466 -494 0
493 -466 494 0
494 468 -471 0
494 -468 471 0
-494 -468 -471 0
-494 468 471 0
495 -496 497 0
495 496 -497 0
-495 496 497 0
-495 -496 -497 0
-496 455 458 0
-496 458 460 0
-496 455 460 0
496 -455 -460 0
496 -458 -460 0
496 -455 -458 0
-497 414 446 0
-497 446 448 0
-497 414 448 0
497 -446 -448 0
497 -414 -446 0
497 -414 -448 0
-498 -499 -500 0
-498 499 500 0
498 499 -500 0
498 -499 500 0
-499 445 450 0
-499 450 451 0
-499 445 451 0
499 -445 -451 0
499 -450 -451 0
499 -445 -450 0
500 -501 503 0
500 501 -503 0
-500 501 503 0
-500 -501 -503 0
-501 -474 -502 0
-501 474 502 0
501 474 -502 0
501 -474 502 0
502 477 -480 0
502 -477 480 0
-502 -477 -480 0
-502 477 480 0
-503 504 505 0
-503 -504 -505 0
503 -504 505 0
503 504 -505 0
-504 416 422 0
-504 419 422 0
-504 416 419 0
504 -416 -419 0
504 -419 -422 0
504 -416 -422 0
-505 425 431 0
-505 428 431 0
-505 425 428 0
505 -425 -428 0
505 -428 -431 0
505 -425 -431 0
-506 444 453 0
-506 453 454 0
-506 444 454 0
506 -453 -454 0
506 -444 -453 0
506 -444 -454 0
507 508 -509 0
507 -508 509 0
-507 -508 -509 0
-507 508 509 0
-508 466 467 0
-508 464 466 0
-508 464 467 0
508 -464 -466 0
508 -466 -467 0
508 -464 -467 0
509 510 -511 0
509 -510 511 0
-509 -510 -511 0
-509 510 511 0
510 -636 -642 0
-510 636 0
-510 642 0
511 -512 513 0
511 512 -513 0
-511 512 513 0
-511 -512 -513 0
512 -635 -643 0
-512 635 0
-512 643 0
-513 514 527 0
-513 -514 -527 0
513 -514 527 0
513 514 -527 0
-514 515 516 0
-514 -515 -516 0
514 -515 516 0
514 515 -516 0
515 -634 -644 0
-515 634 0
-515 644 0
-516 517 526 0
-516 -517 -526 0
516 -517 526 0
516 517 -526 0
-517 518 519 0
-517 -518 -519 0
517 -518 519 0
517 518 -519 0
518 -633 -645 0
-518 633 0
-518 645 0
-519 520 525 0
-519 -520 -525 0
519 -520 525 0
519 520 -525 0
-520 521 522 0
-520 -521 -522 0
520 -521 522 0
520 521 -522 0
521 -632 -646 0
-521 632 0
-521 646 0
-522 523 524 0
-522 -523 -524 0
522 -523 524 0
522 523 -524 0
-523 480 482 0
-523 482 483 0
-523 480 483 0
523 -482 -483 0
523 -480 -482 0
523 -480 -483 0
-524 477 479 0
-524 479 484 0
-524 477 484 0
524 -479 -484 0
524 -477 -479 0
524 -477 -484 0
-525 474 476 0
-525 476 485 0
-525 474 485 0
525 -476 -485 0
525 -474 -476 0
525 -474 -485 0
-526 471 473 0
-526 473 486 0
-526 471 486 0
526 -473 -486 0
526 -471 -473 0
526 -471 -486 0
-527 468 470 0
-527 470 487 0
-527 468 487 0
527 -470 -487 0
527 -468 -470 0
527 -468 -487 0
528 -529 530 0
528 529 -530 0
-528 529 530 0
-528 -529 -530 0
-529 489 506 0
-529 489 491 0
-529 491 506 0
529 -491 -506 0
529 -489 -506 0
529 -489 -491 0
-530 531 543 0
-530 -531 -543 0
530 -531 543 0
530 531 -543 0
531 -532 538 0
531 532 -538 0
-531 532 538 0
-531 -532 -538 0
-532 -533 -535 0
-532 533 535 0
532 533 -535 0
532 -533 535 0
-533 -515 -534 0
-533 515 534 0
533 515 -534 0
533 -515 534 0
534 518 -521 0
534 -518 521 0
-534 -518 -521 0
-534 518 521 0
535 -536 537 0
535 536 -537 0
-535 536 537 0
-535 -536 -537 0
-536 501 504 0
-536 504 505 0
-536 501 505 0
536 -501 -505 0
536 -504 -505 0
536 -501 -504 0
-537 642 471 0
-537 635 466 0
-537 466 471 0
-537 642 466 0
-537 635 471 0
537 -466 -471 0
537 -635 -642 -471 0
537 -635 -642 -466 0
-538 -539 -540 0
-538 539 540 0
538 539 -540 0
538 -539 540 0
-539 493 496 0
-539 496 497 0
-539 493 497 0
539 -493 -497 0
539 -496 -497 0
539 -493 -496 0
540 541 -542 0
540 -541 542 0
-540 -541 -542 0
-540 541 542 0
-541 474 480 0
-541 477 480 0
-541 474 477 0
541 -474 -477 0
541 -477 -480 0
541 -474 -480 0
542 510 -512 0
542 -510 512 0
-542 -510 -512 0
-542 510 512 0
-543 492 499 0
-543 499 500 0
-543 492 500 0
543 -499 -500 0
543 -492 -499 0
543 -492 -500 0
-544 545 599 608 615 0
-544 545 -599 -608 615 0
544 -615 0
544 -599 608 0
544 -545 0
544 599 -608 0
-545 546 563 -576 -589 0
-545 -546 -563 -576 -589 0
-545 546 563 576 589 0
-545 -546 -563 576 589 0
545 546 -563 0
545 -546 563 0
545 576 -589 0
545 -576 589 0
546 547 -548 0
546 -547 548 0
-546 -547 -548 0
-546 547 548 0
-547 510 511 0
-547 508 510 0
-547 508 511 0
547 -508 -510 0
547 -510 -511 0
547 -508 -511 0
548 549 -550 0
548 -549 550 0
-548 -549 -550 0
-548 549 550 0
549 -636 -643 0
-549 636 0
-549 643 0
550 -551 552 0
550 551 -552 0
-550 551 552 0
-550 -551 -552 0
551 -635 -644 0
-551 635 0
-551 644 0
-552 553 562 0
-552 -553 -562 0
552 -553 562 0
552 553 -562 0
-553 554 555 0
-553 -554 -555 0
553 -554 555 0
553 554 -555 0
554 -634 -645 0
-554 634 0
-554 645 0
-555 556 561 0
-555 -556 -561 0
555 -556 561 0
555 556 -561 0
-556 557 558 0
-556 -557 -558 0
556 -557 558 0
556 557 -558 0
557 -633 -646 0
-557 633 0
-557 646 0
-558 559 560 0
-558 -559 -560 0
558 -559 560 0
558 559 -560 0
-559 521 523 0
-559 523 524 0
-559 521 524 0
559 -523 -524 0
559 -521 -523 0
559 -521 -524 0
-560 518 520 0
-560 520 525 0
-560 518 525 0
560 -520 -525 0
560 -518 -520 0
560 -518 -525 0
-561 515 517 0
-561 517 526 0
-561 515 526 0
561 -517 -526 0
561 -515 -517 0
561 -515 -526 0
-562 512 514 0
-562 514 527 0
-562 512 527 0
562 -514 -527 0
562 -512 -514 0
562 -512 -527 0
563 -564 565 0
563 564 -565 0
-563 564 565 0
-563 -564 -565 0
-564 529 543 0
-564 529 531 0
-564 531 543 0
564 -531 -543 0
564 -529 -543 0
564 -529 -531 0
-565 566 575 0
-565 -566 -575 0
565 -566 575 0
565 566 -575 0
566 -567 571 0
566 567 -571 0
-566 567 571 0
-566 -567 -571 0
-567 -568 -569 0
-567 568 569 0
567 568 -569 0
567 -568 569 0
-568 512 541 0
-568 510 512 0
-568 510 541 0
568 -510 -512 0
568 -512 -541 0
568 -510 -541 0
569 -549 570 0
569 549 -570 0
-569 549 570 0
-569 -549 -570 0
-570 645 521 0
-570 633 515 0
-570 515 521 0
-570 645 515 0
-570 633 521 0
570 -515 -521 0
570 -633 -645 -521 0
570 -633 -645 -515 0
-571 -572 -573 0
-571 572 573 0
571 572 -573 0
571 -572 573 0
-572 533 536 0
-572 536 537 0
-572 533 537 0
572 -533 -537 0
572 -536 -537 0
572 -533 -536 0
573 551 -574 0
573 -551 574 0
-573 -551 -574 0
-573 551 574 0
574 554 -557 0
574 -554 557 0
-574 -554 -557 0
-574 554 557 0
-575 532 539 0
-575 539 540 0
-575 532 540 0
575 -539 -540 0
575 -532 -539 0
575 -532 -540 0
576 577 -578 0
576 -577 578 0
-576 -577 -578 0
-576 577 578 0
-577 549 550 0
-577 547 549 0
-577 547 550 0
577 -547 -549 0
577 -549 -550 0
577 -547 -550 0
578 579 -580 0
578 -579 580 0
-578 -579 -580 0
-578 579 580 0
579 -636 -644 0
-579 636 0
-579 644 0
580 -581 582 0
580 581 -582 0
-580 581 582 0
-580 -581 -582 0
581 -635 -645 0
-581 635 0
-581 645 0
-582 583 588 0
-582 -583 -588 0
582 -583 588 0
582 583 -588 0
-583 584 585 0
-583 -584 -585 0
583 -584 585 0
583 584 -585 0
584 -634 -646 0
-584 634 0
-584 646 0
-585 586 587 0
-585 -586 -587 0
585 -586 587 0
585 586 -587 0
-586 557 559 0
-586 559 560 0
-586 557 560 0
586 -559 -560 0
586 -557 -559 0
586 -557 -560 0
-587 554 556 0
-587 556 561 0
-587 554 561 0
587 -556 -561 0
587 -554 -556 0
587 -554 -561 0
-588 551 553 0
-588 553 562 0
-588 551 562 0
588 -553 -562 0
588 -551 -553 0
588 -551 -562 0
589 -590 591 0
589 590 -591 0
-589 590 591 0
-589 -590 -591 0
-590 564 575 0
-590 564 566 0
-590 566 575 0
590 -566 -575 0
590 -564 -575 0
590 -564 -566 0
-591 592 598 0
-591 -592 -598 0
591 -592 598 0
591 592 -598 0
592 -593 595 0
592 593 -595 0
-592 593 595 0
-592 -593 -595 0
-593 -579 -594 0
-593 579 594 0
593 579 -594 0
593 -579 594 0
594 581 -584 0
594 -581 584 0
-594 -581 -584 0
-594 581 584 0
-595 596 597 0
-595 -596 -597 0
595 -596 597 0
595 596 -597 0
-596 549 568 0
-596 568 570 0
-596 549 570 0
596 -568 -570 0
596 -549 -568 0
596 -549 -570 0
-597 645 557 0
-597 634 551 0
-597 551 557 0
-597 645 551 0
-597 634 557 0
597 -551 -557 0
597 -634 -645 -557 0
597 -634 -645 -551 0
-598 567 572 0
-598 572 573 0
-598 567 573 0
598 -572 -573 0
598 -567 -572 0
598 -567 -573 0
599 600 -601 0
599 -600 601 0
-599 -600 -601 0
-599 600 601 0
-600 579 580 0
-600 577 579 0
-600 577 580 0
600 -577 -579 0
600 -579 -580 0
600 -577 -580 0
601 602 -603 0
601 -602 603 0
-601 -602 -603 0
-601 602 603 0
602 -636 -645 0
-602 636 0
-602 645 0
603 -604 605 0
603 604 -605 0
-603 604 605 0
-603 -604 -605 0
604 -635 -646 0
-604 635 0
-604 646 0
-605 606 607 0
-605 -606 -607 0
605 -606 607 0
605 606 -607 0
-606 584 586 0
-606 586 587 0
-606 584 587 0
606 -586 -587 0
606 -584 -586 0
606 -584 -587 0
-607 581 583 0
-607 583 588 0
-607 581 588 0
607 -583 -588 0
607 -581 -583 0
607 -581 -588 0
608 -609 610 0
608 609 -610 0
-608 609 610 0
-608 -609 -610 0
-609 590 598 0
-609 590 592 0
-609 592 598 0
609 -592 -598 0
609 -590 -598 0
609 -590 -592 0
-610 611 614 0
-610 -611 -614 0
610 -611 614 0
610 611 -614 0
611 612 -613 0
611 -612 613 0
-611 -612 -613 0
-611 612 613 0
-612 579 584 0
-612 581 584 0
-612 579 581 0
612 -579 -581 0
612 -581 -584 0
612 -579 -584 0
613 602 -604 0
613 -602 604 0
-613 -602 -604 0
-613 602 604 0
-614 593 596 0
-614 596 597 0
-614 593 597 0
614 -593 -597 0
614 -596 -597 0
614 -593 -596 0
-615 616 621 625 626 0
-615 -616 -621 625 626 0
-615 616 621 -625 -626 0
-615 -616 -621 -625 -626 0
615 616 -621 0
615 -616 621 0
615 -625 626 0
615 625 -626 0
616 617 -618 0
616 -617 618 0
-616 -617 -618 0
-616 617 618 0
-617 602 603 0
-617 600 602 0
-617 600 603 0
617 -600 -602 0
617 -602 -603 0
617 -600 -603 0
618 -619 620 0
618 619 -620 0
-618 619 620 0
-618 -619 -620 0
619 -636 -646 0
-619 636 0
-619 646 0
-620 604 606 0
-620 606 607 0
-620 604 607 0
620 -606 -607 0
620 -604 -606 0
620 -604 -607 0
621 -622 623 0
621 622 -623 0
-621 622 623 0
-621 -622 -623 0
-622 609 614 0
-622 609 611 0
-622 611 614 0
622 -611 -614 0
622 -609 -614 0
622 -609 -611 0
-623 619 624 0
-623 -619 -624 0
623 -619 624 0
623 619 -624 0
-624 604 612 0
-624 602 604 0
-624 602 612 0
624 -602 -604 0
624 -604 -612 0
624 -602 -612 0
-625 617 620 0
-625 617 619 0
-625 619 620 0
625 -619 -620 0
625 -617 -620 0
625 -617 -619 0
-626 619 622 0
-626 622 624 0
-626 619 624 0
626 -622 -624 0
626 -619 -622 0
626 -619 -624 0
-647 0
2 0

