c Result of efficient AIG-to-CNF conversion using package CNF
p cnf 60 168
2 36 -48 0
2 -36 48 0
-2 -36 -48 0
-2 36 48 0
3 4 -5 0
3 -4 5 0
-3 -4 -5 0
-3 4 5 0
4 -36 -48 0
-4 36 0
-4 48 0
5 37 -49 0
5 -37 49 0
-5 -37 -49 0
-5 37 49 0
6 -7 8 0
6 7 -8 0
-6 7 8 0
-6 -7 -8 0
7 38 -50 0
7 -38 50 0
-7 -38 -50 0
-7 38 50 0
-8 37 4 0
-8 49 4 0
-8 37 49 0
8 -37 -49 0
8 -49 -4 0
8 -37 -4 0
9 -10 11 0
9 10 -11 0
-9 10 11 0
-9 -10 -11 0
10 39 -51 0
10 -39 51 0
-10 -39 -51 0
-10 39 51 0
-11 50 8 0
-11 38 50 0
-11 38 8 0
11 -38 -50 0
11 -50 -8 0
11 -38 -8 0
12 -13 14 0
12 13 -14 0
-12 13 14 0
-12 -13 -14 0
13 40 -52 0
13 -40 52 0
-13 -40 -52 0
-13 40 52 0
-14 51 11 0
-14 39 51 0
-14 39 11 0
14 -39 -51 0
14 -51 -11 0
14 -39 -11 0
15 -16 17 0
15 16 -17 0
-15 16 17 0
-15 -16 -17 0
16 41 -53 0
16 -41 53 0
-16 -41 -53 0
-16 41 53 0
-17 52 14 0
-17 40 52 0
-17 40 14 0
17 -40 -52 0
17 -52 -14 0
17 -40 -14 0
18 -19 20 0
18 19 -20 0
-18 19 20 0
-18 -19 -20 0
19 42 -54 0
19 -42 54 0
-19 -42 -54 0
-19 42 54 0
-20 53 17 0
-20 41 53 0
-20 41 17 0
20 -41 -53 0
20 -53 -17 0
20 -41 -17 0
21 -22 23 0
21 22 -23 0
-21 22 23 0
-21 -22 -23 0
22 43 -55 0
22 -43 55 0
-22 -43 -55 0
-22 43 55 0
-23 54 20 0
-23 42 54 0
-23 42 20 0
23 -42 -54 0
23 -54 -20 0
23 -42 -20 0
24 -25 26 0
24 25 -26 0
-24 25 26 0
-24 -25 -26 0
25 44 -56 0
25 -44 56 0
-25 -44 -56 0
-25 44 56 0
-26 55 23 0
-26 43 55 0
-26 43 23 0
26 -43 -55 0
26 -55 -23 0
26 -43 -23 0
27 -28 29 0
27 28 -29 0
-27 28 29 0
-27 -28 -29 0
28 45 -57 0
28 -45 57 0
-28 -45 -57 0
-28 45 57 0
-29 56 26 0
-29 44 56 0
-29 44 26 0
29 -44 -56 0
29 -56 -26 0
29 -44 -26 0
30 -31 32 0
30 31 -32 0
-30 31 32 0
-30 -31 -32 0
31 46 -58 0
31 -46 58 0
-31 -46 -58 0
-31 46 58 0
-32 57 29 0
-32 45 57 0
-32 45 29 0
32 -45 -57 0
32 -57 -29 0
32 -45 -29 0
33 -34 35 0
33 34 -35 0
-33 34 35 0
-33 -34 -35 0
34 47 -59 0
34 -47 59 0
-34 -47 -59 0
-34 47 59 0
-35 58 32 0
-35 46 58 0
-35 46 32 0
35 -46 -58 0
35 -58 -32 0
35 -46 -32 0
-60 0
2 0
3 0
6 0
9 0
12 0
15 0
18 0
21 0
24 0
27 0
30 0
33 0

