c Result of efficient AIG-to-CNF conversion using package CNF
p cnf 551 2296
-2 3 33 240 429 0
2 -429 0
2 -3 0
2 -240 0
2 -33 0
-3 4 0
3 -4 0
-4 -5 -24 0
-4 5 24 0
4 5 -24 0
4 -5 24 0
5 6 -7 0
5 -6 7 0
-5 -6 -7 0
-5 6 7 0
6 -536 -542 0
-6 536 0
-6 542 0
7 -8 9 0
7 8 -9 0
-7 8 9 0
-7 -8 -9 0
8 -535 -543 0
-8 535 0
-8 543 0
-9 -10 -19 0
-9 10 19 0
9 10 -19 0
9 -10 19 0
10 -11 -12 0
-10 11 0
-10 12 0
11 -535 -542 0
-11 535 0
-11 542 0
12 -13 14 0
12 13 -14 0
-12 13 14 0
-12 -13 -14 0
13 -534 -543 0
-13 534 0
-13 543 0
-14 -15 -18 0
-14 15 18 0
14 15 -18 0
14 -15 18 0
15 -16 -17 0
-15 16 0
-15 17 0
16 -534 -542 0
-16 534 0
-16 542 0
17 -533 -543 0
-17 533 0
-17 543 0
18 -533 -544 0
-18 533 0
-18 544 0
19 20 -21 0
19 -20 21 0
-19 -20 -21 0
-19 20 21 0
20 -534 -544 0
-20 534 0
-20 544 0
21 -22 23 0
21 22 -23 0
-21 22 23 0
-21 -22 -23 0
22 -533 -545 0
-22 533 0
-22 545 0
-23 15 18 0
-23 13 18 0
-23 15 13 0
23 -15 -13 0
23 -13 -18 0
23 -15 -18 0
24 -25 28 0
24 25 -28 0
-24 25 28 0
-24 -25 -28 0
25 -15 -26 0
-25 15 0
-25 26 0
-26 -11 -27 0
-26 11 27 0
26 11 -27 0
26 -11 27 0
27 13 -18 0
27 -13 18 0
-27 -13 -18 0
-27 13 18 0
-28 29 31 0
-28 -29 -31 0
28 -29 31 0
28 29 -31 0
-29 -8 -30 0
-29 8 30 0
29 8 -30 0
29 -8 30 0
30 20 -22 0
30 -20 22 0
-30 -20 -22 0
-30 20 22 0
-31 6 32 0
-31 -6 -32 0
31 -6 32 0
31 6 -32 0
-32 11 18 0
-32 13 18 0
-32 11 13 0
32 -11 -13 0
32 -13 -18 0
32 -11 -18 0
-33 34 94 117 135 0
-33 34 -94 -117 135 0
33 -135 0
33 -94 117 0
33 -34 0
33 94 -117 0
-34 35 50 -60 -79 0
-34 -35 -50 -60 -79 0
-34 35 50 60 79 0
-34 -35 -50 60 79 0
34 35 -50 0
34 -35 50 0
34 60 -79 0
34 -60 79 0
35 36 -37 0
35 -36 37 0
-35 -36 -37 0
-35 36 37 0
36 -537 -542 0
-36 537 0
-36 542 0
37 -38 39 0
37 38 -39 0
-37 38 39 0
-37 -38 -39 0
38 -536 -543 0
-38 536 0
-38 543 0
-39 40 41 0
-39 -40 -41 0
39 -40 41 0
39 40 -41 0
40 -6 -7 0
-40 6 0
-40 7 0
-41 42 43 0
-41 -42 -43 0
41 -42 43 0
41 42 -43 0
42 -535 -544 0
-42 535 0
-42 544 0
-43 44 49 0
-43 -44 -49 0
43 -44 49 0
43 44 -49 0
-44 -45 -46 0
-44 45 46 0
44 45 -46 0
44 -45 46 0
45 -534 -545 0
-45 534 0
-45 545 0
46 -47 48 0
46 47 -48 0
-46 47 48 0
-46 -47 -48 0
47 -533 -546 0
-47 533 0
-47 546 0
-48 22 23 0
-48 20 22 0
-48 20 23 0
48 -20 -22 0
48 -22 -23 0
48 -20 -23 0
-49 10 19 0
-49 8 19 0
-49 10 8 0
49 -10 -8 0
49 -8 -19 0
49 -10 -19 0
50 -51 52 0
50 51 -52 0
-50 51 52 0
-50 -51 -52 0
51 -25 -28 0
-51 25 0
-51 28 0
-52 53 59 0
-52 -53 -59 0
52 -53 59 0
52 53 -59 0
-53 -54 -55 0
-53 54 55 0
53 54 -55 0
53 -54 55 0
-54 -36 -38 0
-54 36 38 0
54 36 -38 0
54 -36 38 0
55 -56 58 0
55 56 -58 0
-55 56 58 0
-55 -56 -58 0
56 -42 57 0
56 42 -57 0
-56 42 57 0
-56 -42 -57 0
-57 -45 -47 0
-57 45 47 0
57 45 -47 0
57 -45 47 0
-58 8 22 0
-58 20 22 0
-58 8 20 0
58 -8 -20 0
58 -20 -22 0
58 -8 -22 0
-59 6 29 0
-59 29 32 0
-59 6 32 0
59 -29 -32 0
59 -6 -29 0
59 -6 -32 0
60 61 -62 0
60 -61 62 0
-60 -61 -62 0
-60 61 62 0
61 -538 -542 0
-61 538 0
-61 542 0
62 -63 64 0
62 63 -64 0
-62 63 64 0
-62 -63 -64 0
63 -537 -543 0
-63 537 0
-63 543 0
-64 65 66 0
-64 -65 -66 0
64 -65 66 0
64 65 -66 0
65 -36 -37 0
-65 36 0
-65 37 0
-66 67 68 0
-66 -67 -68 0
66 -67 68 0
66 67 -68 0
67 -536 -544 0
-67 536 0
-67 544 0
-68 69 78 0
-68 -69 -78 0
68 -69 78 0
68 69 -78 0
-69 70 71 0
-69 -70 -71 0
69 -70 71 0
69 70 -71 0
70 -535 -545 0
-70 535 0
-70 545 0
-71 72 77 0
-71 -72 -77 0
71 -72 77 0
71 72 -77 0
-72 -73 -74 0
-72 73 74 0
72 73 -74 0
72 -73 74 0
73 -534 -546 0
-73 534 0
-73 546 0
74 -75 76 0
74 75 -76 0
-74 75 76 0
-74 -75 -76 0
75 -533 -547 0
-75 533 0
-75 547 0
-76 47 48 0
-76 45 47 0
-76 45 48 0
76 -45 -47 0
76 -47 -48 0
76 -45 -48 0
-77 42 44 0
-77 44 49 0
-77 42 49 0
77 -44 -49 0
77 -42 -44 0
77 -42 -49 0
-78 38 41 0
-78 40 38 0
-78 40 41 0
78 -40 -38 0
78 -38 -41 0
78 -40 -41 0
79 -80 81 0
79 80 -81 0
-79 80 81 0
-79 -80 -81 0
80 -51 -52 0
-80 51 0
-80 52 0
-81 -82 -93 0
-81 82 93 0
81 82 -93 0
81 -82 93 0
-82 -83 -89 0
-82 83 89 0
82 83 -89 0
82 -83 89 0
-83 -84 -86 0
-83 84 86 0
83 84 -86 0
83 -84 86 0
-84 -70 -85 0
-84 70 85 0
84 70 -85 0
84 -70 85 0
85 73 -75 0
85 -73 75 0
-85 -73 -75 0
-85 73 75 0
86 -87 88 0
86 87 -88 0
-86 87 88 0
-86 -87 -88 0
87 -36 -38 0
-87 36 0
-87 38 0
-88 42 47 0
-88 45 47 0
-88 42 45 0
88 -42 -45 0
88 -45 -47 0
88 -42 -47 0
89 90 -91 0
89 -90 91 0
-89 -90 -91 0
-89 90 91 0
-90 54 58 0
-90 54 56 0
-90 56 58 0
90 -56 -58 0
90 -54 -58 0
90 -54 -56 0
91 61 -92 0
91 -61 92 0
-91 -61 -92 0
-91 61 92 0
92 63 -67 0
92 -63 67 0
-92 -63 -67 0
-92 63 67 0
93 -53 -59 0
-93 53 0
-93 59 0
94 95 -96 0
94 -95 96 0
-94 -95 -96 0
-94 95 96 0
95 -539 -542 0
-95 539 0
-95 542 0
96 -97 98 0
96 97 -98 0
-96 97 98 0
-96 -97 -98 0
97 -538 -543 0
-97 538 0
-97 543 0
-98 99 100 0
-98 -99 -100 0
98 -99 100 0
98 99 -100 0
99 -61 -62 0
-99 61 0
-99 62 0
-100 101 102 0
-100 -101 -102 0
100 -101 102 0
100 101 -102 0
101 -537 -544 0
-101 537 0
-101 544 0
-102 103 116 0
-102 -103 -116 0
102 -103 116 0
102 103 -116 0
-103 104 105 0
-103 -104 -105 0
103 -104 105 0
103 104 -105 0
104 -536 -545 0
-104 536 0
-104 545 0
-105 106 115 0
-105 -106 -115 0
105 -106 115 0
105 106 -115 0
-106 107 108 0
-106 -107 -108 0
106 -107 108 0
106 107 -108 0
107 -535 -546 0
-107 535 0
-107 546 0
-108 109 114 0
-108 -109 -114 0
108 -109 114 0
108 109 -114 0
-109 -110 -111 0
-109 110 111 0
109 110 -111 0
109 -110 111 0
110 -534 -547 0
-110 534 0
-110 547 0
111 -112 113 0
111 112 -113 0
-111 112 113 0
-111 -112 -113 0
112 -533 -548 0
-112 533 0
-112 548 0
-113 75 76 0
-113 73 75 0
-113 73 76 0
113 -73 -75 0
113 -75 -76 0
113 -73 -76 0
-114 70 72 0
-114 72 77 0
-114 70 77 0
114 -72 -77 0
114 -70 -72 0
114 -70 -77 0
-115 67 69 0
-115 69 78 0
-115 67 78 0
115 -69 -78 0
115 -67 -69 0
115 -67 -78 0
-116 63 66 0
-116 65 63 0
-116 65 66 0
116 -65 -63 0
116 -63 -66 0
116 -65 -66 0
117 -118 119 0
117 118 -119 0
-117 118 119 0
-117 -118 -119 0
118 -80 -81 0
-118 80 0
-118 81 0
-119 -120 -134 0
-119 120 134 0
119 120 -134 0
119 -120 134 0
-120 121 133 0
-120 -121 -133 0
120 -121 133 0
120 121 -133 0
-121 -122 -127 0
-121 122 127 0
121 122 -127 0
121 -122 127 0
-122 -123 -125 0
-122 123 125 0
122 123 -125 0
122 -123 125 0
-123 -97 -124 0
-123 97 124 0
123 97 -124 0
123 -97 124 0
124 101 -104 0
124 -101 104 0
-124 -101 -104 0
-124 101 104 0
125 107 -126 0
125 -107 126 0
-125 -107 -126 0
-125 107 126 0
126 110 -112 0
126 -110 112 0
-126 -110 -112 0
-126 110 112 0
127 -128 132 0
127 128 -132 0
-127 128 132 0
-127 -128 -132 0
-128 129 130 0
-128 -129 -130 0
128 -129 130 0
128 129 -130 0
-129 542 67 0
-129 538 63 0
-129 63 67 0
-129 542 63 0
-129 538 67 0
129 -63 -67 0
129 -538 -542 -67 0
129 -538 -542 -63 0
-130 95 131 0
-130 -95 -131 0
130 -95 131 0
130 95 -131 0
-131 547 73 0
-131 533 70 0
-131 70 73 0
-131 547 70 0
-131 533 73 0
131 -70 -73 0
131 -533 -547 -73 0
131 -533 -547 -70 0
-132 84 88 0
-132 84 87 0
-132 87 88 0
132 -87 -88 0
132 -84 -88 0
132 -84 -87 0
-133 83 90 0
-133 90 91 0
-133 83 91 0
133 -90 -91 0
133 -83 -90 0
133 -83 -91 0
134 -82 -93 0
-134 82 0
-134 93 0
-135 136 163 -185 -216 0
-135 -136 -163 -185 -216 0
-135 136 163 185 216 0
-135 -136 -163 185 216 0
135 136 -163 0
135 -136 163 0
135 185 -216 0
135 -185 216 0
136 137 -138 0
136 -137 138 0
-136 -137 -138 0
-136 137 138 0
137 -540 -542 0
-137 540 0
-137 542 0
138 -139 140 0
138 139 -140 0
-138 139 140 0
-138 -139 -140 0
139 -539 -543 0
-139 539 0
-139 543 0
-140 141 142 0
-140 -141 -142 0
140 -141 142 0
140 141 -142 0
141 -95 -96 0
-141 95 0
-141 96 0
-142 143 144 0
-142 -143 -144 0
142 -143 144 0
142 143 -144 0
143 -538 -544 0
-143 538 0
-143 544 0
-144 145 162 0
-144 -145 -162 0
144 -145 162 0
144 145 -162 0
-145 146 147 0
-145 -146 -147 0
145 -146 147 0
145 146 -147 0
146 -537 -545 0
-146 537 0
-146 545 0
-147 148 161 0
-147 -148 -161 0
147 -148 161 0
147 148 -161 0
-148 149 150 0
-148 -149 -150 0
148 -149 150 0
148 149 -150 0
149 -536 -546 0
-149 536 0
-149 546 0
-150 151 160 0
-150 -151 -160 0
150 -151 160 0
150 151 -160 0
-151 152 153 0
-151 -152 -153 0
151 -152 153 0
151 152 -153 0
152 -535 -547 0
-152 535 0
-152 547 0
-153 154 159 0
-153 -154 -159 0
153 -154 159 0
153 154 -159 0
-154 -155 -156 0
-154 155 156 0
154 155 -156 0
154 -155 156 0
155 -534 -548 0
-155 534 0
-155 548 0
156 -157 158 0
156 157 -158 0
-156 157 158 0
-156 -157 -158 0
157 -533 -549 0
-157 533 0
-157 549 0
-158 112 113 0
-158 110 112 0
-158 110 113 0
158 -110 -112 0
158 -112 -113 0
158 -110 -113 0
-159 107 109 0
-159 109 114 0
-159 107 114 0
159 -109 -114 0
159 -107 -109 0
159 -107 -114 0
-160 104 106 0
-160 106 115 0
-160 104 115 0
160 -106 -115 0
160 -104 -106 0
160 -104 -115 0
-161 101 103 0
-161 103 116 0
-161 101 116 0
161 -103 -116 0
161 -101 -103 0
161 -101 -116 0
-162 97 100 0
-162 99 97 0
-162 99 100 0
162 -99 -97 0
162 -97 -100 0
162 -99 -100 0
163 -164 166 0
163 164 -166 0
-163 164 166 0
-163 -164 -166 0
-164 165 0
164 -165 0
-165 120 0
-165 118 134 0
165 -118 -120 0
165 -120 -134 0
-166 -167 -184 0
-166 167 184 0
166 167 -184 0
166 -167 184 0
-167 168 178 0
-167 -168 -178 0
167 -168 178 0
167 168 -178 0
-168 -169 -175 0
-168 169 175 0
168 169 -175 0
168 -169 175 0
-169 -170 -172 0
-169 170 172 0
169 170 -172 0
169 -170 172 0
-170 -152 -171 0
-170 152 171 0
170 152 -171 0
170 -152 171 0
171 155 -157 0
171 -155 157 0
-171 -155 -157 0
-171 155 157 0
172 -173 174 0
172 173 -174 0
-172 173 174 0
-172 -173 -174 0
-173 544 104 0
-173 537 97 0
-173 97 104 0
-173 544 97 0
-173 537 104 0
173 -97 -104 0
173 -537 -544 -104 0
173 -537 -544 -97 0
-174 107 112 0
-174 110 112 0
-174 107 110 0
174 -107 -110 0
174 -110 -112 0
174 -107 -112 0
175 -176 177 0
175 176 -177 0
-175 176 177 0
-175 -176 -177 0
176 -123 -125 0
-176 123 0
-176 125 0
-177 95 129 0
-177 129 131 0
-177 95 131 0
177 -129 -131 0
177 -95 -129 0
177 -95 -131 0
-178 -179 -180 0
-178 179 180 0
178 179 -180 0
178 -179 180 0
-179 122 128 0
-179 128 132 0
-179 122 132 0
179 -122 -132 0
179 -128 -132 0
179 -122 -128 0
180 -181 182 0
180 181 -182 0
-180 181 182 0
-180 -181 -182 0
181 137 -139 0
181 -137 139 0
-181 -137 -139 0
-181 137 139 0
-182 -143 -183 0
-182 143 183 0
182 143 -183 0
182 -143 183 0
183 146 -149 0
183 -146 149 0
-183 -146 -149 0
-183 146 149 0
184 -121 -133 0
-184 121 0
-184 133 0
185 186 -187 0
185 -186 187 0
-185 -186 -187 0
-185 186 187 0
186 -541 -542 0
-186 541 0
-186 542 0
187 188 -189 0
187 -188 189 0
-187 -188 -189 0
-187 188 189 0
188 -540 -543 0
-188 540 0
-188 543 0
189 190 -191 0
189 -190 191 0
-189 -190 -191 0
-189 190 191 0
190 -137 -138 0
-190 137 0
-190 138 0
191 -192 193 0
191 192 -193 0
-191 192 193 0
-191 -192 -193 0
192 -539 -544 0
-192 539 0
-192 544 0
-193 194 215 0
-193 -194 -215 0
193 -194 215 0
193 194 -215 0
-194 195 196 0
-194 -195 -196 0
194 -195 196 0
194 195 -196 0
195 -538 -545 0
-195 538 0
-195 545 0
-196 197 214 0
-196 -197 -214 0
196 -197 214 0
196 197 -214 0
-197 198 199 0
-197 -198 -199 0
197 -198 199 0
197 198 -199 0
198 -537 -546 0
-198 537 0
-198 546 0
-199 200 213 0
-199 -200 -213 0
199 -200 213 0
199 200 -213 0
-200 201 202 0
-200 -201 -202 0
200 -201 202 0
200 201 -202 0
201 -536 -547 0
-201 536 0
-201 547 0
-202 203 212 0
-202 -203 -212 0
202 -203 212 0
202 203 -212 0
-203 204 205 0
-203 -204 -205 0
203 -204 205 0
203 204 -205 0
204 -535 -548 0
-204 535 0
-204 548 0
-205 206 211 0
-205 -206 -211 0
205 -206 211 0
205 206 -211 0
-206 -207 -208 0
-206 207 208 0
206 207 -208 0
206 -207 208 0
207 -534 -549 0
-207 534 0
-207 549 0
208 -209 210 0
208 209 -210 0
-208 209 210 0
-208 -209 -210 0
209 -533 -550 0
-209 533 0
-209 550 0
-210 157 158 0
-210 155 157 0
-210 155 158 0
210 -155 -157 0
210 -157 -158 0
210 -155 -158 0
-211 152 154 0
-211 154 159 0
-211 152 159 0
211 -154 -159 0
211 -152 -154 0
211 -152 -159 0
-212 149 151 0
-212 151 160 0
-212 149 160 0
212 -151 -160 0
212 -149 -151 0
212 -149 -160 0
-213 146 148 0
-213 148 161 0
-213 146 161 0
213 -148 -161 0
213 -146 -148 0
213 -146 -161 0
-214 143 145 0
-214 145 162 0
-214 143 162 0
214 -145 -162 0
214 -143 -145 0
214 -143 -162 0
-215 139 142 0
-215 141 139 0
-215 141 142 0
215 -141 -139 0
215 -139 -142 0
215 -141 -142 0
216 -217 218 0
216 217 -218 0
-216 217 218 0
-216 -217 -218 0
-217 164 167 0
-217 167 184 0
-217 164 184 0
217 -167 -184 0
217 -164 -167 0
217 -164 -184 0
-218 219 239 0
-218 -219 -239 0
218 -219 239 0
218 219 -239 0
219 -220 229 0
219 220 -229 0
-219 220 229 0
-219 -220 -229 0
-220 -221 -226 0
-220 221 226 0
220 221 -226 0
220 -221 226 0
-221 222 223 0
-221 -222 -223 0
221 -222 223 0
221 222 -223 0
222 -137 -139 0
-222 137 0
-222 139 0
-223 224 225 0
-223 -224 -225 0
223 -224 225 0
223 224 -225 0
-224 143 149 0
-224 146 149 0
-224 143 146 0
224 -143 -146 0
224 -146 -149 0
224 -143 -149 0
-225 152 157 0
-225 155 157 0
-225 152 155 0
225 -152 -155 0
225 -155 -157 0
225 -152 -157 0
226 -227 228 0
226 227 -228 0
-226 227 228 0
-226 -227 -228 0
227 -181 -182 0
-227 181 0
-227 182 0
-228 170 173 0
-228 173 174 0
-228 170 174 0
228 -170 -174 0
228 -173 -174 0
228 -170 -173 0
-229 -230 -231 0
-229 230 231 0
229 230 -231 0
229 -230 231 0
-230 169 177 0
-230 169 176 0
-230 176 177 0
230 -176 -177 0
230 -169 -177 0
230 -169 -176 0
231 232 -234 0
231 -232 234 0
-231 -232 -234 0
-231 232 234 0
-232 -186 -233 0
-232 186 233 0
232 186 -233 0
232 -186 233 0
233 188 -192 0
233 -188 192 0
-233 -188 -192 0
-233 188 192 0
234 -235 237 0
234 235 -237 0
-234 235 237 0
-234 -235 -237 0
-235 -195 -236 0
-235 195 236 0
235 195 -236 0
235 -195 236 0
236 198 -201 0
236 -198 201 0
-236 -198 -201 0
-236 198 201 0
-237 -204 -238 0
-237 204 238 0
237 204 -238 0
237 -204 238 0
238 207 -209 0
238 -207 209 0
-238 -207 -209 0
-238 207 209 0
-239 168 179 0
-239 179 180 0
-239 168 180 0
239 -179 -180 0
239 -168 -179 0
239 -168 -180 0
-240 241 347 -392 -413 0
-240 241 347 392 413 0
240 -347 0
240 392 -413 0
240 -241 0
240 -392 413 0
-241 242 273 -296 -325 0
-241 -242 -273 -296 -325 0
-241 242 273 296 325 0
-241 -242 -273 296 325 0
241 242 -273 0
241 -242 273 0
241 296 -325 0
241 -296 325 0
242 -243 244 0
242 243 -244 0
-242 243 244 0
-242 -243 -244 0
243 -541 -543 0
-243 541 0
-243 543 0
-244 245 246 0
-244 -245 -246 0
244 -245 246 0
244 245 -246 0
245 -540 -544 0
-245 540 0
-245 544 0
-246 247 248 0
-246 -247 -248 0
246 -247 248 0
246 247 -248 0
247 -186 -187 0
-247 186 0
-247 187 0
-248 249 250 0
-248 -249 -250 0
248 -249 250 0
248 249 -250 0
249 -539 -545 0
-249 539 0
-249 545 0
-250 251 272 0
-250 -251 -272 0
250 -251 272 0
250 251 -272 0
-251 252 253 0
-251 -252 -253 0
251 -252 253 0
251 252 -253 0
252 -538 -546 0
-252 538 0
-252 546 0
-253 254 271 0
-253 -254 -271 0
253 -254 271 0
253 254 -271 0
-254 255 256 0
-254 -255 -256 0
254 -255 256 0
254 255 -256 0
255 -537 -547 0
-255 537 0
-255 547 0
-256 257 270 0
-256 -257 -270 0
256 -257 270 0
256 257 -270 0
-257 258 259 0
-257 -258 -259 0
257 -258 259 0
257 258 -259 0
258 -536 -548 0
-258 536 0
-258 548 0
-259 260 269 0
-259 -260 -269 0
259 -260 269 0
259 260 -269 0
-260 261 262 0
-260 -261 -262 0
260 -261 262 0
260 261 -262 0
261 -535 -549 0
-261 535 0
-261 549 0
-262 263 268 0
-262 -263 -268 0
262 -263 268 0
262 263 -268 0
-263 264 265 0
-263 -264 -265 0
263 -264 265 0
263 264 -265 0
264 -534 -550 0
-264 534 0
-264 550 0
-265 266 267 0
-265 -266 -267 0
265 -266 267 0
265 266 -267 0
-266 209 210 0
-266 207 209 0
-266 207 210 0
266 -207 -209 0
266 -209 -210 0
266 -207 -210 0
-267 204 206 0
-267 206 211 0
-267 204 211 0
267 -206 -211 0
267 -204 -206 0
267 -204 -211 0
-268 201 203 0
-268 203 212 0
-268 201 212 0
268 -203 -212 0
268 -201 -203 0
268 -201 -212 0
-269 198 200 0
-269 200 213 0
-269 198 213 0
269 -200 -213 0
269 -198 -200 0
269 -198 -213 0
-270 195 197 0
-270 197 214 0
-270 195 214 0
270 -197 -214 0
270 -195 -197 0
270 -195 -214 0
-271 192 194 0
-271 194 215 0
-271 192 215 0
271 -194 -215 0
271 -192 -194 0
271 -192 -215 0
-272 190 191 0
-272 188 191 0
-272 190 188 0
272 -190 -188 0
272 -188 -191 0
272 -190 -191 0
273 -274 275 0
273 274 -275 0
-273 274 275 0
-273 -274 -275 0
-274 217 239 0
-274 217 219 0
-274 219 239 0
274 -219 -239 0
274 -217 -239 0
274 -217 -219 0
-275 276 295 0
-275 -276 -295 0
275 -276 295 0
275 276 -295 0
276 -277 286 0
276 277 -286 0
-276 277 286 0
-276 -277 -286 0
-277 -278 -283 0
-277 278 283 0
277 278 -283 0
277 -278 283 0
-278 -279 -280 0
-278 279 280 0
278 279 -280 0
278 -279 280 0
-279 186 192 0
-279 188 192 0
-279 186 188 0
279 -186 -188 0
279 -188 -192 0
279 -186 -192 0
280 -281 282 0
280 281 -282 0
-280 281 282 0
-280 -281 -282 0
-281 546 201 0
-281 537 195 0
-281 195 201 0
-281 546 195 0
-281 537 201 0
281 -195 -201 0
281 -537 -546 -201 0
281 -537 -546 -195 0
-282 204 209 0
-282 207 209 0
-282 204 207 0
282 -204 -207 0
282 -207 -209 0
282 -204 -209 0
283 -284 285 0
283 284 -285 0
-283 284 285 0
-283 -284 -285 0
-284 232 235 0
-284 235 237 0
-284 232 237 0
284 -232 -237 0
284 -235 -237 0
284 -232 -235 0
-285 222 224 0
-285 224 225 0
-285 222 225 0
285 -224 -225 0
285 -222 -224 0
285 -222 -225 0
-286 -287 -288 0
-286 287 288 0
286 287 -288 0
286 -287 288 0
-287 227 221 0
-287 221 228 0
-287 227 228 0
287 -221 -228 0
287 -227 -221 0
287 -227 -228 0
288 289 -290 0
288 -289 290 0
-288 -289 -290 0
-288 289 290 0
289 243 -245 0
289 -243 245 0
-289 -243 -245 0
-289 243 245 0
290 -291 293 0
290 291 -293 0
-290 291 293 0
-290 -291 -293 0
-291 -249 -292 0
-291 249 292 0
291 249 -292 0
291 -249 292 0
292 252 -255 0
292 -252 255 0
-292 -252 -255 0
-292 252 255 0
-293 -258 -294 0
-293 258 294 0
293 258 -294 0
293 -258 294 0
294 261 -264 0
294 -261 264 0
-294 -261 -264 0
-294 261 264 0
-295 220 230 0
-295 230 231 0
-295 220 231 0
295 -230 -231 0
295 -220 -230 0
295 -220 -231 0
296 297 -298 0
296 -297 298 0
-296 -297 -298 0
-296 297 298 0
297 -243 -244 0
-297 243 0
-297 244 0
298 299 -300 0
298 -299 300 0
-298 -299 -300 0
-298 299 300 0
299 -541 -544 0
-299 541 0
-299 544 0
300 -301 302 0
300 301 -302 0
-300 301 302 0
-300 -301 -302 0
301 -540 -545 0
-301 540 0
-301 545 0
-302 303 324 0
-302 -303 -324 0
302 -303 324 0
302 303 -324 0
-303 304 305 0
-303 -304 -305 0
303 -304 305 0
303 304 -305 0
304 -539 -546 0
-304 539 0
-304 546 0
-305 306 323 0
-305 -306 -323 0
305 -306 323 0
305 306 -323 0
-306 307 308 0
-306 -307 -308 0
306 -307 308 0
306 307 -308 0
307 -538 -547 0
-307 538 0
-307 547 0
-308 309 322 0
-308 -309 -322 0
308 -309 322 0
308 309 -322 0
-309 310 311 0
-309 -310 -311 0
309 -310 311 0
309 310 -311 0
310 -537 -548 0
-310 537 0
-310 548 0
-311 312 321 0
-311 -312 -321 0
311 -312 321 0
311 312 -321 0
-312 313 314 0
-312 -313 -314 0
312 -313 314 0
312 313 -314 0
313 -536 -549 0
-313 536 0
-313 549 0
-314 315 320 0
-314 -315 -320 0
314 -315 320 0
314 315 -320 0
-315 316 317 0
-315 -316 -317 0
315 -316 317 0
315 316 -317 0
316 -535 -550 0
-316 535 0
-316 550 0
-317 318 319 0
-317 -318 -319 0
317 -318 319 0
317 318 -319 0
-318 264 266 0
-318 266 267 0
-318 264 267 0
318 -266 -267 0
318 -264 -266 0
318 -264 -267 0
-319 261 263 0
-319 263 268 0
-319 261 268 0
319 -263 -268 0
319 -261 -263 0
319 -261 -268 0
-320 258 260 0
-320 260 269 0
-320 258 269 0
320 -260 -269 0
320 -258 -260 0
320 -258 -269 0
-321 255 257 0
-321 257 270 0
-321 255 270 0
321 -257 -270 0
321 -255 -257 0
321 -255 -270 0
-322 252 254 0
-322 254 271 0
-322 252 271 0
322 -254 -271 0
322 -252 -254 0
322 -252 -271 0
-323 249 251 0
-323 251 272 0
-323 249 272 0
323 -251 -272 0
323 -249 -251 0
323 -249 -272 0
-324 245 248 0
-324 247 245 0
-324 247 248 0
324 -247 -245 0
324 -245 -248 0
324 -247 -248 0
325 -326 327 0
325 326 -327 0
-325 326 327 0
-325 -326 -327 0
-326 274 295 0
-326 274 276 0
-326 276 295 0
326 -276 -295 0
326 -274 -295 0
326 -274 -276 0
-327 328 346 0
-327 -328 -346 0
327 -328 346 0
327 328 -346 0
328 -329 337 0
328 329 -337 0
-328 329 337 0
-328 -329 -337 0
-329 -330 -334 0
-329 330 334 0
329 330 -334 0
329 -330 334 0
-330 -331 -332 0
-330 331 332 0
330 331 -332 0
330 -331 332 0
-331 546 255 0
-331 538 249 0
-331 249 255 0
-331 546 249 0
-331 538 255 0
331 -249 -255 0
331 -538 -546 -255 0
331 -538 -546 -249 0
332 -299 333 0
332 299 -333 0
-332 299 333 0
-332 -299 -333 0
-333 258 264 0
-333 261 264 0
-333 258 261 0
333 -258 -261 0
333 -261 -264 0
333 -258 -264 0
334 -335 336 0
334 335 -336 0
-334 335 336 0
-334 -335 -336 0
-335 289 291 0
-335 291 293 0
-335 289 293 0
335 -291 -293 0
335 -289 -291 0
335 -289 -293 0
-336 279 281 0
-336 281 282 0
-336 279 282 0
336 -279 -282 0
336 -281 -282 0
336 -279 -281 0
-337 -338 -339 0
-337 338 339 0
337 338 -339 0
337 -338 339 0
-338 278 284 0
-338 284 285 0
-338 278 285 0
338 -278 -285 0
338 -284 -285 0
338 -278 -284 0
339 -340 342 0
339 340 -342 0
-339 340 342 0
-339 -340 -342 0
-340 -301 -341 0
-340 301 341 0
340 301 -341 0
340 -301 341 0
341 304 -307 0
341 -304 307 0
-341 -304 -307 0
-341 304 307 0
-342 343 344 0
-342 -343 -344 0
342 -343 344 0
342 343 -344 0
343 -243 -245 0
-343 243 0
-343 245 0
-344 -310 -345 0
-344 310 345 0
344 310 -345 0
344 -310 345 0
345 313 -316 0
345 -313 316 0
-345 -313 -316 0
-345 313 316 0
-346 277 287 0
-346 287 288 0
-346 277 288 0
346 -287 -288 0
346 -277 -287 0
346 -277 -288 0
-347 -348 -373 0
-347 348 373 0
347 348 -373 0
347 -348 373 0
348 349 -350 0
348 -349 350 0
-348 -349 -350 0
-348 349 350 0
-349 297 300 0
-349 299 300 0
-349 297 299 0
349 -297 -299 0
349 -299 -300 0
349 -297 -300 0
350 351 -352 0
350 -351 352 0
-350 -351 -352 0
-350 351 352 0
351 -541 -545 0
-351 541 0
-351 545 0
352 -353 354 0
352 353 -354 0
-352 353 354 0
-352 -353 -354 0
353 -540 -546 0
-353 540 0
-353 546 0
-354 355 372 0
-354 -355 -372 0
354 -355 372 0
354 355 -372 0
-355 356 357 0
-355 -356 -357 0
355 -356 357 0
355 356 -357 0
356 -539 -547 0
-356 539 0
-356 547 0
-357 358 371 0
-357 -358 -371 0
357 -358 371 0
357 358 -371 0
-358 359 360 0
-358 -359 -360 0
358 -359 360 0
358 359 -360 0
359 -538 -548 0
-359 538 0
-359 548 0
-360 361 370 0
-360 -361 -370 0
360 -361 370 0
360 361 -370 0
-361 362 363 0
-361 -362 -363 0
361 -362 363 0
361 362 -363 0
362 -537 -549 0
-362 537 0
-362 549 0
-363 364 369 0
-363 -364 -369 0
363 -364 369 0
363 364 -369 0
-364 365 366 0
-364 -365 -366 0
364 -365 366 0
364 365 -366 0
365 -536 -550 0
-365 536 0
-365 550 0
-366 367 368 0
-366 -367 -368 0
366 -367 368 0
366 367 -368 0
-367 316 318 0
-367 318 319 0
-367 316 319 0
367 -318 -319 0
367 -316 -318 0
367 -316 -319 0
-368 313 315 0
-368 315 320 0
-368 313 320 0
368 -315 -320 0
368 -313 -315 0
368 -313 -320 0
-369 310 312 0
-369 312 321 0
-369 310 321 0
369 -312 -321 0
369 -310 -312 0
369 -310 -321 0
-370 307 309 0
-370 309 322 0
-370 307 322 0
370 -309 -322 0
370 -307 -309 0
370 -307 -322 0
-371 304 306 0
-371 306 323 0
-371 304 323 0
371 -306 -323 0
371 -304 -306 0
371 -304 -323 0
-372 301 303 0
-372 303 324 0
-372 301 324 0
372 -303 -324 0
372 -301 -303 0
372 -301 -324 0
373 -374 375 0
373 374 -375 0
-373 374 375 0
-373 -374 -375 0
-374 326 346 0
-374 326 328 0
-374 328 346 0
374 -328 -346 0
374 -326 -346 0
374 -326 -328 0
-375 376 391 0
-375 -376 -391 0
375 -376 391 0
375 376 -391 0
376 -377 383 0
376 377 -383 0
-376 377 383 0
-376 -377 -383 0
-377 -378 -379 0
-377 378 379 0
377 378 -379 0
377 -378 379 0
-378 343 340 0
-378 340 344 0
-378 343 344 0
378 -340 -344 0
378 -343 -340 0
378 -343 -344 0
379 -380 381 0
379 380 -381 0
-379 380 381 0
-379 -380 -381 0
-380 299 331 0
-380 331 333 0
-380 299 333 0
380 -331 -333 0
380 -299 -331 0
380 -299 -333 0
-381 -351 -382 0
-381 351 382 0
381 351 -382 0
381 -351 382 0
382 353 -356 0
382 -353 356 0
-382 -353 -356 0
-382 353 356 0
-383 -384 -385 0
-383 384 385 0
383 384 -385 0
383 -384 385 0
-384 330 335 0
-384 335 336 0
-384 330 336 0
384 -330 -336 0
384 -335 -336 0
384 -330 -335 0
385 -386 388 0
385 386 -388 0
-385 386 388 0
-385 -386 -388 0
-386 -359 -387 0
-386 359 387 0
386 359 -387 0
386 -359 387 0
387 362 -365 0
387 -362 365 0
-387 -362 -365 0
-387 362 365 0
-388 389 390 0
-388 -389 -390 0
388 -389 390 0
388 389 -390 0
-389 546 307 0
-389 539 301 0
-389 301 307 0
-389 546 301 0
-389 539 307 0
389 -301 -307 0
389 -539 -546 -307 0
389 -539 -546 -301 0
-390 549 316 0
-390 536 310 0
-390 310 316 0
-390 549 310 0
-390 536 316 0
390 -310 -316 0
390 -536 -549 -316 0
390 -536 -549 -310 0
-391 329 338 0
-391 338 339 0
-391 329 339 0
391 -338 -339 0
391 -329 -338 0
391 -329 -339 0
392 393 -394 0
392 -393 394 0
-392 -393 -394 0
-392 393 394 0
-393 351 352 0
-393 349 351 0
-393 349 352 0
393 -349 -351 0
393 -351 -352 0
393 -349 -352 0
394 395 -396 0
394 -395 396 0
-394 -395 -396 0
-394 395 396 0
395 -541 -546 0
-395 541 0
-395 546 0
396 -397 398 0
396 397 -398 0
-396 397 398 0
-396 -397 -398 0
397 -540 -547 0
-397 540 0
-397 547 0
-398 399 412 0
-398 -399 -412 0
398 -399 412 0
398 399 -412 0
-399 400 401 0
-399 -400 -401 0
399 -400 401 0
399 400 -401 0
400 -539 -548 0
-400 539 0
-400 548 0
-401 402 411 0
-401 -402 -411 0
401 -402 411 0
401 402 -411 0
-402 403 404 0
-402 -403 -404 0
402 -403 404 0
402 403 -404 0
403 -538 -549 0
-403 538 0
-403 549 0
-404 405 410 0
-404 -405 -410 0
404 -405 410 0
404 405 -410 0
-405 406 407 0
-405 -406 -407 0
405 -406 407 0
405 406 -407 0
406 -537 -550 0
-406 537 0
-406 550 0
-407 408 409 0
-407 -408 -409 0
407 -408 409 0
407 408 -409 0
-408 365 367 0
-408 367 368 0
-408 365 368 0
408 -367 -368 0
408 -365 -367 0
408 -365 -368 0
-409 362 364 0
-409 364 369 0
-409 362 369 0
409 -364 -369 0
409 -362 -364 0
409 -362 -369 0
-410 359 361 0
-410 361 370 0
-410 359 370 0
410 -361 -370 0
410 -359 -361 0
410 -359 -370 0
-411 356 358 0
-411 358 371 0
-411 356 371 0
411 -358 -371 0
411 -356 -358 0
411 -356 -371 0
-412 353 355 0
-412 355 372 0
-412 353 372 0
412 -355 -372 0
412 -353 -355 0
412 -353 -372 0
413 -414 415 0
413 414 -415 0
-413 414 415 0
-413 -414 -415 0
-414 374 391 0
-414 374 376 0
-414 376 391 0
414 -376 -391 0
414 -374 -391 0
414 -374 -376 0
-415 416 428 0
-415 -416 -428 0
415 -416 428 0
415 416 -428 0
416 -417 427 0
416 417 -427 0
-416 417 427 0
-416 -417 -427 0
-417 -418 -424 0
-417 418 424 0
417 418 -424 0
417 -418 424 0
-418 -419 -421 0
-418 419 421 0
418 419 -421 0
418 -419 421 0
-419 -400 -420 0
-419 400 420 0
419 400 -420 0
419 -400 420 0
420 403 -406 0
420 -403 406 0
-420 -403 -406 0
-420 403 406 0
421 -422 423 0
421 422 -423 0
-421 422 423 0
-421 -422 -423 0
-422 546 356 0
-422 540 351 0
-422 351 356 0
-422 546 351 0
-422 540 356 0
422 -351 -356 0
422 -540 -546 -356 0
422 -540 -546 -351 0
-423 549 365 0
-423 537 359 0
-423 359 365 0
-423 549 359 0
-423 537 365 0
423 -359 -365 0
423 -537 -549 -365 0
423 -537 -549 -359 0
424 425 -426 0
424 -425 426 0
-424 -425 -426 0
-424 425 426 0
-425 386 389 0
-425 389 390 0
-425 386 390 0
425 -386 -390 0
425 -389 -390 0
425 -386 -389 0
426 395 -397 0
426 -395 397 0
-426 -395 -397 0
-426 395 397 0
-427 378 380 0
-427 380 381 0
-427 378 381 0
427 -378 -381 0
427 -380 -381 0
427 -378 -380 0
-428 377 384 0
-428 384 385 0
-428 377 385 0
428 -384 -385 0
428 -377 -384 0
428 -377 -385 0
-429 430 488 497 508 0
-429 430 -488 -497 508 0
429 -508 0
429 -488 497 0
429 -430 0
429 488 -497 0
-430 431 448 -463 -476 0
-430 -431 -448 -463 -476 0
-430 431 448 463 476 0
-430 -431 -448 463 476 0
430 431 -448 0
430 -431 448 0
430 463 -476 0
430 -463 476 0
431 432 -433 0
431 -432 433 0
-431 -432 -433 0
-431 432 433 0
-432 395 396 0
-432 393 395 0
-432 393 396 0
432 -393 -395 0
432 -395 -396 0
432 -393 -396 0
433 434 -435 0
433 -434 435 0
-433 -434 -435 0
-433 434 435 0
434 -541 -547 0
-434 541 0
-434 547 0
435 -436 437 0
435 436 -437 0
-435 436 437 0
-435 -436 -437 0
436 -540 -548 0
-436 540 0
-436 548 0
-437 438 447 0
-437 -438 -447 0
437 -438 447 0
437 438 -447 0
-438 439 440 0
-438 -439 -440 0
438 -439 440 0
438 439 -440 0
439 -539 -549 0
-439 539 0
-439 549 0
-440 441 446 0
-440 -441 -446 0
440 -441 446 0
440 441 -446 0
-441 442 443 0
-441 -442 -443 0
441 -442 443 0
441 442 -443 0
442 -538 -550 0
-442 538 0
-442 550 0
-443 444 445 0
-443 -444 -445 0
443 -444 445 0
443 444 -445 0
-444 406 408 0
-444 408 409 0
-444 406 409 0
444 -408 -409 0
444 -406 -408 0
444 -406 -409 0
-445 403 405 0
-445 405 410 0
-445 403 410 0
445 -405 -410 0
445 -403 -405 0
445 -403 -410 0
-446 400 402 0
-446 402 411 0
-446 400 411 0
446 -402 -411 0
446 -400 -402 0
446 -400 -411 0
-447 397 399 0
-447 399 412 0
-447 397 412 0
447 -399 -412 0
447 -397 -399 0
447 -397 -412 0
448 -449 450 0
448 449 -450 0
-448 449 450 0
-448 -449 -450 0
-449 414 428 0
-449 414 416 0
-449 416 428 0
449 -416 -428 0
449 -414 -428 0
449 -414 -416 0
-450 -451 -452 0
-450 451 452 0
450 451 -452 0
450 -451 452 0
451 -417 -427 0
-451 417 0
-451 427 0
452 -453 462 0
452 453 -462 0
-452 453 462 0
-452 -453 -462 0
-453 -454 -458 0
-453 454 458 0
453 454 -458 0
453 -454 458 0
-454 455 456 0
-454 -455 -456 0
454 -455 456 0
454 455 -456 0
455 -395 -397 0
-455 395 0
-455 397 0
-456 434 457 0
-456 -434 -457 0
456 -434 457 0
456 434 -457 0
-457 400 406 0
-457 403 406 0
-457 400 403 0
457 -400 -403 0
457 -403 -406 0
457 -400 -406 0
458 -459 460 0
458 459 -460 0
-458 459 460 0
-458 -459 -460 0
-459 419 422 0
-459 422 423 0
-459 419 423 0
459 -419 -423 0
459 -422 -423 0
459 -419 -422 0
-460 -436 -461 0
-460 436 461 0
460 436 -461 0
460 -436 461 0
461 439 -442 0
461 -439 442 0
-461 -439 -442 0
-461 439 442 0
-462 418 425 0
-462 425 426 0
-462 418 426 0
462 -425 -426 0
462 -418 -425 0
462 -418 -426 0
463 464 -465 0
463 -464 465 0
-463 -464 -465 0
-463 464 465 0
-464 434 435 0
-464 432 434 0
-464 432 435 0
464 -432 -434 0
464 -434 -435 0
464 -432 -435 0
465 466 -467 0
465 -466 467 0
-465 -466 -467 0
-465 466 467 0
466 -541 -548 0
-466 541 0
-466 548 0
467 -468 469 0
467 468 -469 0
-467 468 469 0
-467 -468 -469 0
468 -540 -549 0
-468 540 0
-468 549 0
-469 470 475 0
-469 -470 -475 0
469 -470 475 0
469 470 -475 0
-470 471 472 0
-470 -471 -472 0
470 -471 472 0
470 471 -472 0
471 -539 -550 0
-471 539 0
-471 550 0
-472 473 474 0
-472 -473 -474 0
472 -473 474 0
472 473 -474 0
-473 442 444 0
-473 444 445 0
-473 442 445 0
473 -444 -445 0
473 -442 -444 0
473 -442 -445 0
-474 439 441 0
-474 441 446 0
-474 439 446 0
474 -441 -446 0
474 -439 -441 0
474 -439 -446 0
-475 436 438 0
-475 438 447 0
-475 436 447 0
475 -438 -447 0
475 -436 -438 0
475 -436 -447 0
476 -477 478 0
476 477 -478 0
-476 477 478 0
-476 -477 -478 0
-477 449 452 0
-477 451 452 0
-477 451 449 0
477 -451 -452 0
477 -451 -449 0
477 -449 -452 0
-478 -479 -480 0
-478 479 480 0
478 479 -480 0
478 -479 480 0
479 -453 -462 0
-479 453 0
-479 462 0
480 -481 487 0
480 481 -487 0
-480 481 487 0
-480 -481 -487 0
-481 482 486 0
-481 -482 -486 0
481 -482 486 0
481 482 -486 0
-482 483 485 0
-482 -483 -485 0
482 -483 485 0
482 483 -485 0
-483 -466 -484 0
-483 466 484 0
483 466 -484 0
483 -466 484 0
484 468 -471 0
484 -468 471 0
-484 -468 -471 0
-484 468 471 0
-485 549 442 0
-485 539 436 0
-485 436 442 0
-485 549 436 0
-485 539 442 0
485 -436 -442 0
485 -539 -549 -442 0
485 -539 -549 -436 0
-486 434 457 0
-486 455 434 0
-486 455 457 0
486 -455 -434 0
486 -434 -457 0
486 -455 -457 0
-487 454 459 0
-487 459 460 0
-487 454 460 0
487 -454 -460 0
487 -459 -460 0
487 -454 -459 0
488 489 -490 0
488 -489 490 0
-488 -489 -490 0
-488 489 490 0
-489 466 467 0
-489 464 466 0
-489 464 467 0
489 -464 -466 0
489 -466 -467 0
489 -464 -467 0
490 491 -492 0
490 -491 492 0
-490 -491 -492 0
-490 491 492 0
491 -541 -549 0
-491 541 0
-491 549 0
492 -493 494 0
492 493 -494 0
-492 493 494 0
-492 -493 -494 0
493 -540 -550 0
-493 540 0
-493 550 0
-494 495 496 0
-494 -495 -496 0
494 -495 496 0
494 495 -496 0
-495 471 473 0
-495 473 474 0
-495 471 474 0
495 -473 -474 0
495 -471 -473 0
495 -471 -474 0
-496 468 470 0
-496 470 475 0
-496 468 475 0
496 -470 -475 0
496 -468 -470 0
496 -468 -475 0
497 -498 499 0
497 498 -499 0
-497 498 499 0
-497 -498 -499 0
-498 477 480 0
-498 479 480 0
-498 479 477 0
498 -479 -480 0
498 -479 -477 0
498 -477 -480 0
-499 500 501 0
-499 -500 -501 0
499 -500 501 0
499 500 -501 0
500 -481 -487 0
-500 481 0
-500 487 0
-501 -502 -507 0
-501 502 507 0
501 502 -507 0
501 -502 507 0
-502 -503 -506 0
-502 503 506 0
502 503 -506 0
502 -503 506 0
-503 504 505 0
-503 -504 -505 0
503 -504 505 0
503 504 -505 0
504 491 -493 0
504 -491 493 0
-504 -491 -493 0
-504 491 493 0
-505 466 471 0
-505 468 471 0
-505 466 468 0
505 -466 -468 0
505 -468 -471 0
505 -466 -471 0
506 -483 -485 0
-506 483 0
-506 485 0
507 -482 -486 0
-507 482 0
-507 486 0
-508 509 514 525 526 0
-508 -509 -514 -525 -526 0
-508 509 514 -525 -526 0
-508 -509 -514 525 526 0
508 509 -514 0
508 -509 514 0
508 -525 526 0
508 525 -526 0
509 510 -511 0
509 -510 511 0
-509 -510 -511 0
-509 510 511 0
-510 491 492 0
-510 489 491 0
-510 489 492 0
510 -489 -491 0
510 -491 -492 0
510 -489 -492 0
511 -512 513 0
511 512 -513 0
-511 512 513 0
-511 -512 -513 0
512 -541 -550 0
-512 541 0
-512 550 0
-513 493 495 0
-513 495 496 0
-513 493 496 0
513 -495 -496 0
513 -493 -495 0
513 -493 -496 0
514 -515 516 0
514 515 -516 0
-514 515 516 0
-514 -515 -516 0
-515 500 498 0
-515 498 501 0
-515 500 501 0
515 -498 -501 0
515 -500 -498 0
515 -500 -501 0
-516 -517 -524 0
-516 517 524 0
516 517 -524 0
516 -517 524 0
-517 -518 -523 0
-517 518 523 0
517 518 -523 0
517 -518 523 0
-518 -519 -522 0
-518 519 522 0
518 519 -522 0
518 -519 522 0
-519 520 0
519 -520 0
520 521 -512 0
-520 -521 0
-520 512 0
521 -491 -493 0
-521 491 0
-521 493 0
522 -504 -505 0
-522 504 0
-522 505 0
523 -503 -506 0
-523 503 0
-523 506 0
524 -502 -507 0
-524 502 0
-524 507 0
-525 510 513 0
-525 510 512 0
-525 512 513 0
525 -512 -513 0
525 -510 -513 0
525 -510 -512 0
526 -527 528 0
526 527 -528 0
-526 527 528 0
-526 -527 -528 0
-527 515 517 0
-527 517 524 0
-527 515 524 0
527 -517 -524 0
527 -515 -517 0
527 -515 -524 0
-528 -529 -532 0
-528 529 532 0
528 529 -532 0
528 -529 532 0
-529 -530 -531 0
-529 530 531 0
529 530 -531 0
529 -530 531 0
530 -519 -522 0
-530 519 0
-530 522 0
531 -521 -512 0
-531 521 0
-531 512 0
532 -518 -523 0
-532 518 0
-532 523 0
-551 0
2 0

