c Result of efficient AIG-to-CNF conversion using package CNF
p cnf 946 4065
-2 3 89 432 801 0
2 -801 0
2 -3 0
2 -432 0
2 -89 0
-3 -4 -23 31 0
-3 4 23 31 0
3 -31 0
3 -4 23 0
3 4 -23 0
4 5 -6 0
4 -5 6 0
-4 -5 -6 0
-4 5 6 0
5 -925 -934 0
-5 925 0
-5 934 0
6 -7 8 0
6 7 -8 0
-6 7 8 0
-6 -7 -8 0
7 -924 -935 0
-7 924 0
-7 935 0
-8 -9 -18 0
-8 9 18 0
8 9 -18 0
8 -9 18 0
9 -10 -11 0
-9 10 0
-9 11 0
10 -924 -934 0
-10 924 0
-10 934 0
11 -12 13 0
11 12 -13 0
-11 12 13 0
-11 -12 -13 0
12 -923 -935 0
-12 923 0
-12 935 0
-13 -14 -17 0
-13 14 17 0
13 14 -17 0
13 -14 17 0
14 -15 -16 0
-14 15 0
-14 16 0
15 -923 -934 0
-15 923 0
-15 934 0
16 -922 -935 0
-16 922 0
-16 935 0
17 -922 -936 0
-17 922 0
-17 936 0
18 19 -20 0
18 -19 20 0
-18 -19 -20 0
-18 19 20 0
19 -923 -936 0
-19 923 0
-19 936 0
20 -21 22 0
20 21 -22 0
-20 21 22 0
-20 -21 -22 0
21 -922 -937 0
-21 922 0
-21 937 0
-22 14 17 0
-22 12 17 0
-22 14 12 0
22 -14 -12 0
22 -12 -17 0
22 -14 -17 0
23 -24 26 0
23 24 -26 0
-23 24 26 0
-23 -24 -26 0
-24 10 25 0
-24 14 10 0
-24 14 25 0
24 -14 -10 0
24 -10 -25 0
24 -14 -25 0
-25 -12 -17 0
-25 12 17 0
25 12 -17 0
25 -12 17 0
-26 27 28 0
-26 -27 -28 0
26 -27 28 0
26 27 -28 0
27 -12 -17 0
-27 12 0
-27 17 0
-28 -29 -30 0
-28 29 30 0
28 29 -30 0
28 -29 30 0
-29 -19 -21 0
-29 19 21 0
29 19 -21 0
29 -19 21 0
30 5 -7 0
30 -5 7 0
-30 -5 -7 0
-30 5 7 0
-31 32 47 -57 -76 0
-31 -32 -47 -57 -76 0
-31 32 47 57 76 0
-31 -32 -47 57 76 0
31 32 -47 0
31 -32 47 0
31 57 -76 0
31 -57 76 0
32 33 -34 0
32 -33 34 0
-32 -33 -34 0
-32 33 34 0
33 -926 -934 0
-33 926 0
-33 934 0
34 -35 36 0
34 35 -36 0
-34 35 36 0
-34 -35 -36 0
35 -925 -935 0
-35 925 0
-35 935 0
-36 37 38 0
-36 -37 -38 0
36 -37 38 0
36 37 -38 0
37 -5 -6 0
-37 5 0
-37 6 0
-38 39 40 0
-38 -39 -40 0
38 -39 40 0
38 39 -40 0
39 -924 -936 0
-39 924 0
-39 936 0
-40 41 46 0
-40 -41 -46 0
40 -41 46 0
40 41 -46 0
-41 -42 -43 0
-41 42 43 0
41 42 -43 0
41 -42 43 0
42 -923 -937 0
-42 923 0
-42 937 0
43 -44 45 0
43 44 -45 0
-43 44 45 0
-43 -44 -45 0
44 -922 -938 0
-44 922 0
-44 938 0
-45 21 22 0
-45 19 21 0
-45 19 22 0
45 -19 -21 0
45 -21 -22 0
45 -19 -22 0
-46 9 18 0
-46 7 18 0
-46 9 7 0
46 -9 -7 0
46 -7 -18 0
46 -9 -18 0
47 -48 49 0
47 48 -49 0
-47 48 49 0
-47 -48 -49 0
-48 27 24 0
-48 24 28 0
-48 27 28 0
48 -24 -28 0
48 -27 -24 0
48 -27 -28 0
-49 50 56 0
-49 -50 -56 0
49 -50 56 0
49 50 -56 0
-50 -51 -53 0
-50 51 53 0
50 51 -53 0
50 -51 53 0
-51 33 52 0
-51 -33 -52 0
51 -33 52 0
51 33 -52 0
-52 -35 -39 0
-52 35 39 0
52 35 -39 0
52 -35 39 0
53 54 -55 0
53 -54 55 0
-53 -54 -55 0
-53 54 55 0
54 -19 -21 0
-54 19 0
-54 21 0
55 42 -44 0
55 -42 44 0
-55 -42 -44 0
-55 42 44 0
-56 925 29 0
-56 7 29 0
-56 925 7 0
-56 934 29 0
-56 934 7 0
56 -7 -29 0
56 -925 -934 -29 0
56 -925 -934 -7 0
57 58 -59 0
57 -58 59 0
-57 -58 -59 0
-57 58 59 0
58 -927 -934 0
-58 927 0
-58 934 0
59 -60 61 0
59 60 -61 0
-59 60 61 0
-59 -60 -61 0
60 -926 -935 0
-60 926 0
-60 935 0
-61 62 63 0
-61 -62 -63 0
61 -62 63 0
61 62 -63 0
62 -33 -34 0
-62 33 0
-62 34 0
-63 64 65 0
-63 -64 -65 0
63 -64 65 0
63 64 -65 0
64 -925 -936 0
-64 925 0
-64 936 0
-65 66 75 0
-65 -66 -75 0
65 -66 75 0
65 66 -75 0
-66 67 68 0
-66 -67 -68 0
66 -67 68 0
66 67 -68 0
67 -924 -937 0
-67 924 0
-67 937 0
-68 69 74 0
-68 -69 -74 0
68 -69 74 0
68 69 -74 0
-69 -70 -71 0
-69 70 71 0
69 70 -71 0
69 -70 71 0
70 -923 -938 0
-70 923 0
-70 938 0
71 -72 73 0
71 72 -73 0
-71 72 73 0
-71 -72 -73 0
72 -922 -939 0
-72 922 0
-72 939 0
-73 44 45 0
-73 42 44 0
-73 42 45 0
73 -42 -44 0
73 -44 -45 0
73 -42 -45 0
-74 39 41 0
-74 41 46 0
-74 39 46 0
74 -41 -46 0
74 -39 -41 0
74 -39 -46 0
-75 35 38 0
-75 37 35 0
-75 37 38 0
75 -37 -35 0
75 -35 -38 0
75 -37 -38 0
76 77 -78 0
76 -77 78 0
-76 -77 -78 0
-76 77 78 0
-77 48 50 0
-77 50 56 0
-77 48 56 0
77 -48 -56 0
77 -50 -56 0
77 -48 -50 0
78 -79 88 0
78 79 -88 0
-78 79 88 0
-78 -79 -88 0
79 -80 85 0
79 80 -85 0
-79 80 85 0
-79 -80 -85 0
-80 -81 -83 0
-80 81 83 0
80 81 -83 0
80 -81 83 0
-81 -67 -82 0
-81 67 82 0
81 67 -82 0
81 -67 82 0
82 70 -72 0
82 -70 72 0
-82 -70 -72 0
-82 70 72 0
83 84 -58 0
83 -84 58 0
-83 -84 -58 0
-83 84 58 0
84 -42 -44 0
-84 42 0
-84 44 0
-85 -86 -87 0
-85 86 87 0
85 86 -87 0
85 -86 87 0
-86 934 39 0
-86 926 35 0
-86 35 39 0
-86 934 35 0
-86 926 39 0
86 -35 -39 0
86 -926 -934 -39 0
86 -926 -934 -35 0
87 60 -64 0
87 -60 64 0
-87 -60 -64 0
-87 60 64 0
-88 51 55 0
-88 54 55 0
-88 54 51 0
88 -54 -55 0
88 -54 -51 0
88 -51 -55 0
-89 90 113 129 229 0
-89 -90 -113 129 229 0
89 -229 0
89 -90 113 0
89 -129 0
89 90 -113 0
90 91 -92 0
90 -91 92 0
-90 -91 -92 0
-90 91 92 0
91 -928 -934 0
-91 928 0
-91 934 0
92 -93 94 0
92 93 -94 0
-92 93 94 0
-92 -93 -94 0
93 -927 -935 0
-93 927 0
-93 935 0
-94 95 96 0
-94 -95 -96 0
94 -95 96 0
94 95 -96 0
95 -58 -59 0
-95 58 0
-95 59 0
-96 97 98 0
-96 -97 -98 0
96 -97 98 0
96 97 -98 0
97 -926 -936 0
-97 926 0
-97 936 0
-98 99 112 0
-98 -99 -112 0
98 -99 112 0
98 99 -112 0
-99 100 101 0
-99 -100 -101 0
99 -100 101 0
99 100 -101 0
100 -925 -937 0
-100 925 0
-100 937 0
-101 102 111 0
-101 -102 -111 0
101 -102 111 0
101 102 -111 0
-102 103 104 0
-102 -103 -104 0
102 -103 104 0
102 103 -104 0
103 -924 -938 0
-103 924 0
-103 938 0
-104 105 110 0
-104 -105 -110 0
104 -105 110 0
104 105 -110 0
-105 -106 -107 0
-105 106 107 0
105 106 -107 0
105 -106 107 0
106 -923 -939 0
-106 923 0
-106 939 0
107 -108 109 0
107 108 -109 0
-107 108 109 0
-107 -108 -109 0
108 -922 -940 0
-108 922 0
-108 940 0
-109 72 73 0
-109 70 72 0
-109 70 73 0
109 -70 -72 0
109 -72 -73 0
109 -70 -73 0
-110 67 69 0
-110 69 74 0
-110 67 74 0
110 -69 -74 0
110 -67 -69 0
110 -67 -74 0
-111 64 66 0
-111 66 75 0
-111 64 75 0
111 -66 -75 0
111 -64 -66 0
111 -64 -75 0
-112 60 63 0
-112 62 60 0
-112 62 63 0
112 -62 -60 0
112 -60 -63 0
112 -62 -63 0
113 -114 115 0
113 114 -115 0
-113 114 115 0
-113 -114 -115 0
-114 77 88 0
-114 77 79 0
-114 79 88 0
114 -79 -88 0
114 -77 -88 0
114 -77 -79 0
-115 116 128 0
-115 -116 -128 0
115 -116 128 0
115 116 -128 0
116 -117 123 0
116 117 -123 0
-116 117 123 0
-116 -117 -123 0
-117 -118 -120 0
-117 118 120 0
117 118 -120 0
117 -118 120 0
-118 -97 -119 0
-118 97 119 0
118 97 -119 0
118 -97 119 0
119 100 -103 0
119 -100 103 0
-119 -100 -103 0
-119 100 103 0
120 -121 122 0
120 121 -122 0
-120 121 122 0
-120 -121 -122 0
121 -60 -64 0
-121 60 0
-121 64 0
-122 939 70 0
-122 922 67 0
-122 67 70 0
-122 939 67 0
-122 922 70 0
122 -67 -70 0
122 -922 -939 -70 0
122 -922 -939 -67 0
-123 -124 -125 0
-123 124 125 0
123 124 -125 0
123 -124 125 0
-124 58 81 0
-124 84 58 0
-124 84 81 0
124 -84 -58 0
124 -58 -81 0
124 -84 -81 0
125 126 -127 0
125 -126 127 0
-125 -126 -127 0
-125 126 127 0
126 106 -108 0
126 -106 108 0
-126 -106 -108 0
-126 106 108 0
127 91 -93 0
127 -91 93 0
-127 -91 -93 0
-127 91 93 0
-128 80 86 0
-128 86 87 0
-128 80 87 0
128 -86 -87 0
128 -80 -86 0
128 -80 -87 0
-129 130 157 -176 -207 0
-129 -130 -157 -176 -207 0
-129 130 157 176 207 0
-129 -130 -157 176 207 0
129 130 -157 0
129 -130 157 0
129 176 -207 0
129 -176 207 0
130 131 -132 0
130 -131 132 0
-130 -131 -132 0
-130 131 132 0
131 -929 -934 0
-131 929 0
-131 934 0
132 -133 134 0
132 133 -134 0
-132 133 134 0
-132 -133 -134 0
133 -928 -935 0
-133 928 0
-133 935 0
-134 135 136 0
-134 -135 -136 0
134 -135 136 0
134 135 -136 0
135 -91 -92 0
-135 91 0
-135 92 0
-136 137 138 0
-136 -137 -138 0
136 -137 138 0
136 137 -138 0
137 -927 -936 0
-137 927 0
-137 936 0
-138 139 156 0
-138 -139 -156 0
138 -139 156 0
138 139 -156 0
-139 140 141 0
-139 -140 -141 0
139 -140 141 0
139 140 -141 0
140 -926 -937 0
-140 926 0
-140 937 0
-141 142 155 0
-141 -142 -155 0
141 -142 155 0
141 142 -155 0
-142 143 144 0
-142 -143 -144 0
142 -143 144 0
142 143 -144 0
143 -925 -938 0
-143 925 0
-143 938 0
-144 145 154 0
-144 -145 -154 0
144 -145 154 0
144 145 -154 0
-145 146 147 0
-145 -146 -147 0
145 -146 147 0
145 146 -147 0
146 -924 -939 0
-146 924 0
-146 939 0
-147 148 153 0
-147 -148 -153 0
147 -148 153 0
147 148 -153 0
-148 -149 -150 0
-148 149 150 0
148 149 -150 0
148 -149 150 0
149 -923 -940 0
-149 923 0
-149 940 0
150 -151 152 0
150 151 -152 0
-150 151 152 0
-150 -151 -152 0
151 -922 -941 0
-151 922 0
-151 941 0
-152 108 109 0
-152 106 108 0
-152 106 109 0
152 -106 -108 0
152 -108 -109 0
152 -106 -109 0
-153 103 105 0
-153 105 110 0
-153 103 110 0
153 -105 -110 0
153 -103 -105 0
153 -103 -110 0
-154 100 102 0
-154 102 111 0
-154 100 111 0
154 -102 -111 0
154 -100 -102 0
154 -100 -111 0
-155 97 99 0
-155 99 112 0
-155 97 112 0
155 -99 -112 0
155 -97 -99 0
155 -97 -112 0
-156 93 96 0
-156 95 93 0
-156 95 96 0
156 -95 -93 0
156 -93 -96 0
156 -95 -96 0
157 158 -159 0
157 -158 159 0
-157 -158 -159 0
-157 158 159 0
-158 114 128 0
-158 114 116 0
-158 116 128 0
158 -116 -128 0
158 -114 -128 0
158 -114 -116 0
159 -160 175 0
159 160 -175 0
-159 160 175 0
-159 -160 -175 0
160 -161 167 0
160 161 -167 0
-160 161 167 0
-160 -161 -167 0
-161 -162 -164 0
-161 162 164 0
161 162 -164 0
161 -162 164 0
-162 -131 -163 0
-162 131 163 0
162 131 -163 0
162 -131 163 0
163 133 -137 0
163 -133 137 0
-163 -133 -137 0
-163 133 137 0
164 -165 166 0
164 165 -166 0
-164 165 166 0
-164 -165 -166 0
-165 934 126 0
-165 928 93 0
-165 93 126 0
-165 934 93 0
-165 928 126 0
165 -93 -126 0
165 -928 -934 -126 0
165 -928 -934 -93 0
-166 937 103 0
-166 925 97 0
-166 97 103 0
-166 937 97 0
-166 925 103 0
166 -97 -103 0
166 -925 -937 -103 0
166 -925 -937 -97 0
-167 -168 -169 0
-167 168 169 0
167 168 -169 0
167 -168 169 0
-168 121 118 0
-168 118 122 0
-168 121 122 0
168 -118 -122 0
168 -121 -118 0
168 -121 -122 0
169 -170 171 0
169 170 -171 0
-169 170 171 0
-169 -170 -171 0
170 140 -143 0
170 -140 143 0
-170 -140 -143 0
-170 140 143 0
-171 172 173 0
-171 -172 -173 0
171 -172 173 0
171 172 -173 0
172 -106 -108 0
-172 106 0
-172 108 0
-173 -146 -174 0
-173 146 174 0
173 146 -174 0
173 -146 174 0
174 149 -151 0
174 -149 151 0
-174 -149 -151 0
-174 149 151 0
-175 117 124 0
-175 124 125 0
-175 117 125 0
175 -124 -125 0
175 -117 -124 0
175 -117 -125 0
176 177 -178 0
176 -177 178 0
-176 -177 -178 0
-176 177 178 0
177 -930 -934 0
-177 930 0
-177 934 0
178 -179 180 0
178 179 -180 0
-178 179 180 0
-178 -179 -180 0
179 -929 -935 0
-179 929 0
-179 935 0
-180 181 182 0
-180 -181 -182 0
180 -181 182 0
180 181 -182 0
181 -131 -132 0
-181 131 0
-181 132 0
-182 183 184 0
-182 -183 -184 0
182 -183 184 0
182 183 -184 0
183 -928 -936 0
-183 928 0
-183 936 0
-184 185 206 0
-184 -185 -206 0
184 -185 206 0
184 185 -206 0
-185 186 187 0
-185 -186 -187 0
185 -186 187 0
185 186 -187 0
186 -927 -937 0
-186 927 0
-186 937 0
-187 188 205 0
-187 -188 -205 0
187 -188 205 0
187 188 -205 0
-188 189 190 0
-188 -189 -190 0
188 -189 190 0
188 189 -190 0
189 -926 -938 0
-189 926 0
-189 938 0
-190 191 204 0
-190 -191 -204 0
190 -191 204 0
190 191 -204 0
-191 192 193 0
-191 -192 -193 0
191 -192 193 0
191 192 -193 0
192 -925 -939 0
-192 925 0
-192 939 0
-193 194 203 0
-193 -194 -203 0
193 -194 203 0
193 194 -203 0
-194 195 196 0
-194 -195 -196 0
194 -195 196 0
194 195 -196 0
195 -924 -940 0
-195 924 0
-195 940 0
-196 197 202 0
-196 -197 -202 0
196 -197 202 0
196 197 -202 0
-197 -198 -199 0
-197 198 199 0
197 198 -199 0
197 -198 199 0
198 -923 -941 0
-198 923 0
-198 941 0
199 -200 201 0
199 200 -201 0
-199 200 201 0
-199 -200 -201 0
200 -922 -942 0
-200 922 0
-200 942 0
-201 151 152 0
-201 149 151 0
-201 149 152 0
201 -149 -151 0
201 -151 -152 0
201 -149 -152 0
-202 146 148 0
-202 148 153 0
-202 146 153 0
202 -148 -153 0
202 -146 -148 0
202 -146 -153 0
-203 143 145 0
-203 145 154 0
-203 143 154 0
203 -145 -154 0
203 -143 -145 0
203 -143 -154 0
-204 140 142 0
-204 142 155 0
-204 140 155 0
204 -142 -155 0
204 -140 -142 0
204 -140 -155 0
-205 137 139 0
-205 139 156 0
-205 137 156 0
205 -139 -156 0
205 -137 -139 0
205 -137 -156 0
-206 133 136 0
-206 135 133 0
-206 135 136 0
206 -135 -133 0
206 -133 -136 0
206 -135 -136 0
207 208 -209 0
207 -208 209 0
-207 -208 -209 0
-207 208 209 0
-208 158 175 0
-208 158 160 0
-208 160 175 0
208 -160 -175 0
208 -158 -175 0
208 -158 -160 0
209 -210 228 0
209 210 -228 0
-209 210 228 0
-209 -210 -228 0
210 -211 219 0
210 211 -219 0
-210 211 219 0
-210 -211 -219 0
-211 -212 -216 0
-211 212 216 0
211 212 -216 0
211 -212 216 0
-212 213 214 0
-212 -213 -214 0
212 -213 214 0
212 213 -214 0
213 -140 -143 0
-213 140 0
-213 143 0
-214 177 215 0
-214 -177 -215 0
214 -177 215 0
214 177 -215 0
-215 941 149 0
-215 922 146 0
-215 146 149 0
-215 941 146 0
-215 922 149 0
215 -146 -149 0
215 -922 -941 -149 0
215 -922 -941 -146 0
216 -217 218 0
216 217 -218 0
-216 217 218 0
-216 -217 -218 0
-217 170 173 0
-217 172 170 0
-217 172 173 0
217 -172 -170 0
217 -170 -173 0
217 -172 -173 0
-218 934 137 0
-218 929 133 0
-218 133 137 0
-218 934 133 0
-218 929 137 0
218 -133 -137 0
218 -929 -934 -137 0
218 -929 -934 -133 0
-219 -220 -221 0
-219 220 221 0
219 220 -221 0
219 -220 221 0
-220 162 165 0
-220 165 166 0
-220 162 166 0
220 -162 -166 0
220 -165 -166 0
220 -162 -165 0
221 222 -223 0
221 -222 223 0
-221 -222 -223 0
-221 222 223 0
222 179 -183 0
222 -179 183 0
-222 -179 -183 0
-222 179 183 0
223 -224 226 0
223 224 -226 0
-223 224 226 0
-223 -224 -226 0
-224 -186 -225 0
-224 186 225 0
224 186 -225 0
224 -186 225 0
225 189 -192 0
225 -189 192 0
-225 -189 -192 0
-225 189 192 0
-226 -195 -227 0
-226 195 227 0
226 195 -227 0
226 -195 227 0
227 198 -200 0
227 -198 200 0
-227 -198 -200 0
-227 198 200 0
-228 161 168 0
-228 168 169 0
-228 161 169 0
228 -168 -169 0
228 -161 -168 0
228 -161 -169 0
-229 -230 -265 290 0
-229 230 265 290 0
229 -290 0
229 -230 265 0
229 230 -265 0
230 231 -232 0
230 -231 232 0
-230 -231 -232 0
-230 231 232 0
231 -931 -934 0
-231 931 0
-231 934 0
232 -233 234 0
232 233 -234 0
-232 233 234 0
-232 -233 -234 0
233 -930 -935 0
-233 930 0
-233 935 0
-234 235 236 0
-234 -235 -236 0
234 -235 236 0
234 235 -236 0
235 -177 -178 0
-235 177 0
-235 178 0
-236 237 238 0
-236 -237 -238 0
236 -237 238 0
236 237 -238 0
237 -929 -936 0
-237 929 0
-237 936 0
-238 239 264 0
-238 -239 -264 0
238 -239 264 0
238 239 -264 0
-239 240 241 0
-239 -240 -241 0
239 -240 241 0
239 240 -241 0
240 -928 -937 0
-240 928 0
-240 937 0
-241 242 263 0
-241 -242 -263 0
241 -242 263 0
241 242 -263 0
-242 243 244 0
-242 -243 -244 0
242 -243 244 0
242 243 -244 0
243 -927 -938 0
-243 927 0
-243 938 0
-244 245 262 0
-244 -245 -262 0
244 -245 262 0
244 245 -262 0
-245 246 247 0
-245 -246 -247 0
245 -246 247 0
245 246 -247 0
246 -926 -939 0
-246 926 0
-246 939 0
-247 248 261 0
-247 -248 -261 0
247 -248 261 0
247 248 -261 0
-248 249 250 0
-248 -249 -250 0
248 -249 250 0
248 249 -250 0
249 -925 -940 0
-249 925 0
-249 940 0
-250 251 260 0
-250 -251 -260 0
250 -251 260 0
250 251 -260 0
-251 252 253 0
-251 -252 -253 0
251 -252 253 0
251 252 -253 0
252 -924 -941 0
-252 924 0
-252 941 0
-253 254 259 0
-253 -254 -259 0
253 -254 259 0
253 254 -259 0
-254 -255 -256 0
-254 255 256 0
254 255 -256 0
254 -255 256 0
255 -923 -942 0
-255 923 0
-255 942 0
256 -257 258 0
256 257 -258 0
-256 257 258 0
-256 -257 -258 0
257 -922 -943 0
-257 922 0
-257 943 0
-258 200 201 0
-258 198 200 0
-258 198 201 0
258 -198 -200 0
258 -200 -201 0
258 -198 -201 0
-259 195 197 0
-259 197 202 0
-259 195 202 0
259 -197 -202 0
259 -195 -197 0
259 -195 -202 0
-260 192 194 0
-260 194 203 0
-260 192 203 0
260 -194 -203 0
260 -192 -194 0
260 -192 -203 0
-261 189 191 0
-261 191 204 0
-261 189 204 0
261 -191 -204 0
261 -189 -191 0
261 -189 -204 0
-262 186 188 0
-262 188 205 0
-262 186 205 0
262 -188 -205 0
262 -186 -188 0
262 -186 -205 0
-263 183 185 0
-263 185 206 0
-263 183 206 0
263 -185 -206 0
263 -183 -185 0
263 -183 -206 0
-264 179 182 0
-264 181 179 0
-264 181 182 0
264 -181 -179 0
264 -179 -182 0
264 -181 -182 0
265 266 -267 0
265 -266 267 0
-265 -266 -267 0
-265 266 267 0
-266 208 228 0
-266 208 210 0
-266 210 228 0
266 -210 -228 0
266 -208 -228 0
266 -208 -210 0
267 -268 289 0
267 268 -289 0
-267 268 289 0
-267 -268 -289 0
268 -269 278 0
268 269 -278 0
-268 269 278 0
-268 -269 -278 0
-269 -270 -275 0
-269 270 275 0
269 270 -275 0
269 -270 275 0
-270 271 272 0
-270 -271 -272 0
270 -271 272 0
270 271 -272 0
271 -179 -183 0
-271 179 0
-271 183 0
-272 273 274 0
-272 -273 -274 0
272 -273 274 0
272 273 -274 0
-273 938 192 0
-273 926 186 0
-273 186 192 0
-273 938 186 0
-273 926 192 0
273 -186 -192 0
273 -926 -938 -192 0
273 -926 -938 -186 0
-274 195 200 0
-274 198 200 0
-274 195 198 0
274 -195 -198 0
274 -198 -200 0
274 -195 -200 0
275 -276 277 0
275 276 -277 0
-275 276 277 0
-275 -276 -277 0
-276 222 224 0
-276 224 226 0
-276 222 226 0
276 -224 -226 0
276 -222 -224 0
276 -222 -226 0
-277 177 215 0
-277 213 177 0
-277 213 215 0
277 -213 -177 0
277 -177 -215 0
277 -213 -215 0
-278 -279 -280 0
-278 279 280 0
278 279 -280 0
278 -279 280 0
-279 212 217 0
-279 217 218 0
-279 212 218 0
279 -212 -218 0
279 -217 -218 0
279 -212 -217 0
280 281 -284 0
280 -281 284 0
-280 -281 -284 0
-280 281 284 0
-281 -282 -283 0
-281 282 283 0
281 282 -283 0
281 -282 283 0
282 255 -257 0
282 -255 257 0
-282 -255 -257 0
-282 255 257 0
283 231 -233 0
283 -231 233 0
-283 -231 -233 0
-283 231 233 0
284 -285 287 0
284 285 -287 0
-284 285 287 0
-284 -285 -287 0
-285 -237 -286 0
-285 237 286 0
285 237 -286 0
285 -237 286 0
286 240 -243 0
286 -240 243 0
-286 -240 -243 0
-286 240 243 0
-287 -246 -288 0
-287 246 288 0
287 246 -288 0
287 -246 288 0
288 249 -252 0
288 -249 252 0
-288 -249 -252 0
-288 249 252 0
-289 211 220 0
-289 220 221 0
-289 211 221 0
289 -220 -221 0
289 -211 -220 0
289 -211 -221 0
-290 291 330 -358 -401 0
-290 -291 -330 -358 -401 0
-290 291 330 358 401 0
-290 -291 -330 358 401 0
290 291 -330 0
290 -291 330 0
290 358 -401 0
290 -358 401 0
291 292 -293 0
291 -292 293 0
-291 -292 -293 0
-291 292 293 0
292 -932 -934 0
-292 932 0
-292 934 0
293 -294 295 0
293 294 -295 0
-293 294 295 0
-293 -294 -295 0
294 -931 -935 0
-294 931 0
-294 935 0
-295 296 297 0
-295 -296 -297 0
295 -296 297 0
295 296 -297 0
296 -231 -232 0
-296 231 0
-296 232 0
-297 298 299 0
-297 -298 -299 0
297 -298 299 0
297 298 -299 0
298 -930 -936 0
-298 930 0
-298 936 0
-299 300 329 0
-299 -300 -329 0
299 -300 329 0
299 300 -329 0
-300 301 302 0
-300 -301 -302 0
300 -301 302 0
300 301 -302 0
301 -929 -937 0
-301 929 0
-301 937 0
-302 303 328 0
-302 -303 -328 0
302 -303 328 0
302 303 -328 0
-303 304 305 0
-303 -304 -305 0
303 -304 305 0
303 304 -305 0
304 -928 -938 0
-304 928 0
-304 938 0
-305 306 327 0
-305 -306 -327 0
305 -306 327 0
305 306 -327 0
-306 307 308 0
-306 -307 -308 0
306 -307 308 0
306 307 -308 0
307 -927 -939 0
-307 927 0
-307 939 0
-308 309 326 0
-308 -309 -326 0
308 -309 326 0
308 309 -326 0
-309 310 311 0
-309 -310 -311 0
309 -310 311 0
309 310 -311 0
310 -926 -940 0
-310 926 0
-310 940 0
-311 312 325 0
-311 -312 -325 0
311 -312 325 0
311 312 -325 0
-312 313 314 0
-312 -313 -314 0
312 -313 314 0
312 313 -314 0
313 -925 -941 0
-313 925 0
-313 941 0
-314 315 324 0
-314 -315 -324 0
314 -315 324 0
314 315 -324 0
-315 316 317 0
-315 -316 -317 0
315 -316 317 0
315 316 -317 0
316 -924 -942 0
-316 924 0
-316 942 0
-317 318 323 0
-317 -318 -323 0
317 -318 323 0
317 318 -323 0
-318 -319 -320 0
-318 319 320 0
318 319 -320 0
318 -319 320 0
319 -923 -943 0
-319 923 0
-319 943 0
320 -321 322 0
320 321 -322 0
-320 321 322 0
-320 -321 -322 0
321 -922 -944 0
-321 922 0
-321 944 0
-322 257 258 0
-322 255 257 0
-322 255 258 0
322 -255 -257 0
322 -257 -258 0
322 -255 -258 0
-323 252 254 0
-323 254 259 0
-323 252 259 0
323 -254 -259 0
323 -252 -254 0
323 -252 -259 0
-324 249 251 0
-324 251 260 0
-324 249 260 0
324 -251 -260 0
324 -249 -251 0
324 -249 -260 0
-325 246 248 0
-325 248 261 0
-325 246 261 0
325 -248 -261 0
325 -246 -248 0
325 -246 -261 0
-326 243 245 0
-326 245 262 0
-326 243 262 0
326 -245 -262 0
326 -243 -245 0
326 -243 -262 0
-327 240 242 0
-327 242 263 0
-327 240 263 0
327 -242 -263 0
327 -240 -242 0
327 -240 -263 0
-328 237 239 0
-328 239 264 0
-328 237 264 0
328 -239 -264 0
328 -237 -239 0
328 -237 -264 0
-329 233 236 0
-329 235 233 0
-329 235 236 0
329 -235 -233 0
329 -233 -236 0
329 -235 -236 0
330 331 -332 0
330 -331 332 0
-330 -331 -332 0
-330 331 332 0
-331 266 289 0
-331 266 268 0
-331 268 289 0
331 -268 -289 0
331 -266 -289 0
331 -266 -268 0
332 -333 357 0
332 333 -357 0
-332 333 357 0
-332 -333 -357 0
333 -334 343 0
333 334 -343 0
-333 334 343 0
-333 -334 -343 0
-334 -335 -340 0
-334 335 340 0
334 335 -340 0
334 -335 340 0
-335 -336 -337 0
-335 336 337 0
335 336 -337 0
335 -336 337 0
-336 231 282 0
-336 233 282 0
-336 231 233 0
336 -231 -233 0
336 -233 -282 0
336 -231 -282 0
337 -338 339 0
337 338 -339 0
-337 338 339 0
-337 -338 -339 0
-338 237 243 0
-338 240 243 0
-338 237 240 0
338 -237 -240 0
338 -240 -243 0
338 -237 -243 0
-339 246 252 0
-339 249 252 0
-339 246 249 0
339 -246 -249 0
339 -249 -252 0
339 -246 -252 0
340 -341 342 0
340 341 -342 0
-340 341 342 0
-340 -341 -342 0
-341 281 285 0
-341 285 287 0
-341 281 287 0
341 -281 -287 0
341 -285 -287 0
341 -281 -285 0
-342 271 273 0
-342 273 274 0
-342 271 274 0
342 -273 -274 0
342 -271 -273 0
342 -271 -274 0
-343 -344 -345 0
-343 344 345 0
343 344 -345 0
343 -344 345 0
-344 270 276 0
-344 276 277 0
-344 270 277 0
344 -270 -277 0
344 -276 -277 0
344 -270 -276 0
345 346 -352 0
345 -346 352 0
-345 -346 -352 0
-345 346 352 0
-346 -347 -348 0
-346 347 348 0
346 347 -348 0
346 -347 348 0
347 310 -313 0
347 -310 313 0
-347 -310 -313 0
-347 310 313 0
348 -349 350 0
348 349 -350 0
-348 349 350 0
-348 -349 -350 0
349 -255 -257 0
-349 255 0
-349 257 0
-350 -316 -351 0
-350 316 351 0
350 316 -351 0
350 -316 351 0
351 319 -321 0
351 -319 321 0
-351 -319 -321 0
-351 319 321 0
352 -353 355 0
352 353 -355 0
-352 353 355 0
-352 -353 -355 0
-353 -292 -354 0
-353 292 354 0
353 292 -354 0
353 -292 354 0
354 294 -298 0
354 -294 298 0
-354 -294 -298 0
-354 294 298 0
-355 -301 -356 0
-355 301 356 0
355 301 -356 0
355 -301 356 0
356 304 -307 0
356 -304 307 0
-356 -304 -307 0
-356 304 307 0
-357 269 279 0
-357 279 280 0
-357 269 280 0
357 -279 -280 0
357 -269 -279 0
357 -269 -280 0
358 359 -360 0
358 -359 360 0
-358 -359 -360 0
-358 359 360 0
359 -933 -934 0
-359 933 0
-359 934 0
360 361 -362 0
360 -361 362 0
-360 -361 -362 0
-360 361 362 0
361 -932 -935 0
-361 932 0
-361 935 0
362 363 -364 0
362 -363 364 0
-362 -363 -364 0
-362 363 364 0
363 -292 -293 0
-363 292 0
-363 293 0
364 -365 366 0
364 365 -366 0
-364 365 366 0
-364 -365 -366 0
365 -931 -936 0
-365 931 0
-365 936 0
-366 367 400 0
-366 -367 -400 0
366 -367 400 0
366 367 -400 0
-367 368 369 0
-367 -368 -369 0
367 -368 369 0
367 368 -369 0
368 -930 -937 0
-368 930 0
-368 937 0
-369 370 399 0
-369 -370 -399 0
369 -370 399 0
369 370 -399 0
-370 371 372 0
-370 -371 -372 0
370 -371 372 0
370 371 -372 0
371 -929 -938 0
-371 929 0
-371 938 0
-372 373 398 0
-372 -373 -398 0
372 -373 398 0
372 373 -398 0
-373 374 375 0
-373 -374 -375 0
373 -374 375 0
373 374 -375 0
374 -928 -939 0
-374 928 0
-374 939 0
-375 376 397 0
-375 -376 -397 0
375 -376 397 0
375 376 -397 0
-376 377 378 0
-376 -377 -378 0
376 -377 378 0
376 377 -378 0
377 -927 -940 0
-377 927 0
-377 940 0
-378 379 396 0
-378 -379 -396 0
378 -379 396 0
378 379 -396 0
-379 380 381 0
-379 -380 -381 0
379 -380 381 0
379 380 -381 0
380 -926 -941 0
-380 926 0
-380 941 0
-381 382 395 0
-381 -382 -395 0
381 -382 395 0
381 382 -395 0
-382 383 384 0
-382 -383 -384 0
382 -383 384 0
382 383 -384 0
383 -925 -942 0
-383 925 0
-383 942 0
-384 385 394 0
-384 -385 -394 0
384 -385 394 0
384 385 -394 0
-385 386 387 0
-385 -386 -387 0
385 -386 387 0
385 386 -387 0
386 -924 -943 0
-386 924 0
-386 943 0
-387 388 393 0
-387 -388 -393 0
387 -388 393 0
387 388 -393 0
-388 -389 -390 0
-388 389 390 0
388 389 -390 0
388 -389 390 0
389 -923 -944 0
-389 923 0
-389 944 0
390 -391 392 0
390 391 -392 0
-390 391 392 0
-390 -391 -392 0
391 -922 -945 0
-391 922 0
-391 945 0
-392 321 322 0
-392 319 321 0
-392 319 322 0
392 -319 -321 0
392 -321 -322 0
392 -319 -322 0
-393 316 318 0
-393 318 323 0
-393 316 323 0
393 -318 -323 0
393 -316 -318 0
393 -316 -323 0
-394 313 315 0
-394 315 324 0
-394 313 324 0
394 -315 -324 0
394 -313 -315 0
394 -313 -324 0
-395 310 312 0
-395 312 325 0
-395 310 325 0
395 -312 -325 0
395 -310 -312 0
395 -310 -325 0
-396 307 309 0
-396 309 326 0
-396 307 326 0
396 -309 -326 0
396 -307 -309 0
396 -307 -326 0
-397 304 306 0
-397 306 327 0
-397 304 327 0
397 -306 -327 0
397 -304 -306 0
397 -304 -327 0
-398 301 303 0
-398 303 328 0
-398 301 328 0
398 -303 -328 0
398 -301 -303 0
398 -301 -328 0
-399 298 300 0
-399 300 329 0
-399 298 329 0
399 -300 -329 0
399 -298 -300 0
399 -298 -329 0
-400 294 297 0
-400 296 294 0
-400 296 297 0
400 -296 -294 0
400 -294 -297 0
400 -296 -297 0
401 -402 403 0
401 402 -403 0
-401 402 403 0
-401 -402 -403 0
-402 331 357 0
-402 331 333 0
-402 333 357 0
402 -333 -357 0
402 -331 -357 0
402 -331 -333 0
-403 404 431 0
-403 -404 -431 0
403 -404 431 0
403 404 -431 0
404 -405 414 0
404 405 -414 0
-404 405 414 0
-404 -405 -414 0
-405 -406 -411 0
-405 406 411 0
405 406 -411 0
405 -406 411 0
-406 -407 -408 0
-406 407 408 0
406 407 -408 0
406 -407 408 0
-407 347 350 0
-407 349 347 0
-407 349 350 0
407 -349 -347 0
407 -347 -350 0
407 -349 -350 0
408 -409 410 0
408 409 -410 0
-408 409 410 0
-408 -409 -410 0
-409 292 298 0
-409 294 298 0
-409 292 294 0
409 -292 -294 0
409 -294 -298 0
409 -292 -298 0
-410 301 307 0
-410 304 307 0
-410 301 304 0
410 -301 -304 0
410 -304 -307 0
410 -301 -307 0
411 -412 413 0
411 412 -413 0
-411 412 413 0
-411 -412 -413 0
-412 346 353 0
-412 353 355 0
-412 346 355 0
412 -346 -355 0
412 -353 -355 0
412 -346 -353 0
-413 336 338 0
-413 338 339 0
-413 336 339 0
413 -336 -339 0
413 -338 -339 0
413 -336 -338 0
-414 -415 -416 0
-414 415 416 0
414 415 -416 0
414 -415 416 0
-415 335 341 0
-415 341 342 0
-415 335 342 0
415 -335 -342 0
415 -341 -342 0
415 -335 -341 0
416 -417 424 0
416 417 -424 0
-416 417 424 0
-416 -417 -424 0
-417 -418 -419 0
-417 418 419 0
417 418 -419 0
417 -418 419 0
418 371 -374 0
418 -371 374 0
-418 -371 -374 0
-418 371 374 0
419 -420 422 0
419 420 -422 0
-419 420 422 0
-419 -420 -422 0
-420 -377 -421 0
-420 377 421 0
420 377 -421 0
420 -377 421 0
421 380 -383 0
421 -380 383 0
-421 -380 -383 0
-421 380 383 0
-422 -386 -423 0
-422 386 423 0
422 386 -423 0
422 -386 423 0
423 389 -391 0
423 -389 391 0
-423 -389 -391 0
-423 389 391 0
-424 425 429 0
-424 -425 -429 0
424 -425 429 0
424 425 -429 0
-425 426 427 0
-425 -426 -427 0
425 -426 427 0
425 426 -427 0
426 -310 -313 0
-426 310 0
-426 313 0
-427 359 428 0
-427 -359 -428 0
427 -359 428 0
427 359 -428 0
-428 316 321 0
-428 319 321 0
-428 316 319 0
428 -316 -319 0
428 -319 -321 0
428 -316 -321 0
-429 -361 -430 0
-429 361 430 0
429 361 -430 0
429 -361 430 0
430 365 -368 0
430 -365 368 0
-430 -365 -368 0
-430 365 368 0
-431 334 344 0
-431 344 345 0
-431 334 345 0
431 -344 -345 0
431 -334 -344 0
431 -334 -345 0
-432 433 476 508 646 0
-432 -433 -476 508 646 0
432 -646 0
432 -433 476 0
432 -508 0
432 433 -476 0
433 -434 435 0
433 434 -435 0
-433 434 435 0
-433 -434 -435 0
434 -933 -935 0
-434 933 0
-434 935 0
-435 436 437 0
-435 -436 -437 0
435 -436 437 0
435 436 -437 0
436 -932 -936 0
-436 932 0
-436 936 0
-437 438 439 0
-437 -438 -439 0
437 -438 439 0
437 438 -439 0
438 -359 -360 0
-438 359 0
-438 360 0
-439 440 441 0
-439 -440 -441 0
439 -440 441 0
439 440 -441 0
440 -931 -937 0
-440 931 0
-440 937 0
-441 442 475 0
-441 -442 -475 0
441 -442 475 0
441 442 -475 0
-442 443 444 0
-442 -443 -444 0
442 -443 444 0
442 443 -444 0
443 -930 -938 0
-443 930 0
-443 938 0
-444 445 474 0
-444 -445 -474 0
444 -445 474 0
444 445 -474 0
-445 446 447 0
-445 -446 -447 0
445 -446 447 0
445 446 -447 0
446 -929 -939 0
-446 929 0
-446 939 0
-447 448 473 0
-447 -448 -473 0
447 -448 473 0
447 448 -473 0
-448 449 450 0
-448 -449 -450 0
448 -449 450 0
448 449 -450 0
449 -928 -940 0
-449 928 0
-449 940 0
-450 451 472 0
-450 -451 -472 0
450 -451 472 0
450 451 -472 0
-451 452 453 0
-451 -452 -453 0
451 -452 453 0
451 452 -453 0
452 -927 -941 0
-452 927 0
-452 941 0
-453 454 471 0
-453 -454 -471 0
453 -454 471 0
453 454 -471 0
-454 455 456 0
-454 -455 -456 0
454 -455 456 0
454 455 -456 0
455 -926 -942 0
-455 926 0
-455 942 0
-456 457 470 0
-456 -457 -470 0
456 -457 470 0
456 457 -470 0
-457 458 459 0
-457 -458 -459 0
457 -458 459 0
457 458 -459 0
458 -925 -943 0
-458 925 0
-458 943 0
-459 460 469 0
-459 -460 -469 0
459 -460 469 0
459 460 -469 0
-460 461 462 0
-460 -461 -462 0
460 -461 462 0
460 461 -462 0
461 -924 -944 0
-461 924 0
-461 944 0
-462 463 468 0
-462 -463 -468 0
462 -463 468 0
462 463 -468 0
-463 464 465 0
-463 -464 -465 0
463 -464 465 0
463 464 -465 0
464 -923 -945 0
-464 923 0
-464 945 0
-465 466 467 0
-465 -466 -467 0
465 -466 467 0
465 466 -467 0
-466 391 392 0
-466 389 391 0
-466 389 392 0
466 -389 -391 0
466 -391 -392 0
466 -389 -392 0
-467 386 388 0
-467 388 393 0
-467 386 393 0
467 -388 -393 0
467 -386 -388 0
467 -386 -393 0
-468 383 385 0
-468 385 394 0
-468 383 394 0
468 -385 -394 0
468 -383 -385 0
468 -383 -394 0
-469 380 382 0
-469 382 395 0
-469 380 395 0
469 -382 -395 0
469 -380 -382 0
469 -380 -395 0
-470 377 379 0
-470 379 396 0
-470 377 396 0
470 -379 -396 0
470 -377 -379 0
470 -377 -396 0
-471 374 376 0
-471 376 397 0
-471 374 397 0
471 -376 -397 0
471 -374 -376 0
471 -374 -397 0
-472 371 373 0
-472 373 398 0
-472 371 398 0
472 -373 -398 0
472 -371 -373 0
472 -371 -398 0
-473 368 370 0
-473 370 399 0
-473 368 399 0
473 -370 -399 0
473 -368 -370 0
473 -368 -399 0
-474 365 367 0
-474 367 400 0
-474 365 400 0
474 -367 -400 0
474 -365 -367 0
474 -365 -400 0
-475 363 364 0
-475 361 364 0
-475 363 361 0
475 -363 -361 0
475 -361 -364 0
475 -363 -364 0
476 477 -478 0
476 -477 478 0
-476 -477 -478 0
-476 477 478 0
-477 402 431 0
-477 402 404 0
-477 404 431 0
477 -404 -431 0
477 -402 -431 0
477 -402 -404 0
478 -479 507 0
478 479 -507 0
-478 479 507 0
-478 -479 -507 0
479 -480 489 0
479 480 -489 0
-479 480 489 0
-479 -480 -489 0
-480 -481 -486 0
-480 481 486 0
480 481 -486 0
480 -481 486 0
-481 -482 -483 0
-481 482 483 0
481 482 -483 0
481 -482 483 0
-482 418 420 0
-482 420 422 0
-482 418 422 0
482 -420 -422 0
482 -418 -420 0
482 -418 -422 0
483 -484 485 0
483 484 -485 0
-483 484 485 0
-483 -484 -485 0
-484 359 428 0
-484 426 359 0
-484 426 428 0
484 -426 -359 0
484 -359 -428 0
484 -426 -428 0
-485 361 368 0
-485 365 368 0
-485 361 365 0
485 -361 -365 0
485 -365 -368 0
485 -361 -368 0
486 -487 488 0
486 487 -488 0
-486 487 488 0
-486 -487 -488 0
-487 417 425 0
-487 425 429 0
-487 417 429 0
487 -417 -429 0
487 -425 -429 0
487 -417 -425 0
-488 407 409 0
-488 409 410 0
-488 407 410 0
488 -407 -410 0
488 -409 -410 0
488 -407 -409 0
-489 -490 -491 0
-489 490 491 0
489 490 -491 0
489 -490 491 0
-490 406 412 0
-490 412 413 0
-490 406 413 0
490 -406 -413 0
490 -412 -413 0
490 -406 -412 0
491 -492 499 0
491 492 -499 0
-491 492 499 0
-491 -492 -499 0
-492 -493 -494 0
-492 493 494 0
492 493 -494 0
492 -493 494 0
493 443 -446 0
493 -443 446 0
-493 -443 -446 0
-493 443 446 0
494 -495 497 0
494 495 -497 0
-494 495 497 0
-494 -495 -497 0
-495 -449 -496 0
-495 449 496 0
495 449 -496 0
495 -449 496 0
496 452 -455 0
496 -452 455 0
-496 -452 -455 0
-496 452 455 0
-497 -458 -498 0
-497 458 498 0
497 458 -498 0
497 -458 498 0
498 461 -464 0
498 -461 464 0
-498 -461 -464 0
-498 461 464 0
-499 500 505 0
-499 -500 -505 0
499 -500 505 0
499 500 -505 0
-500 501 502 0
-500 -501 -502 0
500 -501 502 0
500 501 -502 0
501 -371 -374 0
-501 371 0
-501 374 0
-502 503 504 0
-502 -503 -504 0
502 -503 504 0
502 503 -504 0
-503 941 383 0
-503 926 377 0
-503 377 383 0
-503 941 377 0
-503 926 383 0
503 -377 -383 0
503 -926 -941 -383 0
503 -926 -941 -377 0
-504 386 391 0
-504 389 391 0
-504 386 389 0
504 -386 -389 0
504 -389 -391 0
504 -386 -391 0
-505 -434 -506 0
-505 434 506 0
505 434 -506 0
505 -434 506 0
506 436 -440 0
506 -436 440 0
-506 -436 -440 0
-506 436 440 0
-507 405 415 0
-507 415 416 0
-507 405 416 0
507 -415 -416 0
507 -405 -415 0
507 -405 -416 0
-508 509 550 -581 -618 0
-508 -509 -550 -581 -618 0
-508 509 550 581 618 0
-508 -509 -550 581 618 0
508 509 -550 0
508 -509 550 0
508 581 -618 0
508 -581 618 0
509 510 -511 0
509 -510 511 0
-509 -510 -511 0
-509 510 511 0
510 -434 -435 0
-510 434 0
-510 435 0
511 512 -513 0
511 -512 513 0
-511 -512 -513 0
-511 512 513 0
512 -933 -936 0
-512 933 0
-512 936 0
513 -514 515 0
513 514 -515 0
-513 514 515 0
-513 -514 -515 0
514 -932 -937 0
-514 932 0
-514 937 0
-515 516 549 0
-515 -516 -549 0
515 -516 549 0
515 516 -549 0
-516 517 518 0
-516 -517 -518 0
516 -517 518 0
516 517 -518 0
517 -931 -938 0
-517 931 0
-517 938 0
-518 519 548 0
-518 -519 -548 0
518 -519 548 0
518 519 -548 0
-519 520 521 0
-519 -520 -521 0
519 -520 521 0
519 520 -521 0
520 -930 -939 0
-520 930 0
-520 939 0
-521 522 547 0
-521 -522 -547 0
521 -522 547 0
521 522 -547 0
-522 523 524 0
-522 -523 -524 0
522 -523 524 0
522 523 -524 0
523 -929 -940 0
-523 929 0
-523 940 0
-524 525 546 0
-524 -525 -546 0
524 -525 546 0
524 525 -546 0
-525 526 527 0
-525 -526 -527 0
525 -526 527 0
525 526 -527 0
526 -928 -941 0
-526 928 0
-526 941 0
-527 528 545 0
-527 -528 -545 0
527 -528 545 0
527 528 -545 0
-528 529 530 0
-528 -529 -530 0
528 -529 530 0
528 529 -530 0
529 -927 -942 0
-529 927 0
-529 942 0
-530 531 544 0
-530 -531 -544 0
530 -531 544 0
530 531 -544 0
-531 532 533 0
-531 -532 -533 0
531 -532 533 0
531 532 -533 0
532 -926 -943 0
-532 926 0
-532 943 0
-533 534 543 0
-533 -534 -543 0
533 -534 543 0
533 534 -543 0
-534 535 536 0
-534 -535 -536 0
534 -535 536 0
534 535 -536 0
535 -925 -944 0
-535 925 0
-535 944 0
-536 537 542 0
-536 -537 -542 0
536 -537 542 0
536 537 -542 0
-537 538 539 0
-537 -538 -539 0
537 -538 539 0
537 538 -539 0
538 -924 -945 0
-538 924 0
-538 945 0
-539 540 541 0
-539 -540 -541 0
539 -540 541 0
539 540 -541 0
-540 464 466 0
-540 466 467 0
-540 464 467 0
540 -466 -467 0
540 -464 -466 0
540 -464 -467 0
-541 461 463 0
-541 463 468 0
-541 461 468 0
541 -463 -468 0
541 -461 -463 0
541 -461 -468 0
-542 458 460 0
-542 460 469 0
-542 458 469 0
542 -460 -469 0
542 -458 -460 0
542 -458 -469 0
-543 455 457 0
-543 457 470 0
-543 455 470 0
543 -457 -470 0
543 -455 -457 0
543 -455 -470 0
-544 452 454 0
-544 454 471 0
-544 452 471 0
544 -454 -471 0
544 -452 -454 0
544 -452 -471 0
-545 449 451 0
-545 451 472 0
-545 449 472 0
545 -451 -472 0
545 -449 -451 0
545 -449 -472 0
-546 446 448 0
-546 448 473 0
-546 446 473 0
546 -448 -473 0
546 -446 -448 0
546 -446 -473 0
-547 443 445 0
-547 445 474 0
-547 443 474 0
547 -445 -474 0
547 -443 -445 0
547 -443 -474 0
-548 440 442 0
-548 442 475 0
-548 440 475 0
548 -442 -475 0
548 -440 -442 0
548 -440 -475 0
-549 436 439 0
-549 438 436 0
-549 438 439 0
549 -438 -436 0
549 -436 -439 0
549 -438 -439 0
550 551 -552 0
550 -551 552 0
-550 -551 -552 0
-550 551 552 0
-551 477 507 0
-551 477 479 0
-551 479 507 0
551 -479 -507 0
551 -477 -507 0
551 -477 -479 0
552 -553 580 0
552 553 -580 0
-552 553 580 0
-552 -553 -580 0
553 -554 563 0
553 554 -563 0
-553 554 563 0
-553 -554 -563 0
-554 -555 -560 0
-554 555 560 0
554 555 -560 0
554 -555 560 0
-555 -556 -557 0
-555 556 557 0
555 556 -557 0
555 -556 557 0
-556 493 495 0
-556 495 497 0
-556 493 497 0
556 -495 -497 0
556 -493 -495 0
556 -493 -497 0
557 -558 559 0
557 558 -559 0
-557 558 559 0
-557 -558 -559 0
-558 501 503 0
-558 503 504 0
-558 501 504 0
558 -503 -504 0
558 -501 -503 0
558 -501 -504 0
-559 434 440 0
-559 436 440 0
-559 434 436 0
559 -434 -436 0
559 -436 -440 0
559 -434 -440 0
560 -561 562 0
560 561 -562 0
-560 561 562 0
-560 -561 -562 0
-561 492 500 0
-561 500 505 0
-561 492 505 0
561 -492 -505 0
561 -500 -505 0
561 -492 -500 0
-562 482 484 0
-562 484 485 0
-562 482 485 0
562 -482 -485 0
562 -484 -485 0
562 -482 -484 0
-563 -564 -565 0
-563 564 565 0
563 564 -565 0
563 -564 565 0
-564 481 487 0
-564 487 488 0
-564 481 488 0
564 -481 -488 0
564 -487 -488 0
564 -481 -487 0
565 -566 573 0
565 566 -573 0
-565 566 573 0
-565 -566 -573 0
-566 -567 -569 0
-566 567 569 0
566 567 -569 0
566 -567 569 0
-567 -523 -568 0
-567 523 568 0
567 523 -568 0
567 -523 568 0
568 526 -529 0
568 -526 529 0
-568 -526 -529 0
-568 526 529 0
569 -570 571 0
569 570 -571 0
-569 570 571 0
-569 -570 -571 0
570 -443 -446 0
-570 443 0
-570 446 0
-571 -532 -572 0
-571 532 572 0
571 532 -572 0
571 -532 572 0
572 535 -538 0
572 -535 538 0
-572 -535 -538 0
-572 535 538 0
-573 574 578 0
-573 -574 -578 0
573 -574 578 0
573 574 -578 0
574 -575 576 0
574 575 -576 0
-574 575 576 0
-574 -575 -576 0
-575 449 455 0
-575 452 455 0
-575 449 452 0
575 -449 -452 0
575 -452 -455 0
575 -449 -455 0
-576 512 577 0
-576 -512 -577 0
576 -512 577 0
576 512 -577 0
-577 944 464 0
-577 924 458 0
-577 458 464 0
-577 944 458 0
-577 924 464 0
577 -458 -464 0
577 -924 -944 -464 0
577 -924 -944 -458 0
-578 -514 -579 0
-578 514 579 0
578 514 -579 0
578 -514 579 0
579 517 -520 0
579 -517 520 0
-579 -517 -520 0
-579 517 520 0
-580 480 490 0
-580 490 491 0
-580 480 491 0
580 -490 -491 0
580 -480 -490 0
580 -480 -491 0
581 582 -583 0
581 -582 583 0
-581 -582 -583 0
-581 582 583 0
-582 936 513 0
-582 933 510 0
-582 510 513 0
-582 936 510 0
-582 933 513 0
582 -510 -513 0
582 -933 -936 -513 0
582 -933 -936 -510 0
583 584 -585 0
583 -584 585 0
-583 -584 -585 0
-583 584 585 0
584 -933 -937 0
-584 933 0
-584 937 0
585 -586 587 0
585 586 -587 0
-585 586 587 0
-585 -586 -587 0
586 -932 -938 0
-586 932 0
-586 938 0
-587 588 617 0
-587 -588 -617 0
587 -588 617 0
587 588 -617 0
-588 589 590 0
-588 -589 -590 0
588 -589 590 0
588 589 -590 0
589 -931 -939 0
-589 931 0
-589 939 0
-590 591 616 0
-590 -591 -616 0
590 -591 616 0
590 591 -616 0
-591 592 593 0
-591 -592 -593 0
591 -592 593 0
591 592 -593 0
592 -930 -940 0
-592 930 0
-592 940 0
-593 594 615 0
-593 -594 -615 0
593 -594 615 0
593 594 -615 0
-594 595 596 0
-594 -595 -596 0
594 -595 596 0
594 595 -596 0
595 -929 -941 0
-595 929 0
-595 941 0
-596 597 614 0
-596 -597 -614 0
596 -597 614 0
596 597 -614 0
-597 598 599 0
-597 -598 -599 0
597 -598 599 0
597 598 -599 0
598 -928 -942 0
-598 928 0
-598 942 0
-599 600 613 0
-599 -600 -613 0
599 -600 613 0
599 600 -613 0
-600 601 602 0
-600 -601 -602 0
600 -601 602 0
600 601 -602 0
601 -927 -943 0
-601 927 0
-601 943 0
-602 603 612 0
-602 -603 -612 0
602 -603 612 0
602 603 -612 0
-603 604 605 0
-603 -604 -605 0
603 -604 605 0
603 604 -605 0
604 -926 -944 0
-604 926 0
-604 944 0
-605 606 611 0
-605 -606 -611 0
605 -606 611 0
605 606 -611 0
-606 607 608 0
-606 -607 -608 0
606 -607 608 0
606 607 -608 0
607 -925 -945 0
-607 925 0
-607 945 0
-608 609 610 0
-608 -609 -610 0
608 -609 610 0
608 609 -610 0
-609 538 540 0
-609 540 541 0
-609 538 541 0
609 -540 -541 0
609 -538 -540 0
609 -538 -541 0
-610 535 537 0
-610 537 542 0
-610 535 542 0
610 -537 -542 0
610 -535 -537 0
610 -535 -542 0
-611 532 534 0
-611 534 543 0
-611 532 543 0
611 -534 -543 0
611 -532 -534 0
611 -532 -543 0
-612 529 531 0
-612 531 544 0
-612 529 544 0
612 -531 -544 0
612 -529 -531 0
612 -529 -544 0
-613 526 528 0
-613 528 545 0
-613 526 545 0
613 -528 -545 0
613 -526 -528 0
613 -526 -545 0
-614 523 525 0
-614 525 546 0
-614 523 546 0
614 -525 -546 0
614 -523 -525 0
614 -523 -546 0
-615 520 522 0
-615 522 547 0
-615 520 547 0
615 -522 -547 0
615 -520 -522 0
615 -520 -547 0
-616 517 519 0
-616 519 548 0
-616 517 548 0
616 -519 -548 0
616 -517 -519 0
616 -517 -548 0
-617 514 516 0
-617 516 549 0
-617 514 549 0
617 -516 -549 0
617 -514 -516 0
617 -514 -549 0
618 619 -620 0
618 -619 620 0
-618 -619 -620 0
-618 619 620 0
-619 551 580 0
-619 551 553 0
-619 553 580 0
619 -553 -580 0
619 -551 -580 0
619 -551 -553 0
620 -621 645 0
620 621 -645 0
-620 621 645 0
-620 -621 -645 0
621 -622 631 0
621 622 -631 0
-621 622 631 0
-621 -622 -631 0
-622 -623 -628 0
-622 623 628 0
622 623 -628 0
622 -623 628 0
-623 -624 -625 0
-623 624 625 0
623 624 -625 0
623 -624 625 0
-624 570 567 0
-624 567 571 0
-624 570 571 0
624 -567 -571 0
624 -570 -567 0
624 -570 -571 0
625 -626 627 0
625 626 -627 0
-625 626 627 0
-625 -626 -627 0
-626 512 575 0
-626 575 577 0
-626 512 577 0
626 -575 -577 0
626 -512 -575 0
626 -512 -577 0
-627 514 520 0
-627 517 520 0
-627 514 517 0
627 -514 -517 0
627 -517 -520 0
627 -514 -520 0
628 -629 630 0
628 629 -630 0
-628 629 630 0
-628 -629 -630 0
-629 566 578 0
-629 566 574 0
-629 574 578 0
629 -574 -578 0
629 -566 -578 0
629 -566 -574 0
-630 556 558 0
-630 558 559 0
-630 556 559 0
630 -556 -559 0
630 -558 -559 0
630 -556 -558 0
-631 -632 -633 0
-631 632 633 0
631 632 -633 0
631 -632 633 0
-632 555 561 0
-632 561 562 0
-632 555 562 0
632 -555 -562 0
632 -561 -562 0
632 -555 -561 0
633 634 -640 0
633 -634 640 0
-633 -634 -640 0
-633 634 640 0
-634 -635 -637 0
-634 635 637 0
634 635 -637 0
634 -635 637 0
-635 -601 -636 0
-635 601 636 0
635 601 -636 0
635 -601 636 0
636 604 -607 0
636 -604 607 0
-636 -604 -607 0
-636 604 607 0
637 -638 639 0
637 638 -639 0
-637 638 639 0
-637 -638 -639 0
-638 941 529 0
-638 928 523 0
-638 523 529 0
-638 941 523 0
-638 928 529 0
638 -523 -529 0
638 -928 -941 -529 0
638 -928 -941 -523 0
-639 532 538 0
-639 535 538 0
-639 532 535 0
639 -532 -535 0
639 -535 -538 0
639 -532 -538 0
640 -641 643 0
640 641 -643 0
-640 641 643 0
-640 -641 -643 0
-641 -584 -642 0
-641 584 642 0
641 584 -642 0
641 -584 642 0
642 586 -589 0
642 -586 589 0
-642 -586 -589 0
-642 586 589 0
-643 -592 -644 0
-643 592 644 0
643 592 -644 0
643 -592 644 0
644 595 -598 0
644 -595 598 0
-644 -595 -598 0
-644 595 598 0
-645 554 564 0
-645 564 565 0
-645 554 565 0
645 -564 -565 0
645 -554 -564 0
645 -554 -565 0
-646 -647 -680 705 0
-646 647 680 705 0
646 -705 0
646 -647 680 0
646 647 -680 0
647 648 -649 0
647 -648 649 0
-647 -648 -649 0
-647 648 649 0
-648 584 585 0
-648 582 584 0
-648 582 585 0
648 -582 -584 0
648 -584 -585 0
648 -582 -585 0
649 650 -651 0
649 -650 651 0
-649 -650 -651 0
-649 650 651 0
650 -933 -938 0
-650 933 0
-650 938 0
651 -652 653 0
651 652 -653 0
-651 652 653 0
-651 -652 -653 0
652 -932 -939 0
-652 932 0
-652 939 0
-653 654 679 0
-653 -654 -679 0
653 -654 679 0
653 654 -679 0
-654 655 656 0
-654 -655 -656 0
654 -655 656 0
654 655 -656 0
655 -931 -940 0
-655 931 0
-655 940 0
-656 657 678 0
-656 -657 -678 0
656 -657 678 0
656 657 -678 0
-657 658 659 0
-657 -658 -659 0
657 -658 659 0
657 658 -659 0
658 -930 -941 0
-658 930 0
-658 941 0
-659 660 677 0
-659 -660 -677 0
659 -660 677 0
659 660 -677 0
-660 661 662 0
-660 -661 -662 0
660 -661 662 0
660 661 -662 0
661 -929 -942 0
-661 929 0
-661 942 0
-662 663 676 0
-662 -663 -676 0
662 -663 676 0
662 663 -676 0
-663 664 665 0
-663 -664 -665 0
663 -664 665 0
663 664 -665 0
664 -928 -943 0
-664 928 0
-664 943 0
-665 666 675 0
-665 -666 -675 0
665 -666 675 0
665 666 -675 0
-666 667 668 0
-666 -667 -668 0
666 -667 668 0
666 667 -668 0
667 -927 -944 0
-667 927 0
-667 944 0
-668 669 674 0
-668 -669 -674 0
668 -669 674 0
668 669 -674 0
-669 670 671 0
-669 -670 -671 0
669 -670 671 0
669 670 -671 0
670 -926 -945 0
-670 926 0
-670 945 0
-671 672 673 0
-671 -672 -673 0
671 -672 673 0
671 672 -673 0
-672 607 609 0
-672 609 610 0
-672 607 610 0
672 -609 -610 0
672 -607 -609 0
672 -607 -610 0
-673 604 606 0
-673 606 611 0
-673 604 611 0
673 -606 -611 0
673 -604 -606 0
673 -604 -611 0
-674 601 603 0
-674 603 612 0
-674 601 612 0
674 -603 -612 0
674 -601 -603 0
674 -601 -612 0
-675 598 600 0
-675 600 613 0
-675 598 613 0
675 -600 -613 0
675 -598 -600 0
675 -598 -613 0
-676 595 597 0
-676 597 614 0
-676 595 614 0
676 -597 -614 0
676 -595 -597 0
676 -595 -614 0
-677 592 594 0
-677 594 615 0
-677 592 615 0
677 -594 -615 0
677 -592 -594 0
677 -592 -615 0
-678 589 591 0
-678 591 616 0
-678 589 616 0
678 -591 -616 0
678 -589 -591 0
678 -589 -616 0
-679 586 588 0
-679 588 617 0
-679 586 617 0
679 -588 -617 0
679 -586 -588 0
679 -586 -617 0
680 -681 682 0
680 681 -682 0
-680 681 682 0
-680 -681 -682 0
-681 619 645 0
-681 619 621 0
-681 621 645 0
681 -621 -645 0
681 -619 -645 0
681 -619 -621 0
-682 683 704 0
-682 -683 -704 0
682 -683 704 0
682 683 -704 0
683 -684 693 0
683 684 -693 0
-683 684 693 0
-683 -684 -693 0
-684 -685 -690 0
-684 685 690 0
684 685 -690 0
684 -685 690 0
-685 -686 -687 0
-685 686 687 0
685 686 -687 0
685 -686 687 0
-686 635 638 0
-686 638 639 0
-686 635 639 0
686 -635 -639 0
686 -638 -639 0
686 -635 -638 0
687 -688 689 0
687 688 -689 0
-687 688 689 0
-687 -688 -689 0
-688 584 589 0
-688 586 589 0
-688 584 586 0
688 -584 -586 0
688 -586 -589 0
688 -584 -589 0
-689 592 598 0
-689 595 598 0
-689 592 595 0
689 -592 -595 0
689 -595 -598 0
689 -592 -598 0
690 -691 692 0
690 691 -692 0
-690 691 692 0
-690 -691 -692 0
-691 634 641 0
-691 641 643 0
-691 634 643 0
691 -634 -643 0
691 -641 -643 0
691 -634 -641 0
-692 624 626 0
-692 626 627 0
-692 624 627 0
692 -624 -627 0
692 -626 -627 0
692 -624 -626 0
-693 -694 -695 0
-693 694 695 0
693 694 -695 0
693 -694 695 0
-694 623 629 0
-694 629 630 0
-694 623 630 0
694 -623 -630 0
694 -629 -630 0
694 -623 -629 0
695 696 -699 0
695 -696 699 0
-695 -696 -699 0
-695 696 699 0
-696 -697 -698 0
-696 697 698 0
696 697 -698 0
696 -697 698 0
-697 601 607 0
-697 604 607 0
-697 601 604 0
697 -601 -604 0
697 -604 -607 0
697 -601 -607 0
698 650 -652 0
698 -650 652 0
-698 -650 -652 0
-698 650 652 0
699 -700 702 0
699 700 -702 0
-699 700 702 0
-699 -700 -702 0
-700 -655 -701 0
-700 655 701 0
700 655 -701 0
700 -655 701 0
701 658 -661 0
701 -658 661 0
-701 -658 -661 0
-701 658 661 0
-702 -664 -703 0
-702 664 703 0
702 664 -703 0
702 -664 703 0
703 667 -670 0
703 -667 670 0
-703 -667 -670 0
-703 667 670 0
-704 622 632 0
-704 632 633 0
-704 622 633 0
704 -632 -633 0
704 -622 -632 0
704 -622 -633 0
-705 706 735 -757 -782 0
-705 -706 -735 -757 -782 0
-705 706 735 757 782 0
-705 -706 -735 757 782 0
705 706 -735 0
705 -706 735 0
705 757 -782 0
705 -757 782 0
706 707 -708 0
706 -707 708 0
-706 -707 -708 0
-706 707 708 0
-707 650 651 0
-707 648 650 0
-707 648 651 0
707 -648 -650 0
707 -650 -651 0
707 -648 -651 0
708 709 -710 0
708 -709 710 0
-708 -709 -710 0
-708 709 710 0
709 -933 -939 0
-709 933 0
-709 939 0
710 -711 712 0
710 711 -712 0
-710 711 712 0
-710 -711 -712 0
711 -932 -940 0
-711 932 0
-711 940 0
-712 713 734 0
-712 -713 -734 0
712 -713 734 0
712 713 -734 0
-713 714 715 0
-713 -714 -715 0
713 -714 715 0
713 714 -715 0
714 -931 -941 0
-714 931 0
-714 941 0
-715 716 733 0
-715 -716 -733 0
715 -716 733 0
715 716 -733 0
-716 717 718 0
-716 -717 -718 0
716 -717 718 0
716 717 -718 0
717 -930 -942 0
-717 930 0
-717 942 0
-718 719 732 0
-718 -719 -732 0
718 -719 732 0
718 719 -732 0
-719 720 721 0
-719 -720 -721 0
719 -720 721 0
719 720 -721 0
720 -929 -943 0
-720 929 0
-720 943 0
-721 722 731 0
-721 -722 -731 0
721 -722 731 0
721 722 -731 0
-722 723 724 0
-722 -723 -724 0
722 -723 724 0
722 723 -724 0
723 -928 -944 0
-723 928 0
-723 944 0
-724 725 730 0
-724 -725 -730 0
724 -725 730 0
724 725 -730 0
-725 726 727 0
-725 -726 -727 0
725 -726 727 0
725 726 -727 0
726 -927 -945 0
-726 927 0
-726 945 0
-727 728 729 0
-727 -728 -729 0
727 -728 729 0
727 728 -729 0
-728 670 672 0
-728 672 673 0
-728 670 673 0
728 -672 -673 0
728 -670 -672 0
728 -670 -673 0
-729 667 669 0
-729 669 674 0
-729 667 674 0
729 -669 -674 0
729 -667 -669 0
729 -667 -674 0
-730 664 666 0
-730 666 675 0
-730 664 675 0
730 -666 -675 0
730 -664 -666 0
730 -664 -675 0
-731 661 663 0
-731 663 676 0
-731 661 676 0
731 -663 -676 0
731 -661 -663 0
731 -661 -676 0
-732 658 660 0
-732 660 677 0
-732 658 677 0
732 -660 -677 0
732 -658 -660 0
732 -658 -677 0
-733 655 657 0
-733 657 678 0
-733 655 678 0
733 -657 -678 0
733 -655 -657 0
733 -655 -678 0
-734 652 654 0
-734 654 679 0
-734 652 679 0
734 -654 -679 0
734 -652 -654 0
734 -652 -679 0
735 -736 737 0
735 736 -737 0
-735 736 737 0
-735 -736 -737 0
-736 681 704 0
-736 681 683 0
-736 683 704 0
736 -683 -704 0
736 -681 -704 0
736 -681 -683 0
-737 738 756 0
-737 -738 -756 0
737 -738 756 0
737 738 -756 0
738 -739 747 0
738 739 -747 0
-738 739 747 0
-738 -739 -747 0
-739 -740 -744 0
-739 740 744 0
739 740 -744 0
739 -740 744 0
-740 741 742 0
-740 -741 -742 0
740 -741 742 0
740 741 -742 0
-741 655 661 0
-741 658 661 0
-741 655 658 0
741 -655 -658 0
741 -658 -661 0
741 -655 -661 0
-742 709 743 0
-742 -709 -743 0
742 -709 743 0
742 709 -743 0
-743 944 670 0
-743 927 664 0
-743 664 670 0
-743 944 664 0
-743 927 670 0
743 -664 -670 0
743 -927 -944 -670 0
743 -927 -944 -664 0
744 -745 746 0
744 745 -746 0
-744 745 746 0
-744 -745 -746 0
-745 696 700 0
-745 700 702 0
-745 696 702 0
745 -696 -702 0
745 -700 -702 0
745 -696 -700 0
-746 686 688 0
-746 688 689 0
-746 686 689 0
746 -686 -689 0
746 -688 -689 0
746 -686 -688 0
-747 -748 -749 0
-747 748 749 0
747 748 -749 0
747 -748 749 0
-748 685 691 0
-748 691 692 0
-748 685 692 0
748 -685 -692 0
748 -691 -692 0
748 -685 -691 0
749 -750 752 0
749 750 -752 0
-749 750 752 0
-749 -750 -752 0
-750 -711 -751 0
-750 711 751 0
750 711 -751 0
750 -711 751 0
751 714 -717 0
751 -714 717 0
-751 -714 -717 0
-751 714 717 0
-752 753 755 0
-752 -753 -755 0
752 -753 755 0
752 753 -755 0
-753 -720 -754 0
-753 720 754 0
753 720 -754 0
753 -720 754 0
754 723 -726 0
754 -723 726 0
-754 -723 -726 0
-754 723 726 0
-755 652 697 0
-755 650 652 0
-755 650 697 0
755 -650 -652 0
755 -652 -697 0
755 -650 -697 0
-756 684 694 0
-756 694 695 0
-756 684 695 0
756 -694 -695 0
756 -684 -694 0
756 -684 -695 0
757 758 -759 0
757 -758 759 0
-757 -758 -759 0
-757 758 759 0
-758 709 710 0
-758 707 709 0
-758 707 710 0
758 -707 -709 0
758 -709 -710 0
758 -707 -710 0
759 760 -761 0
759 -760 761 0
-759 -760 -761 0
-759 760 761 0
760 -933 -940 0
-760 933 0
-760 940 0
761 -762 763 0
761 762 -763 0
-761 762 763 0
-761 -762 -763 0
762 -932 -941 0
-762 932 0
-762 941 0
-763 764 781 0
-763 -764 -781 0
763 -764 781 0
763 764 -781 0
-764 765 766 0
-764 -765 -766 0
764 -765 766 0
764 765 -766 0
765 -931 -942 0
-765 931 0
-765 942 0
-766 767 780 0
-766 -767 -780 0
766 -767 780 0
766 767 -780 0
-767 768 769 0
-767 -768 -769 0
767 -768 769 0
767 768 -769 0
768 -930 -943 0
-768 930 0
-768 943 0
-769 770 779 0
-769 -770 -779 0
769 -770 779 0
769 770 -779 0
-770 771 772 0
-770 -771 -772 0
770 -771 772 0
770 771 -772 0
771 -929 -944 0
-771 929 0
-771 944 0
-772 773 778 0
-772 -773 -778 0
772 -773 778 0
772 773 -778 0
-773 774 775 0
-773 -774 -775 0
773 -774 775 0
773 774 -775 0
774 -928 -945 0
-774 928 0
-774 945 0
-775 776 777 0
-775 -776 -777 0
775 -776 777 0
775 776 -777 0
-776 726 728 0
-776 728 729 0
-776 726 729 0
776 -728 -729 0
776 -726 -728 0
776 -726 -729 0
-777 723 725 0
-777 725 730 0
-777 723 730 0
777 -725 -730 0
777 -723 -725 0
777 -723 -730 0
-778 720 722 0
-778 722 731 0
-778 720 731 0
778 -722 -731 0
778 -720 -722 0
778 -720 -731 0
-779 717 719 0
-779 719 732 0
-779 717 732 0
779 -719 -732 0
779 -717 -719 0
779 -717 -732 0
-780 714 716 0
-780 716 733 0
-780 714 733 0
780 -716 -733 0
780 -714 -716 0
780 -714 -733 0
-781 711 713 0
-781 713 734 0
-781 711 734 0
781 -713 -734 0
781 -711 -713 0
781 -711 -734 0
782 -783 784 0
782 783 -784 0
-782 783 784 0
-782 -783 -784 0
-783 736 756 0
-783 736 738 0
-783 738 756 0
783 -738 -756 0
783 -736 -756 0
783 -736 -738 0
-784 785 800 0
-784 -785 -800 0
784 -785 800 0
784 785 -800 0
785 -786 792 0
785 786 -792 0
-785 786 792 0
-785 -786 -792 0
-786 -787 -789 0
-786 787 789 0
786 787 -789 0
786 -787 789 0
-787 -760 -788 0
-787 760 788 0
787 760 -788 0
787 -760 788 0
788 762 -765 0
788 -762 765 0
-788 -762 -765 0
-788 762 765 0
789 -790 791 0
789 790 -791 0
-789 790 791 0
-789 -790 -791 0
-790 750 753 0
-790 753 755 0
-790 750 755 0
790 -750 -755 0
790 -753 -755 0
790 -750 -753 0
-791 709 741 0
-791 741 743 0
-791 709 743 0
791 -741 -743 0
791 -709 -741 0
791 -709 -743 0
-792 -793 -794 0
-792 793 794 0
792 793 -794 0
792 -793 794 0
-793 740 745 0
-793 745 746 0
-793 740 746 0
793 -740 -746 0
793 -745 -746 0
793 -740 -745 0
794 -795 797 0
794 795 -797 0
-794 795 797 0
-794 -795 -797 0
-795 -768 -796 0
-795 768 796 0
795 768 -796 0
795 -768 796 0
796 771 -774 0
796 -771 774 0
-796 -771 -774 0
-796 771 774 0
-797 798 799 0
-797 -798 -799 0
797 -798 799 0
797 798 -799 0
-798 711 717 0
-798 714 717 0
-798 711 714 0
798 -711 -714 0
798 -714 -717 0
798 -711 -717 0
-799 720 726 0
-799 723 726 0
-799 720 723 0
799 -720 -723 0
799 -723 -726 0
799 -720 -726 0
-800 739 748 0
-800 748 749 0
-800 739 749 0
800 -748 -749 0
800 -739 -748 0
800 -739 -749 0
-801 802 823 839 893 0
-801 -802 -823 839 893 0
801 -893 0
801 -802 823 0
801 -839 0
801 802 -823 0
802 803 -804 0
802 -803 804 0
-802 -803 -804 0
-802 803 804 0
-803 760 761 0
-803 758 760 0
-803 758 761 0
803 -758 -760 0
803 -760 -761 0
803 -758 -761 0
804 805 -806 0
804 -805 806 0
-804 -805 -806 0
-804 805 806 0
805 -933 -941 0
-805 933 0
-805 941 0
806 -807 808 0
806 807 -808 0
-806 807 808 0
-806 -807 -808 0
807 -932 -942 0
-807 932 0
-807 942 0
-808 809 822 0
-808 -809 -822 0
808 -809 822 0
808 809 -822 0
-809 810 811 0
-809 -810 -811 0
809 -810 811 0
809 810 -811 0
810 -931 -943 0
-810 931 0
-810 943 0
-811 812 821 0
-811 -812 -821 0
811 -812 821 0
811 812 -821 0
-812 813 814 0
-812 -813 -814 0
812 -813 814 0
812 813 -814 0
813 -930 -944 0
-813 930 0
-813 944 0
-814 815 820 0
-814 -815 -820 0
814 -815 820 0
814 815 -820 0
-815 816 817 0
-815 -816 -817 0
815 -816 817 0
815 816 -817 0
816 -929 -945 0
-816 929 0
-816 945 0
-817 818 819 0
-817 -818 -819 0
817 -818 819 0
817 818 -819 0
-818 774 776 0
-818 776 777 0
-818 774 777 0
818 -776 -777 0
818 -774 -776 0
818 -774 -777 0
-819 771 773 0
-819 773 778 0
-819 771 778 0
819 -773 -778 0
819 -771 -773 0
819 -771 -778 0
-820 768 770 0
-820 770 779 0
-820 768 779 0
820 -770 -779 0
820 -768 -770 0
820 -768 -779 0
-821 765 767 0
-821 767 780 0
-821 765 780 0
821 -767 -780 0
821 -765 -767 0
821 -765 -780 0
-822 762 764 0
-822 764 781 0
-822 762 781 0
822 -764 -781 0
822 -762 -764 0
822 -762 -781 0
823 -824 825 0
823 824 -825 0
-823 824 825 0
-823 -824 -825 0
-824 783 800 0
-824 783 785 0
-824 785 800 0
824 -785 -800 0
824 -783 -800 0
824 -783 -785 0
-825 826 838 0
-825 -826 -838 0
825 -826 838 0
825 826 -838 0
826 -827 833 0
826 827 -833 0
-826 827 833 0
-826 -827 -833 0
-827 -828 -830 0
-827 828 830 0
827 828 -830 0
827 -828 830 0
-828 -810 -829 0
-828 810 829 0
828 810 -829 0
828 -810 829 0
829 813 -816 0
829 -813 816 0
-829 -813 -816 0
-829 813 816 0
830 -831 832 0
830 831 -832 0
-830 831 832 0
-830 -831 -832 0
-831 795 798 0
-831 798 799 0
-831 795 799 0
831 -795 -799 0
831 -798 -799 0
831 -795 -798 0
-832 760 765 0
-832 762 765 0
-832 760 762 0
832 -760 -762 0
832 -762 -765 0
832 -760 -765 0
-833 -834 -835 0
-833 834 835 0
833 834 -835 0
833 -834 835 0
-834 787 790 0
-834 790 791 0
-834 787 791 0
834 -787 -791 0
834 -790 -791 0
834 -787 -790 0
835 836 -837 0
835 -836 837 0
-835 -836 -837 0
-835 836 837 0
-836 768 774 0
-836 771 774 0
-836 768 771 0
836 -768 -771 0
836 -771 -774 0
836 -768 -774 0
837 805 -807 0
837 -805 807 0
-837 -805 -807 0
-837 805 807 0
-838 786 793 0
-838 793 794 0
-838 786 794 0
838 -793 -794 0
838 -786 -793 0
838 -786 -794 0
-839 840 857 -870 -883 0
-839 -840 -857 -870 -883 0
-839 840 857 870 883 0
-839 -840 -857 870 883 0
839 840 -857 0
839 -840 857 0
839 870 -883 0
839 -870 883 0
840 841 -842 0
840 -841 842 0
-840 -841 -842 0
-840 841 842 0
-841 805 806 0
-841 803 805 0
-841 803 806 0
841 -803 -805 0
841 -805 -806 0
841 -803 -806 0
842 843 -844 0
842 -843 844 0
-842 -843 -844 0
-842 843 844 0
843 -933 -942 0
-843 933 0
-843 942 0
844 -845 846 0
844 845 -846 0
-844 845 846 0
-844 -845 -846 0
845 -932 -943 0
-845 932 0
-845 943 0
-846 847 856 0
-846 -847 -856 0
846 -847 856 0
846 847 -856 0
-847 848 849 0
-847 -848 -849 0
847 -848 849 0
847 848 -849 0
848 -931 -944 0
-848 931 0
-848 944 0
-849 850 855 0
-849 -850 -855 0
849 -850 855 0
849 850 -855 0
-850 851 852 0
-850 -851 -852 0
850 -851 852 0
850 851 -852 0
851 -930 -945 0
-851 930 0
-851 945 0
-852 853 854 0
-852 -853 -854 0
852 -853 854 0
852 853 -854 0
-853 816 818 0
-853 818 819 0
-853 816 819 0
853 -818 -819 0
853 -816 -818 0
853 -816 -819 0
-854 813 815 0
-854 815 820 0
-854 813 820 0
854 -815 -820 0
854 -813 -815 0
854 -813 -820 0
-855 810 812 0
-855 812 821 0
-855 810 821 0
855 -812 -821 0
855 -810 -812 0
855 -810 -821 0
-856 807 809 0
-856 809 822 0
-856 807 822 0
856 -809 -822 0
856 -807 -809 0
856 -807 -822 0
857 -858 859 0
857 858 -859 0
-857 858 859 0
-857 -858 -859 0
-858 824 838 0
-858 824 826 0
-858 826 838 0
858 -826 -838 0
858 -824 -838 0
858 -824 -826 0
-859 860 869 0
-859 -860 -869 0
859 -860 869 0
859 860 -869 0
860 -861 865 0
860 861 -865 0
-860 861 865 0
-860 -861 -865 0
-861 -862 -863 0
-861 862 863 0
861 862 -863 0
861 -862 863 0
-862 807 836 0
-862 805 807 0
-862 805 836 0
862 -805 -807 0
862 -807 -836 0
862 -805 -836 0
863 -843 864 0
863 843 -864 0
-863 843 864 0
-863 -843 -864 0
-864 810 816 0
-864 813 816 0
-864 810 813 0
864 -810 -813 0
864 -813 -816 0
864 -810 -816 0
-865 -866 -867 0
-865 866 867 0
865 866 -867 0
865 -866 867 0
-866 828 831 0
-866 831 832 0
-866 828 832 0
866 -828 -832 0
866 -831 -832 0
866 -828 -831 0
867 845 -868 0
867 -845 868 0
-867 -845 -868 0
-867 845 868 0
868 848 -851 0
868 -848 851 0
-868 -848 -851 0
-868 848 851 0
-869 827 834 0
-869 834 835 0
-869 827 835 0
869 -834 -835 0
869 -827 -834 0
869 -827 -835 0
870 871 -872 0
870 -871 872 0
-870 -871 -872 0
-870 871 872 0
-871 843 844 0
-871 841 843 0
-871 841 844 0
871 -841 -843 0
871 -843 -844 0
871 -841 -844 0
872 873 -874 0
872 -873 874 0
-872 -873 -874 0
-872 873 874 0
873 -933 -943 0
-873 933 0
-873 943 0
874 -875 876 0
874 875 -876 0
-874 875 876 0
-874 -875 -876 0
875 -932 -944 0
-875 932 0
-875 944 0
-876 877 882 0
-876 -877 -882 0
876 -877 882 0
876 877 -882 0
-877 878 879 0
-877 -878 -879 0
877 -878 879 0
877 878 -879 0
878 -931 -945 0
-878 931 0
-878 945 0
-879 880 881 0
-879 -880 -881 0
879 -880 881 0
879 880 -881 0
-880 851 853 0
-880 853 854 0
-880 851 854 0
880 -853 -854 0
880 -851 -853 0
880 -851 -854 0
-881 848 850 0
-881 850 855 0
-881 848 855 0
881 -850 -855 0
881 -848 -850 0
881 -848 -855 0
-882 845 847 0
-882 847 856 0
-882 845 856 0
882 -847 -856 0
882 -845 -847 0
882 -845 -856 0
883 -884 885 0
883 884 -885 0
-883 884 885 0
-883 -884 -885 0
-884 858 869 0
-884 858 860 0
-884 860 869 0
884 -860 -869 0
884 -858 -869 0
884 -858 -860 0
-885 886 892 0
-885 -886 -892 0
885 -886 892 0
885 886 -892 0
886 -887 889 0
886 887 -889 0
-886 887 889 0
-886 -887 -889 0
-887 -873 -888 0
-887 873 888 0
887 873 -888 0
887 -873 888 0
888 875 -878 0
888 -875 878 0
-888 -875 -878 0
-888 875 878 0
-889 890 891 0
-889 -890 -891 0
889 -890 891 0
889 890 -891 0
-890 843 862 0
-890 862 864 0
-890 843 864 0
890 -862 -864 0
890 -843 -862 0
890 -843 -864 0
-891 944 851 0
-891 931 845 0
-891 845 851 0
-891 944 845 0
-891 931 851 0
891 -845 -851 0
891 -931 -944 -851 0
891 -931 -944 -845 0
-892 861 866 0
-892 866 867 0
-892 861 867 0
892 -866 -867 0
892 -861 -866 0
892 -861 -867 0
-893 -894 -903 910 0
-893 894 903 910 0
893 -910 0
893 -894 903 0
893 894 -903 0
894 895 -896 0
894 -895 896 0
-894 -895 -896 0
-894 895 896 0
-895 873 874 0
-895 871 873 0
-895 871 874 0
895 -871 -873 0
895 -873 -874 0
895 -871 -874 0
896 897 -898 0
896 -897 898 0
-896 -897 -898 0
-896 897 898 0
897 -933 -944 0
-897 933 0
-897 944 0
898 -899 900 0
898 899 -900 0
-898 899 900 0
-898 -899 -900 0
899 -932 -945 0
-899 932 0
-899 945 0
-900 901 902 0
-900 -901 -902 0
900 -901 902 0
900 901 -902 0
-901 878 880 0
-901 880 881 0
-901 878 881 0
901 -880 -881 0
901 -878 -880 0
901 -878 -881 0
-902 875 877 0
-902 877 882 0
-902 875 882 0
902 -877 -882 0
902 -875 -877 0
902 -875 -882 0
903 -904 905 0
903 904 -905 0
-903 904 905 0
-903 -904 -905 0
-904 884 892 0
-904 884 886 0
-904 886 892 0
904 -886 -892 0
904 -884 -892 0
904 -884 -886 0
-905 906 909 0
-905 -906 -909 0
905 -906 909 0
905 906 -909 0
906 907 -908 0
906 -907 908 0
-906 -907 -908 0
-906 907 908 0
-907 944 878 0
-907 932 873 0
-907 873 878 0
-907 944 873 0
-907 932 878 0
907 -873 -878 0
907 -932 -944 -878 0
907 -932 -944 -873 0
908 897 -899 0
908 -897 899 0
-908 -897 -899 0
-908 897 899 0
-909 887 890 0
-909 890 891 0
-909 887 891 0
909 -887 -891 0
909 -890 -891 0
909 -887 -890 0
-910 911 916 920 921 0
-910 -911 -916 920 921 0
-910 911 916 -920 -921 0
-910 -911 -916 -920 -921 0
910 911 -916 0
910 -911 916 0
910 -920 921 0
910 920 -921 0
911 912 -913 0
911 -912 913 0
-911 -912 -913 0
-911 912 913 0
-912 897 898 0
-912 895 897 0
-912 895 898 0
912 -895 -897 0
912 -897 -898 0
912 -895 -898 0
913 -914 915 0
913 914 -915 0
-913 914 915 0
-913 -914 -915 0
914 -933 -945 0
-914 933 0
-914 945 0
-915 899 901 0
-915 901 902 0
-915 899 902 0
915 -901 -902 0
915 -899 -901 0
915 -899 -902 0
916 -917 918 0
916 917 -918 0
-916 917 918 0
-916 -917 -918 0
-917 904 909 0
-917 904 906 0
-917 906 909 0
917 -906 -909 0
917 -904 -909 0
917 -904 -906 0
-918 914 919 0
-918 -914 -919 0
918 -914 919 0
918 914 -919 0
-919 899 907 0
-919 897 899 0
-919 897 907 0
919 -897 -899 0
919 -899 -907 0
919 -897 -907 0
-920 912 915 0
-920 912 914 0
-920 914 915 0
920 -914 -915 0
920 -912 -915 0
920 -912 -914 0
-921 914 917 0
-921 917 919 0
-921 914 919 0
921 -917 -919 0
921 -914 -917 0
921 -914 -919 0
-946 0
2 0

