c Result of efficient AIG-to-CNF conversion using package CNF
p cnf 87 266
-2 3 23 46 51 0
2 -51 0
2 -3 0
2 -46 0
2 -23 0
-3 4 7 12 0
-3 -4 -7 12 0
3 -12 0
3 4 -7 0
3 -4 7 0
-4 77 5 0
-4 65 77 0
-4 65 5 0
4 -65 -77 0
4 -77 -5 0
4 -65 -5 0
-5 64 6 0
-5 76 6 0
-5 64 76 0
5 -64 -76 0
5 -76 -6 0
5 -64 -6 0
6 -63 -75 0
-6 63 0
-6 75 0
-7 8 9 0
7 -8 0
7 -9 0
8 -65 -77 0
-8 65 0
-8 77 0
9 -10 -11 0
-9 10 0
-9 11 0
10 65 -77 0
10 -65 77 0
-10 -65 -77 0
-10 65 77 0
-11 64 6 0
-11 76 6 0
-11 64 76 0
11 -64 -76 0
11 -76 -6 0
11 -64 -6 0
-12 -13 -14 18 19 0
-12 13 14 18 19 0
-12 -13 -14 -18 -19 0
-12 13 14 -18 -19 0
12 -13 14 0
12 13 -14 0
12 -18 19 0
12 18 -19 0
-13 78 4 0
-13 66 78 0
-13 66 4 0
13 -66 -78 0
13 -78 -4 0
13 -66 -4 0
-14 10 16 0
-14 11 16 0
-14 15 16 0
14 -16 0
14 -10 -11 -15 0
15 66 -78 0
15 -66 78 0
-15 -66 -78 0
-15 66 78 0
-16 17 15 0
-16 8 17 0
16 -17 0
16 -8 -15 0
17 -66 -78 0
-17 66 0
-17 78 0
-18 79 13 0
-18 67 79 0
-18 67 13 0
18 -67 -79 0
18 -79 -13 0
18 -67 -13 0
-19 20 21 0
19 -20 0
19 -21 0
20 -67 -79 0
-20 67 0
-20 79 0
21 -22 -14 0
-21 22 0
-21 14 0
22 67 -79 0
22 -67 79 0
-22 -67 -79 0
-22 67 79 0
-23 24 25 30 0
-23 -24 -25 30 0
23 -30 0
23 24 -25 0
23 -24 25 0
-24 80 18 0
-24 68 80 0
-24 68 18 0
24 -68 -80 0
24 -80 -18 0
24 -68 -18 0
-25 14 26 0
-25 26 29 0
25 -26 0
25 -14 -29 0
-26 27 28 0
-26 20 27 0
26 -27 0
26 -20 -28 0
27 -68 -80 0
-27 68 0
-27 80 0
28 68 -80 0
28 -68 80 0
-28 -68 -80 0
-28 68 80 0
29 -22 -28 0
-29 22 0
-29 28 0
-30 -31 -32 -36 -39 0
-30 31 32 -36 -39 0
-30 -31 -32 36 39 0
-30 31 32 36 39 0
30 -31 32 0
30 31 -32 0
30 36 -39 0
30 -36 39 0
-31 81 24 0
-31 69 81 0
-31 69 24 0
31 -69 -81 0
31 -81 -24 0
31 -69 -24 0
-32 33 34 0
32 -33 0
32 -34 0
33 -69 -81 0
-33 69 0
-33 81 0
34 -35 -25 0
-34 35 0
-34 25 0
35 69 -81 0
35 -69 81 0
-35 -69 -81 0
-35 69 81 0
36 -37 38 0
36 37 -38 0
-36 37 38 0
-36 -37 -38 0
37 71 -83 0
37 -71 83 0
-37 -71 -83 0
-37 71 83 0
-38 82 31 0
-38 70 82 0
-38 70 31 0
38 -70 -82 0
38 -82 -31 0
38 -70 -31 0
39 -37 40 0
39 37 -40 0
-39 37 40 0
-39 -37 -40 0
-40 29 43 0
-40 41 43 0
-40 14 43 0
40 -43 0
40 -14 -29 -41 0
41 -35 -42 0
-41 35 0
-41 42 0
42 70 -82 0
42 -70 82 0
-42 -70 -82 0
-42 70 82 0
-43 33 44 45 0
-43 44 42 45 0
43 -45 0
43 -44 0
43 -33 -42 0
44 -70 -82 0
-44 70 0
-44 82 0
45 -26 -41 0
-45 26 0
-45 41 0
-46 47 48 0
-46 -47 -48 0
46 -47 48 0
46 47 -48 0
-47 83 38 0
-47 71 83 0
-47 71 38 0
47 -71 -83 0
47 -83 -38 0
47 -71 -38 0
-48 49 50 0
48 -49 0
48 -50 0
49 -71 -83 0
-49 71 0
-49 83 0
50 -37 -40 0
-50 37 0
-50 40 0
-51 52 55 60 61 0
-51 -52 -55 60 61 0
-51 52 55 -60 -61 0
-51 -52 -55 -60 -61 0
51 52 -55 0
51 -52 55 0
51 -60 61 0
51 60 -61 0
52 -53 54 0
52 53 -54 0
-52 53 54 0
-52 -53 -54 0
53 73 -85 0
53 -73 85 0
-53 -73 -85 0
-53 73 85 0
-54 84 47 0
-54 72 84 0
-54 72 47 0
54 -72 -84 0
54 -84 -47 0
54 -72 -47 0
55 -53 56 0
55 53 -56 0
-55 53 56 0
-55 -53 -56 0
-56 37 58 0
-56 40 58 0
-56 57 58 0
56 -58 0
56 -37 -40 -57 0
57 72 -84 0
57 -72 84 0
-57 -72 -84 0
-57 72 84 0
-58 59 57 0
-58 49 59 0
58 -59 0
58 -49 -57 0
59 -72 -84 0
-59 72 0
-59 84 0
-60 85 54 0
-60 73 85 0
-60 73 54 0
60 -73 -85 0
60 -85 -54 0
60 -73 -54 0
-61 73 62 0
-61 85 62 0
61 -62 0
61 -73 -85 0
62 -53 -56 0
-62 53 0
-62 56 0
-87 0
2 0

