c Result of efficient AIG-to-CNF conversion using package CNF
p cnf 99 307
-2 3 23 43 58 0
2 -58 0
2 -3 0
2 -43 0
2 -23 0
-3 4 7 12 0
-3 -4 -7 12 0
3 -12 0
3 4 -7 0
3 -4 7 0
-4 88 5 0
-4 75 88 0
-4 75 5 0
4 -75 -88 0
4 -88 -5 0
4 -75 -5 0
-5 74 6 0
-5 87 6 0
-5 74 87 0
5 -74 -87 0
5 -87 -6 0
5 -74 -6 0
6 -73 -86 0
-6 73 0
-6 86 0
-7 8 9 0
7 -8 0
7 -9 0
8 -75 -88 0
-8 75 0
-8 88 0
9 -10 -11 0
-9 10 0
-9 11 0
10 75 -88 0
10 -75 88 0
-10 -75 -88 0
-10 75 88 0
-11 74 6 0
-11 87 6 0
-11 74 87 0
11 -74 -87 0
11 -87 -6 0
11 -74 -6 0
-12 -13 -14 18 19 0
-12 13 14 18 19 0
-12 -13 -14 -18 -19 0
-12 13 14 -18 -19 0
12 -13 14 0
12 13 -14 0
12 -18 19 0
12 18 -19 0
-13 89 4 0
-13 76 89 0
-13 76 4 0
13 -76 -89 0
13 -89 -4 0
13 -76 -4 0
-14 10 16 0
-14 11 16 0
-14 15 16 0
14 -16 0
14 -10 -11 -15 0
15 76 -89 0
15 -76 89 0
-15 -76 -89 0
-15 76 89 0
-16 17 15 0
-16 8 17 0
16 -17 0
16 -8 -15 0
17 -76 -89 0
-17 76 0
-17 89 0
-18 90 13 0
-18 77 90 0
-18 77 13 0
18 -77 -90 0
18 -90 -13 0
18 -77 -13 0
-19 20 21 0
19 -20 0
19 -21 0
20 -77 -90 0
-20 77 0
-20 90 0
21 -22 -14 0
-21 22 0
-21 14 0
22 77 -90 0
22 -77 90 0
-22 -77 -90 0
-22 77 90 0
-23 24 25 30 0
-23 -24 -25 30 0
23 -30 0
23 24 -25 0
23 -24 25 0
-24 91 18 0
-24 78 91 0
-24 78 18 0
24 -78 -91 0
24 -91 -18 0
24 -78 -18 0
-25 14 26 0
-25 26 29 0
25 -26 0
25 -14 -29 0
-26 27 28 0
-26 20 27 0
26 -27 0
26 -20 -28 0
27 -78 -91 0
-27 78 0
-27 91 0
28 78 -91 0
28 -78 91 0
-28 -78 -91 0
-28 78 91 0
29 -22 -28 0
-29 22 0
-29 28 0
-30 -31 -32 36 37 0
-30 31 32 36 37 0
-30 -31 -32 -36 -37 0
-30 31 32 -36 -37 0
30 -31 32 0
30 31 -32 0
30 -36 37 0
30 36 -37 0
-31 92 24 0
-31 79 92 0
-31 79 24 0
31 -79 -92 0
31 -92 -24 0
31 -79 -24 0
-32 33 34 0
32 -33 0
32 -34 0
33 -79 -92 0
-33 79 0
-33 92 0
34 -35 -25 0
-34 35 0
-34 25 0
35 79 -92 0
35 -79 92 0
-35 -79 -92 0
-35 79 92 0
-36 93 31 0
-36 80 93 0
-36 80 31 0
36 -80 -93 0
36 -93 -31 0
36 -80 -31 0
-37 29 40 0
-37 38 40 0
-37 14 40 0
37 -40 0
37 -14 -29 -38 0
38 -35 -39 0
-38 35 0
-38 39 0
39 80 -93 0
39 -80 93 0
-39 -80 -93 0
-39 80 93 0
-40 33 41 42 0
-40 41 39 42 0
40 -42 0
40 -41 0
40 -33 -39 0
41 -80 -93 0
-41 80 0
-41 93 0
42 -26 -38 0
-42 26 0
-42 38 0
-43 -44 -45 -49 -52 0
-43 44 45 -49 -52 0
-43 -44 -45 49 52 0
-43 44 45 49 52 0
43 -44 45 0
43 44 -45 0
43 49 -52 0
43 -49 52 0
-44 94 36 0
-44 81 94 0
-44 81 36 0
44 -81 -94 0
44 -94 -36 0
44 -81 -36 0
-45 46 47 0
45 -46 0
45 -47 0
46 -81 -94 0
-46 81 0
-46 94 0
47 -48 -37 0
-47 48 0
-47 37 0
48 81 -94 0
48 -81 94 0
-48 -81 -94 0
-48 81 94 0
49 -50 51 0
49 50 -51 0
-49 50 51 0
-49 -50 -51 0
50 83 -96 0
50 -83 96 0
-50 -83 -96 0
-50 83 96 0
-51 95 44 0
-51 82 95 0
-51 82 44 0
51 -82 -95 0
51 -95 -44 0
51 -82 -44 0
52 -50 53 0
52 50 -53 0
-52 50 53 0
-52 -50 -53 0
-53 37 54 0
-53 54 57 0
53 -54 0
53 -37 -57 0
-54 55 56 0
-54 46 55 0
54 -55 0
54 -46 -56 0
55 -82 -95 0
-55 82 0
-55 95 0
56 82 -95 0
56 -82 95 0
-56 -82 -95 0
-56 82 95 0
57 -48 -56 0
-57 48 0
-57 56 0
-58 -59 -60 -63 -66 0
-58 59 60 -63 -66 0
-58 -59 -60 63 66 0
-58 59 60 63 66 0
58 -59 60 0
58 59 -60 0
58 63 -66 0
58 -63 66 0
-59 96 51 0
-59 83 96 0
-59 83 51 0
59 -83 -96 0
59 -96 -51 0
59 -83 -51 0
-60 61 62 0
60 -61 0
60 -62 0
61 -83 -96 0
-61 83 0
-61 96 0
62 -50 -53 0
-62 50 0
-62 53 0
63 -64 65 0
63 64 -65 0
-63 64 65 0
-63 -64 -65 0
64 85 -98 0
64 -85 98 0
-64 -85 -98 0
-64 85 98 0
-65 97 59 0
-65 84 97 0
-65 84 59 0
65 -84 -97 0
65 -97 -59 0
65 -84 -59 0
66 -64 67 0
66 64 -67 0
-66 64 67 0
-66 -64 -67 0
-67 57 70 0
-67 68 70 0
-67 37 70 0
67 -70 0
67 -37 -57 -68 0
68 -50 -69 0
-68 50 0
-68 69 0
69 84 -97 0
69 -84 97 0
-69 -84 -97 0
-69 84 97 0
-70 61 71 72 0
-70 71 69 72 0
70 -72 0
70 -71 0
70 -61 -69 0
71 -84 -97 0
-71 84 0
-71 97 0
72 -54 -68 0
-72 54 0
-72 68 0
-99 0
2 0

