c Result of efficient AIG-to-CNF conversion using package CNF
p cnf 65 183
2 39 -52 0
2 -39 52 0
-2 -39 -52 0
-2 39 52 0
3 4 -5 0
3 -4 5 0
-3 -4 -5 0
-3 4 5 0
4 -39 -52 0
-4 39 0
-4 52 0
5 40 -53 0
5 -40 53 0
-5 -40 -53 0
-5 40 53 0
6 -7 8 0
6 7 -8 0
-6 7 8 0
-6 -7 -8 0
7 41 -54 0
7 -41 54 0
-7 -41 -54 0
-7 41 54 0
-8 40 4 0
-8 53 4 0
-8 40 53 0
8 -40 -53 0
8 -53 -4 0
8 -40 -4 0
9 -10 11 0
9 10 -11 0
-9 10 11 0
-9 -10 -11 0
10 42 -55 0
10 -42 55 0
-10 -42 -55 0
-10 42 55 0
-11 54 8 0
-11 41 54 0
-11 41 8 0
11 -41 -54 0
11 -54 -8 0
11 -41 -8 0
12 -13 14 0
12 13 -14 0
-12 13 14 0
-12 -13 -14 0
13 43 -56 0
13 -43 56 0
-13 -43 -56 0
-13 43 56 0
-14 55 11 0
-14 42 55 0
-14 42 11 0
14 -42 -55 0
14 -55 -11 0
14 -42 -11 0
15 -16 17 0
15 16 -17 0
-15 16 17 0
-15 -16 -17 0
16 44 -57 0
16 -44 57 0
-16 -44 -57 0
-16 44 57 0
-17 56 14 0
-17 43 56 0
-17 43 14 0
17 -43 -56 0
17 -56 -14 0
17 -43 -14 0
18 -19 20 0
18 19 -20 0
-18 19 20 0
-18 -19 -20 0
19 45 -58 0
19 -45 58 0
-19 -45 -58 0
-19 45 58 0
-20 57 17 0
-20 44 57 0
-20 44 17 0
20 -44 -57 0
20 -57 -17 0
20 -44 -17 0
21 -22 23 0
21 22 -23 0
-21 22 23 0
-21 -22 -23 0
22 46 -59 0
22 -46 59 0
-22 -46 -59 0
-22 46 59 0
-23 58 20 0
-23 45 58 0
-23 45 20 0
23 -45 -58 0
23 -58 -20 0
23 -45 -20 0
24 -25 26 0
24 25 -26 0
-24 25 26 0
-24 -25 -26 0
25 47 -60 0
25 -47 60 0
-25 -47 -60 0
-25 47 60 0
-26 59 23 0
-26 46 59 0
-26 46 23 0
26 -46 -59 0
26 -59 -23 0
26 -46 -23 0
27 -28 29 0
27 28 -29 0
-27 28 29 0
-27 -28 -29 0
28 48 -61 0
28 -48 61 0
-28 -48 -61 0
-28 48 61 0
-29 60 26 0
-29 47 60 0
-29 47 26 0
29 -47 -60 0
29 -60 -26 0
29 -47 -26 0
30 -31 32 0
30 31 -32 0
-30 31 32 0
-30 -31 -32 0
31 49 -62 0
31 -49 62 0
-31 -49 -62 0
-31 49 62 0
-32 61 29 0
-32 48 61 0
-32 48 29 0
32 -48 -61 0
32 -61 -29 0
32 -48 -29 0
33 -34 35 0
33 34 -35 0
-33 34 35 0
-33 -34 -35 0
34 50 -63 0
34 -50 63 0
-34 -50 -63 0
-34 50 63 0
-35 62 32 0
-35 49 62 0
-35 49 32 0
35 -49 -62 0
35 -62 -32 0
35 -49 -32 0
36 -37 38 0
36 37 -38 0
-36 37 38 0
-36 -37 -38 0
37 51 -64 0
37 -51 64 0
-37 -51 -64 0
-37 51 64 0
-38 63 35 0
-38 50 63 0
-38 50 35 0
38 -50 -63 0
38 -63 -35 0
38 -50 -35 0
-65 0
2 0
3 0
6 0
9 0
12 0
15 0
18 0
21 0
24 0
27 0
30 0
33 0
36 0

