c Result of efficient AIG-to-CNF conversion using package CNF
p cnf 790 3381
-2 3 57 358 647 0
2 -647 0
2 -3 0
2 -358 0
2 -57 0
-3 4 0
3 -4 0
-4 5 24 -32 -47 0
-4 -5 -24 -32 -47 0
-4 5 24 32 47 0
-4 -5 -24 32 47 0
4 5 -24 0
4 -5 24 0
4 32 -47 0
4 -32 47 0
5 6 -7 0
5 -6 7 0
-5 -6 -7 0
-5 6 7 0
6 -771 -779 0
-6 771 0
-6 779 0
7 -8 9 0
7 8 -9 0
-7 8 9 0
-7 -8 -9 0
8 -770 -780 0
-8 770 0
-8 780 0
-9 -10 -19 0
-9 10 19 0
9 10 -19 0
9 -10 19 0
10 -11 -12 0
-10 11 0
-10 12 0
11 -770 -779 0
-11 770 0
-11 779 0
12 -13 14 0
12 13 -14 0
-12 13 14 0
-12 -13 -14 0
13 -769 -780 0
-13 769 0
-13 780 0
-14 -15 -18 0
-14 15 18 0
14 15 -18 0
14 -15 18 0
15 -16 -17 0
-15 16 0
-15 17 0
16 -769 -779 0
-16 769 0
-16 779 0
17 -768 -780 0
-17 768 0
-17 780 0
18 -768 -781 0
-18 768 0
-18 781 0
19 20 -21 0
19 -20 21 0
-19 -20 -21 0
-19 20 21 0
20 -769 -781 0
-20 769 0
-20 781 0
21 -22 23 0
21 22 -23 0
-21 22 23 0
-21 -22 -23 0
22 -768 -782 0
-22 768 0
-22 782 0
-23 15 18 0
-23 13 18 0
-23 15 13 0
23 -15 -13 0
23 -13 -18 0
23 -15 -18 0
24 -25 27 0
24 25 -27 0
-24 25 27 0
-24 -25 -27 0
-25 11 26 0
-25 15 11 0
-25 15 26 0
25 -15 -11 0
25 -11 -26 0
25 -15 -26 0
-26 -13 -18 0
-26 13 18 0
26 13 -18 0
26 -13 18 0
-27 28 29 0
-27 -28 -29 0
27 -28 29 0
27 28 -29 0
28 -13 -18 0
-28 13 0
-28 18 0
-29 -30 -31 0
-29 30 31 0
29 30 -31 0
29 -30 31 0
-30 -20 -22 0
-30 20 22 0
30 20 -22 0
30 -20 22 0
31 6 -8 0
31 -6 8 0
-31 -6 -8 0
-31 6 8 0
32 33 -34 0
32 -33 34 0
-32 -33 -34 0
-32 33 34 0
33 -772 -779 0
-33 772 0
-33 779 0
34 -35 36 0
34 35 -36 0
-34 35 36 0
-34 -35 -36 0
35 -771 -780 0
-35 771 0
-35 780 0
-36 37 38 0
-36 -37 -38 0
36 -37 38 0
36 37 -38 0
37 -6 -7 0
-37 6 0
-37 7 0
-38 39 40 0
-38 -39 -40 0
38 -39 40 0
38 39 -40 0
39 -770 -781 0
-39 770 0
-39 781 0
-40 41 46 0
-40 -41 -46 0
40 -41 46 0
40 41 -46 0
-41 -42 -43 0
-41 42 43 0
41 42 -43 0
41 -42 43 0
42 -769 -782 0
-42 769 0
-42 782 0
43 -44 45 0
43 44 -45 0
-43 44 45 0
-43 -44 -45 0
44 -768 -783 0
-44 768 0
-44 783 0
-45 22 23 0
-45 20 22 0
-45 20 23 0
45 -20 -22 0
45 -22 -23 0
45 -20 -23 0
-46 10 19 0
-46 8 19 0
-46 10 8 0
46 -10 -8 0
46 -8 -19 0
46 -10 -19 0
47 -48 49 0
47 48 -49 0
-47 48 49 0
-47 -48 -49 0
-48 28 25 0
-48 25 29 0
-48 28 29 0
48 -25 -29 0
48 -28 -25 0
48 -28 -29 0
-49 50 56 0
-49 -50 -56 0
49 -50 56 0
49 50 -56 0
-50 -51 -53 0
-50 51 53 0
50 51 -53 0
50 -51 53 0
-51 33 52 0
-51 -33 -52 0
51 -33 52 0
51 33 -52 0
-52 -35 -39 0
-52 35 39 0
52 35 -39 0
52 -35 39 0
53 54 -55 0
53 -54 55 0
-53 -54 -55 0
-53 54 55 0
54 -20 -22 0
-54 20 0
-54 22 0
55 42 -44 0
55 -42 44 0
-55 -42 -44 0
-55 42 44 0
-56 8 30 0
-56 6 8 0
-56 6 30 0
56 -6 -8 0
56 -8 -30 0
56 -6 -30 0
-57 58 77 90 176 0
-57 -58 -77 90 176 0
57 -176 0
57 -58 77 0
57 -90 0
57 58 -77 0
58 59 -60 0
58 -59 60 0
-58 -59 -60 0
-58 59 60 0
59 -773 -779 0
-59 773 0
-59 779 0
60 -61 62 0
60 61 -62 0
-60 61 62 0
-60 -61 -62 0
61 -772 -780 0
-61 772 0
-61 780 0
-62 63 64 0
-62 -63 -64 0
62 -63 64 0
62 63 -64 0
63 -33 -34 0
-63 33 0
-63 34 0
-64 65 66 0
-64 -65 -66 0
64 -65 66 0
64 65 -66 0
65 -771 -781 0
-65 771 0
-65 781 0
-66 67 76 0
-66 -67 -76 0
66 -67 76 0
66 67 -76 0
-67 68 69 0
-67 -68 -69 0
67 -68 69 0
67 68 -69 0
68 -770 -782 0
-68 770 0
-68 782 0
-69 70 75 0
-69 -70 -75 0
69 -70 75 0
69 70 -75 0
-70 -71 -72 0
-70 71 72 0
70 71 -72 0
70 -71 72 0
71 -769 -783 0
-71 769 0
-71 783 0
72 -73 74 0
72 73 -74 0
-72 73 74 0
-72 -73 -74 0
73 -768 -784 0
-73 768 0
-73 784 0
-74 44 45 0
-74 42 44 0
-74 42 45 0
74 -42 -44 0
74 -44 -45 0
74 -42 -45 0
-75 39 41 0
-75 41 46 0
-75 39 46 0
75 -41 -46 0
75 -39 -41 0
75 -39 -46 0
-76 35 38 0
-76 37 35 0
-76 37 38 0
76 -37 -35 0
76 -35 -38 0
76 -37 -38 0
77 78 -79 0
77 -78 79 0
-77 -78 -79 0
-77 78 79 0
-78 48 50 0
-78 50 56 0
-78 48 56 0
78 -48 -56 0
78 -50 -56 0
78 -48 -50 0
79 -80 89 0
79 80 -89 0
-79 80 89 0
-79 -80 -89 0
80 -81 86 0
80 81 -86 0
-80 81 86 0
-80 -81 -86 0
-81 -82 -84 0
-81 82 84 0
81 82 -84 0
81 -82 84 0
-82 -68 -83 0
-82 68 83 0
82 68 -83 0
82 -68 83 0
83 71 -73 0
83 -71 73 0
-83 -71 -73 0
-83 71 73 0
84 85 -59 0
84 -85 59 0
-84 -85 -59 0
-84 85 59 0
85 -42 -44 0
-85 42 0
-85 44 0
-86 -87 -88 0
-86 87 88 0
86 87 -88 0
86 -87 88 0
-87 33 39 0
-87 35 39 0
-87 33 35 0
87 -33 -35 0
87 -35 -39 0
87 -33 -39 0
88 61 -65 0
88 -61 65 0
-88 -61 -65 0
-88 61 65 0
-89 22 55 0
-89 20 51 0
-89 22 51 0
-89 51 55 0
-89 20 55 0
89 -51 -55 0
89 -20 -22 -55 0
89 -20 -22 -51 0
-90 91 114 -130 -158 0
-90 -91 -114 -130 -158 0
-90 91 114 130 158 0
-90 -91 -114 130 158 0
90 91 -114 0
90 -91 114 0
90 130 -158 0
90 -130 158 0
91 92 -93 0
91 -92 93 0
-91 -92 -93 0
-91 92 93 0
92 -774 -779 0
-92 774 0
-92 779 0
93 -94 95 0
93 94 -95 0
-93 94 95 0
-93 -94 -95 0
94 -773 -780 0
-94 773 0
-94 780 0
-95 96 97 0
-95 -96 -97 0
95 -96 97 0
95 96 -97 0
96 -59 -60 0
-96 59 0
-96 60 0
-97 98 99 0
-97 -98 -99 0
97 -98 99 0
97 98 -99 0
98 -772 -781 0
-98 772 0
-98 781 0
-99 100 113 0
-99 -100 -113 0
99 -100 113 0
99 100 -113 0
-100 101 102 0
-100 -101 -102 0
100 -101 102 0
100 101 -102 0
101 -771 -782 0
-101 771 0
-101 782 0
-102 103 112 0
-102 -103 -112 0
102 -103 112 0
102 103 -112 0
-103 104 105 0
-103 -104 -105 0
103 -104 105 0
103 104 -105 0
104 -770 -783 0
-104 770 0
-104 783 0
-105 106 111 0
-105 -106 -111 0
105 -106 111 0
105 106 -111 0
-106 -107 -108 0
-106 107 108 0
106 107 -108 0
106 -107 108 0
107 -769 -784 0
-107 769 0
-107 784 0
108 -109 110 0
108 109 -110 0
-108 109 110 0
-108 -109 -110 0
109 -768 -785 0
-109 768 0
-109 785 0
-110 73 74 0
-110 71 73 0
-110 71 74 0
110 -71 -73 0
110 -73 -74 0
110 -71 -74 0
-111 68 70 0
-111 70 75 0
-111 68 75 0
111 -70 -75 0
111 -68 -70 0
111 -68 -75 0
-112 65 67 0
-112 67 76 0
-112 65 76 0
112 -67 -76 0
112 -65 -67 0
112 -65 -76 0
-113 61 64 0
-113 63 61 0
-113 63 64 0
113 -63 -61 0
113 -61 -64 0
113 -63 -64 0
114 -115 116 0
114 115 -116 0
-114 115 116 0
-114 -115 -116 0
-115 78 89 0
-115 78 80 0
-115 80 89 0
115 -80 -89 0
115 -78 -89 0
115 -78 -80 0
-116 117 129 0
-116 -117 -129 0
116 -117 129 0
116 117 -129 0
117 -118 124 0
117 118 -124 0
-117 118 124 0
-117 -118 -124 0
-118 -119 -121 0
-118 119 121 0
118 119 -121 0
118 -119 121 0
-119 -98 -120 0
-119 98 120 0
119 98 -120 0
119 -98 120 0
120 101 -104 0
120 -101 104 0
-120 -101 -104 0
-120 101 104 0
121 -122 123 0
121 122 -123 0
-121 122 123 0
-121 -122 -123 0
122 -61 -65 0
-122 61 0
-122 65 0
-123 68 73 0
-123 71 73 0
-123 68 71 0
123 -68 -71 0
123 -71 -73 0
123 -68 -73 0
-124 -125 -126 0
-124 125 126 0
124 125 -126 0
124 -125 126 0
-125 773 82 0
-125 85 82 0
-125 773 85 0
-125 779 82 0
-125 779 85 0
125 -85 -82 0
125 -773 -779 -82 0
125 -773 -779 -85 0
126 127 -128 0
126 -127 128 0
-126 -127 -128 0
-126 127 128 0
127 107 -109 0
127 -107 109 0
-127 -107 -109 0
-127 107 109 0
128 92 -94 0
128 -92 94 0
-128 -92 -94 0
-128 92 94 0
-129 81 87 0
-129 87 88 0
-129 81 88 0
129 -87 -88 0
129 -81 -87 0
129 -81 -88 0
130 131 -132 0
130 -131 132 0
-130 -131 -132 0
-130 131 132 0
131 -775 -779 0
-131 775 0
-131 779 0
132 -133 134 0
132 133 -134 0
-132 133 134 0
-132 -133 -134 0
133 -774 -780 0
-133 774 0
-133 780 0
-134 135 136 0
-134 -135 -136 0
134 -135 136 0
134 135 -136 0
135 -92 -93 0
-135 92 0
-135 93 0
-136 137 138 0
-136 -137 -138 0
136 -137 138 0
136 137 -138 0
137 -773 -781 0
-137 773 0
-137 781 0
-138 139 157 0
-138 -139 -157 0
138 -139 157 0
138 139 -157 0
-139 140 141 0
-139 -140 -141 0
139 -140 141 0
139 140 -141 0
140 -772 -782 0
-140 772 0
-140 782 0
-141 142 156 0
-141 -142 -156 0
141 -142 156 0
141 142 -156 0
-142 143 144 0
-142 -143 -144 0
142 -143 144 0
142 143 -144 0
143 -771 -783 0
-143 771 0
-143 783 0
-144 145 155 0
-144 -145 -155 0
144 -145 155 0
144 145 -155 0
-145 146 147 0
-145 -146 -147 0
145 -146 147 0
145 146 -147 0
146 -770 -784 0
-146 770 0
-146 784 0
-147 148 154 0
-147 -148 -154 0
147 -148 154 0
147 148 -154 0
-148 -149 -150 0
-148 149 150 0
148 149 -150 0
148 -149 150 0
149 -769 -785 0
-149 769 0
-149 785 0
150 -151 152 0
150 151 -152 0
-150 151 152 0
-150 -151 -152 0
151 -768 -786 0
-151 768 0
-151 786 0
-152 110 153 0
-152 107 109 153 0
152 -153 0
152 -109 -110 0
152 -107 -110 0
153 -107 -109 0
-153 107 0
-153 109 0
-154 104 106 0
-154 106 111 0
-154 104 111 0
154 -106 -111 0
154 -104 -106 0
154 -104 -111 0
-155 101 103 0
-155 103 112 0
-155 101 112 0
155 -103 -112 0
155 -101 -103 0
155 -101 -112 0
-156 98 100 0
-156 100 113 0
-156 98 113 0
156 -100 -113 0
156 -98 -100 0
156 -98 -113 0
-157 94 97 0
-157 96 94 0
-157 96 97 0
157 -96 -94 0
157 -94 -97 0
157 -96 -97 0
158 159 -160 0
158 -159 160 0
-158 -159 -160 0
-158 159 160 0
-159 115 129 0
-159 115 117 0
-159 117 129 0
159 -117 -129 0
159 -115 -129 0
159 -115 -117 0
160 -161 175 0
160 161 -175 0
-160 161 175 0
-160 -161 -175 0
161 -162 168 0
161 162 -168 0
-161 162 168 0
-161 -162 -168 0
-162 -163 -165 0
-162 163 165 0
162 163 -165 0
162 -163 165 0
-163 -131 -164 0
-163 131 164 0
163 131 -164 0
163 -131 164 0
164 133 -137 0
164 -133 137 0
-164 -133 -137 0
-164 133 137 0
165 -166 167 0
165 166 -167 0
-165 166 167 0
-165 -166 -167 0
-166 92 127 0
-166 94 127 0
-166 92 94 0
166 -92 -94 0
166 -94 -127 0
166 -92 -127 0
-167 782 104 0
-167 771 98 0
-167 98 104 0
-167 782 98 0
-167 771 104 0
167 -98 -104 0
167 -771 -782 -104 0
167 -771 -782 -98 0
-168 -169 -170 0
-168 169 170 0
168 169 -170 0
168 -169 170 0
-169 122 119 0
-169 119 123 0
-169 122 123 0
169 -119 -123 0
169 -122 -119 0
169 -122 -123 0
170 -171 172 0
170 171 -172 0
-170 171 172 0
-170 -171 -172 0
171 140 -143 0
171 -140 143 0
-171 -140 -143 0
-171 140 143 0
-172 153 173 0
-172 -153 -173 0
172 -153 173 0
172 153 -173 0
-173 -146 -174 0
-173 146 174 0
173 146 -174 0
173 -146 174 0
174 149 -151 0
174 -149 151 0
-174 -149 -151 0
-174 149 151 0
-175 118 125 0
-175 125 126 0
-175 118 126 0
175 -125 -126 0
175 -118 -125 0
175 -118 -126 0
-176 -177 -208 230 0
-176 177 208 230 0
176 -230 0
176 -177 208 0
176 177 -208 0
177 178 -179 0
177 -178 179 0
-177 -178 -179 0
-177 178 179 0
178 -776 -779 0
-178 776 0
-178 779 0
179 -180 181 0
179 180 -181 0
-179 180 181 0
-179 -180 -181 0
180 -775 -780 0
-180 775 0
-180 780 0
-181 182 183 0
-181 -182 -183 0
181 -182 183 0
181 182 -183 0
182 -131 -132 0
-182 131 0
-182 132 0
-183 184 185 0
-183 -184 -185 0
183 -184 185 0
183 184 -185 0
184 -774 -781 0
-184 774 0
-184 781 0
-185 186 207 0
-185 -186 -207 0
185 -186 207 0
185 186 -207 0
-186 187 188 0
-186 -187 -188 0
186 -187 188 0
186 187 -188 0
187 -773 -782 0
-187 773 0
-187 782 0
-188 189 206 0
-188 -189 -206 0
188 -189 206 0
188 189 -206 0
-189 190 191 0
-189 -190 -191 0
189 -190 191 0
189 190 -191 0
190 -772 -783 0
-190 772 0
-190 783 0
-191 192 205 0
-191 -192 -205 0
191 -192 205 0
191 192 -205 0
-192 193 194 0
-192 -193 -194 0
192 -193 194 0
192 193 -194 0
193 -771 -784 0
-193 771 0
-193 784 0
-194 195 204 0
-194 -195 -204 0
194 -195 204 0
194 195 -204 0
-195 196 197 0
-195 -196 -197 0
195 -196 197 0
195 196 -197 0
196 -770 -785 0
-196 770 0
-196 785 0
-197 198 203 0
-197 -198 -203 0
197 -198 203 0
197 198 -203 0
-198 -199 -200 0
-198 199 200 0
198 199 -200 0
198 -199 200 0
199 -769 -786 0
-199 769 0
-199 786 0
200 -201 202 0
200 201 -202 0
-200 201 202 0
-200 -201 -202 0
201 -768 -787 0
-201 768 0
-201 787 0
-202 151 152 0
-202 149 151 0
-202 149 152 0
202 -149 -151 0
202 -151 -152 0
202 -149 -152 0
-203 146 148 0
-203 148 154 0
-203 146 154 0
203 -148 -154 0
203 -146 -148 0
203 -146 -154 0
-204 143 145 0
-204 145 155 0
-204 143 155 0
204 -145 -155 0
204 -143 -145 0
204 -143 -155 0
-205 140 142 0
-205 142 156 0
-205 140 156 0
205 -142 -156 0
205 -140 -142 0
205 -140 -156 0
-206 137 139 0
-206 139 157 0
-206 137 157 0
206 -139 -157 0
206 -137 -139 0
206 -137 -157 0
-207 133 136 0
-207 135 133 0
-207 135 136 0
207 -135 -133 0
207 -133 -136 0
207 -135 -136 0
208 209 -210 0
208 -209 210 0
-208 -209 -210 0
-208 209 210 0
-209 159 175 0
-209 159 161 0
-209 161 175 0
209 -161 -175 0
209 -159 -175 0
209 -159 -161 0
210 -211 229 0
210 211 -229 0
-210 211 229 0
-210 -211 -229 0
211 -212 220 0
211 212 -220 0
-211 212 220 0
-211 -212 -220 0
-212 -213 -217 0
-212 213 217 0
212 213 -217 0
212 -213 217 0
-213 214 215 0
-213 -214 -215 0
213 -214 215 0
213 214 -215 0
214 -140 -143 0
-214 140 0
-214 143 0
-215 178 216 0
-215 -178 -216 0
215 -178 216 0
215 178 -216 0
-216 146 151 0
-216 149 151 0
-216 146 149 0
216 -146 -149 0
216 -149 -151 0
216 -146 -151 0
217 -218 219 0
217 218 -219 0
-217 218 219 0
-217 -218 -219 0
-218 171 173 0
-218 153 171 0
-218 153 173 0
218 -153 -171 0
218 -171 -173 0
218 -153 -173 0
-219 779 137 0
-219 775 133 0
-219 133 137 0
-219 779 133 0
-219 775 137 0
219 -133 -137 0
219 -775 -779 -137 0
219 -775 -779 -133 0
-220 -221 -222 0
-220 221 222 0
220 221 -222 0
220 -221 222 0
-221 163 166 0
-221 166 167 0
-221 163 167 0
221 -163 -167 0
221 -166 -167 0
221 -163 -166 0
222 223 -224 0
222 -223 224 0
-222 -223 -224 0
-222 223 224 0
223 180 -184 0
223 -180 184 0
-223 -180 -184 0
-223 180 184 0
224 -225 227 0
224 225 -227 0
-224 225 227 0
-224 -225 -227 0
-225 -187 -226 0
-225 187 226 0
225 187 -226 0
225 -187 226 0
226 190 -193 0
226 -190 193 0
-226 -190 -193 0
-226 190 193 0
-227 -196 -228 0
-227 196 228 0
227 196 -228 0
227 -196 228 0
228 199 -201 0
228 -199 201 0
-228 -199 -201 0
-228 199 201 0
-229 162 169 0
-229 169 170 0
-229 162 170 0
229 -169 -170 0
229 -162 -169 0
229 -162 -170 0
-230 231 266 -291 -330 0
-230 -231 -266 -291 -330 0
-230 231 266 291 330 0
-230 -231 -266 291 330 0
230 231 -266 0
230 -231 266 0
230 291 -330 0
230 -291 330 0
231 232 -233 0
231 -232 233 0
-231 -232 -233 0
-231 232 233 0
232 -777 -779 0
-232 777 0
-232 779 0
233 -234 235 0
233 234 -235 0
-233 234 235 0
-233 -234 -235 0
234 -776 -780 0
-234 776 0
-234 780 0
-235 236 237 0
-235 -236 -237 0
235 -236 237 0
235 236 -237 0
236 -178 -179 0
-236 178 0
-236 179 0
-237 238 239 0
-237 -238 -239 0
237 -238 239 0
237 238 -239 0
238 -775 -781 0
-238 775 0
-238 781 0
-239 240 265 0
-239 -240 -265 0
239 -240 265 0
239 240 -265 0
-240 241 242 0
-240 -241 -242 0
240 -241 242 0
240 241 -242 0
241 -774 -782 0
-241 774 0
-241 782 0
-242 243 264 0
-242 -243 -264 0
242 -243 264 0
242 243 -264 0
-243 244 245 0
-243 -244 -245 0
243 -244 245 0
243 244 -245 0
244 -773 -783 0
-244 773 0
-244 783 0
-245 246 263 0
-245 -246 -263 0
245 -246 263 0
245 246 -263 0
-246 247 248 0
-246 -247 -248 0
246 -247 248 0
246 247 -248 0
247 -772 -784 0
-247 772 0
-247 784 0
-248 249 262 0
-248 -249 -262 0
248 -249 262 0
248 249 -262 0
-249 250 251 0
-249 -250 -251 0
249 -250 251 0
249 250 -251 0
250 -771 -785 0
-250 771 0
-250 785 0
-251 252 261 0
-251 -252 -261 0
251 -252 261 0
251 252 -261 0
-252 253 254 0
-252 -253 -254 0
252 -253 254 0
252 253 -254 0
253 -770 -786 0
-253 770 0
-253 786 0
-254 255 260 0
-254 -255 -260 0
254 -255 260 0
254 255 -260 0
-255 -256 -257 0
-255 256 257 0
255 256 -257 0
255 -256 257 0
256 -769 -787 0
-256 769 0
-256 787 0
257 -258 259 0
257 258 -259 0
-257 258 259 0
-257 -258 -259 0
258 -768 -788 0
-258 768 0
-258 788 0
-259 201 202 0
-259 199 201 0
-259 199 202 0
259 -199 -201 0
259 -201 -202 0
259 -199 -202 0
-260 196 198 0
-260 198 203 0
-260 196 203 0
260 -198 -203 0
260 -196 -198 0
260 -196 -203 0
-261 193 195 0
-261 195 204 0
-261 193 204 0
261 -195 -204 0
261 -193 -195 0
261 -193 -204 0
-262 190 192 0
-262 192 205 0
-262 190 205 0
262 -192 -205 0
262 -190 -192 0
262 -190 -205 0
-263 187 189 0
-263 189 206 0
-263 187 206 0
263 -189 -206 0
263 -187 -189 0
263 -187 -206 0
-264 184 186 0
-264 186 207 0
-264 184 207 0
264 -186 -207 0
264 -184 -186 0
264 -184 -207 0
-265 180 183 0
-265 182 180 0
-265 182 183 0
265 -182 -180 0
265 -180 -183 0
265 -182 -183 0
266 267 -268 0
266 -267 268 0
-266 -267 -268 0
-266 267 268 0
-267 209 229 0
-267 209 211 0
-267 211 229 0
267 -211 -229 0
267 -209 -229 0
267 -209 -211 0
268 -269 290 0
268 269 -290 0
-268 269 290 0
-268 -269 -290 0
269 -270 279 0
269 270 -279 0
-269 270 279 0
-269 -270 -279 0
-270 -271 -276 0
-270 271 276 0
270 271 -276 0
270 -271 276 0
-271 272 273 0
-271 -272 -273 0
271 -272 273 0
271 272 -273 0
272 -180 -184 0
-272 180 0
-272 184 0
-273 274 275 0
-273 -274 -275 0
273 -274 275 0
273 274 -275 0
-274 783 193 0
-274 772 187 0
-274 187 193 0
-274 783 187 0
-274 772 193 0
274 -187 -193 0
274 -772 -783 -193 0
274 -772 -783 -187 0
-275 196 201 0
-275 199 201 0
-275 196 199 0
275 -196 -199 0
275 -199 -201 0
275 -196 -201 0
276 -277 278 0
276 277 -278 0
-276 277 278 0
-276 -277 -278 0
-277 223 225 0
-277 225 227 0
-277 223 227 0
277 -225 -227 0
277 -223 -225 0
277 -223 -227 0
-278 178 216 0
-278 214 178 0
-278 214 216 0
278 -214 -178 0
278 -178 -216 0
278 -214 -216 0
-279 -280 -281 0
-279 280 281 0
279 280 -281 0
279 -280 281 0
-280 213 218 0
-280 218 219 0
-280 213 219 0
280 -213 -219 0
280 -218 -219 0
280 -213 -218 0
281 282 -285 0
281 -282 285 0
-281 -282 -285 0
-281 282 285 0
-282 -283 -284 0
-282 283 284 0
282 283 -284 0
282 -283 284 0
283 256 -258 0
283 -256 258 0
-283 -256 -258 0
-283 256 258 0
284 232 -234 0
284 -232 234 0
-284 -232 -234 0
-284 232 234 0
285 -286 288 0
285 286 -288 0
-285 286 288 0
-285 -286 -288 0
-286 -238 -287 0
-286 238 287 0
286 238 -287 0
286 -238 287 0
287 241 -244 0
287 -241 244 0
-287 -241 -244 0
-287 241 244 0
-288 -247 -289 0
-288 247 289 0
288 247 -289 0
288 -247 289 0
289 250 -253 0
289 -250 253 0
-289 -250 -253 0
-289 250 253 0
-290 212 221 0
-290 221 222 0
-290 212 222 0
290 -221 -222 0
290 -212 -221 0
290 -212 -222 0
291 292 -293 0
291 -292 293 0
-291 -292 -293 0
-291 292 293 0
292 -778 -779 0
-292 778 0
-292 779 0
293 294 -295 0
293 -294 295 0
-293 -294 -295 0
-293 294 295 0
294 -777 -780 0
-294 777 0
-294 780 0
295 296 -297 0
295 -296 297 0
-295 -296 -297 0
-295 296 297 0
296 -232 -233 0
-296 232 0
-296 233 0
297 -298 299 0
297 298 -299 0
-297 298 299 0
-297 -298 -299 0
298 -776 -781 0
-298 776 0
-298 781 0
-299 300 329 0
-299 -300 -329 0
299 -300 329 0
299 300 -329 0
-300 301 302 0
-300 -301 -302 0
300 -301 302 0
300 301 -302 0
301 -775 -782 0
-301 775 0
-301 782 0
-302 303 328 0
-302 -303 -328 0
302 -303 328 0
302 303 -328 0
-303 304 305 0
-303 -304 -305 0
303 -304 305 0
303 304 -305 0
304 -774 -783 0
-304 774 0
-304 783 0
-305 306 327 0
-305 -306 -327 0
305 -306 327 0
305 306 -327 0
-306 307 308 0
-306 -307 -308 0
306 -307 308 0
306 307 -308 0
307 -773 -784 0
-307 773 0
-307 784 0
-308 309 326 0
-308 -309 -326 0
308 -309 326 0
308 309 -326 0
-309 310 311 0
-309 -310 -311 0
309 -310 311 0
309 310 -311 0
310 -772 -785 0
-310 772 0
-310 785 0
-311 312 325 0
-311 -312 -325 0
311 -312 325 0
311 312 -325 0
-312 313 314 0
-312 -313 -314 0
312 -313 314 0
312 313 -314 0
313 -771 -786 0
-313 771 0
-313 786 0
-314 315 324 0
-314 -315 -324 0
314 -315 324 0
314 315 -324 0
-315 316 317 0
-315 -316 -317 0
315 -316 317 0
315 316 -317 0
316 -770 -787 0
-316 770 0
-316 787 0
-317 318 323 0
-317 -318 -323 0
317 -318 323 0
317 318 -323 0
-318 -319 -320 0
-318 319 320 0
318 319 -320 0
318 -319 320 0
319 -769 -788 0
-319 769 0
-319 788 0
320 -321 322 0
320 321 -322 0
-320 321 322 0
-320 -321 -322 0
321 -768 -789 0
-321 768 0
-321 789 0
-322 258 259 0
-322 256 258 0
-322 256 259 0
322 -256 -258 0
322 -258 -259 0
322 -256 -259 0
-323 253 255 0
-323 255 260 0
-323 253 260 0
323 -255 -260 0
323 -253 -255 0
323 -253 -260 0
-324 250 252 0
-324 252 261 0
-324 250 261 0
324 -252 -261 0
324 -250 -252 0
324 -250 -261 0
-325 247 249 0
-325 249 262 0
-325 247 262 0
325 -249 -262 0
325 -247 -249 0
325 -247 -262 0
-326 244 246 0
-326 246 263 0
-326 244 263 0
326 -246 -263 0
326 -244 -246 0
326 -244 -263 0
-327 241 243 0
-327 243 264 0
-327 241 264 0
327 -243 -264 0
327 -241 -243 0
327 -241 -264 0
-328 238 240 0
-328 240 265 0
-328 238 265 0
328 -240 -265 0
328 -238 -240 0
328 -238 -265 0
-329 234 237 0
-329 236 234 0
-329 236 237 0
329 -236 -234 0
329 -234 -237 0
329 -236 -237 0
330 331 -332 0
330 -331 332 0
-330 -331 -332 0
-330 331 332 0
-331 267 290 0
-331 267 269 0
-331 269 290 0
331 -269 -290 0
331 -267 -290 0
331 -267 -269 0
332 -333 357 0
332 333 -357 0
-332 333 357 0
-332 -333 -357 0
333 -334 343 0
333 334 -343 0
-333 334 343 0
-333 -334 -343 0
-334 -335 -340 0
-334 335 340 0
334 335 -340 0
334 -335 340 0
-335 -336 -337 0
-335 336 337 0
335 336 -337 0
335 -336 337 0
-336 232 283 0
-336 234 283 0
-336 232 234 0
336 -232 -234 0
336 -234 -283 0
336 -232 -283 0
337 -338 339 0
337 338 -339 0
-337 338 339 0
-337 -338 -339 0
-338 238 244 0
-338 241 244 0
-338 238 241 0
338 -238 -241 0
338 -241 -244 0
338 -238 -244 0
-339 785 253 0
-339 771 247 0
-339 247 253 0
-339 785 247 0
-339 771 253 0
339 -247 -253 0
339 -771 -785 -253 0
339 -771 -785 -247 0
340 -341 342 0
340 341 -342 0
-340 341 342 0
-340 -341 -342 0
-341 282 286 0
-341 286 288 0
-341 282 288 0
341 -282 -288 0
341 -286 -288 0
341 -282 -286 0
-342 272 274 0
-342 274 275 0
-342 272 275 0
342 -274 -275 0
342 -272 -274 0
342 -272 -275 0
-343 -344 -345 0
-343 344 345 0
343 344 -345 0
343 -344 345 0
-344 271 277 0
-344 277 278 0
-344 271 278 0
344 -271 -278 0
344 -277 -278 0
344 -271 -277 0
345 346 -352 0
345 -346 352 0
-345 -346 -352 0
-345 346 352 0
-346 -347 -348 0
-346 347 348 0
346 347 -348 0
346 -347 348 0
347 310 -313 0
347 -310 313 0
-347 -310 -313 0
-347 310 313 0
348 -349 350 0
348 349 -350 0
-348 349 350 0
-348 -349 -350 0
349 -256 -258 0
-349 256 0
-349 258 0
-350 -316 -351 0
-350 316 351 0
350 316 -351 0
350 -316 351 0
351 319 -321 0
351 -319 321 0
-351 -319 -321 0
-351 319 321 0
352 -353 355 0
352 353 -355 0
-352 353 355 0
-352 -353 -355 0
-353 -292 -354 0
-353 292 354 0
353 292 -354 0
353 -292 354 0
354 294 -298 0
354 -294 298 0
-354 -294 -298 0
-354 294 298 0
-355 -301 -356 0
-355 301 356 0
355 301 -356 0
355 -301 356 0
356 304 -307 0
356 -304 307 0
-356 -304 -307 0
-356 304 307 0
-357 270 280 0
-357 280 281 0
-357 270 281 0
357 -280 -281 0
357 -270 -280 0
357 -270 -281 0
-358 359 493 526 551 0
-358 359 -493 -526 551 0
358 -551 0
358 -493 526 0
358 -359 0
358 493 -526 0
-359 360 399 -428 -465 0
-359 -360 -399 -428 -465 0
-359 360 399 428 465 0
-359 -360 -399 428 465 0
359 360 -399 0
359 -360 399 0
359 428 -465 0
359 -428 465 0
360 -361 362 0
360 361 -362 0
-360 361 362 0
-360 -361 -362 0
361 -778 -780 0
-361 778 0
-361 780 0
-362 363 364 0
-362 -363 -364 0
362 -363 364 0
362 363 -364 0
363 -777 -781 0
-363 777 0
-363 781 0
-364 365 366 0
-364 -365 -366 0
364 -365 366 0
364 365 -366 0
365 -292 -293 0
-365 292 0
-365 293 0
-366 367 368 0
-366 -367 -368 0
366 -367 368 0
366 367 -368 0
367 -776 -782 0
-367 776 0
-367 782 0
-368 369 398 0
-368 -369 -398 0
368 -369 398 0
368 369 -398 0
-369 370 371 0
-369 -370 -371 0
369 -370 371 0
369 370 -371 0
370 -775 -783 0
-370 775 0
-370 783 0
-371 372 397 0
-371 -372 -397 0
371 -372 397 0
371 372 -397 0
-372 373 374 0
-372 -373 -374 0
372 -373 374 0
372 373 -374 0
373 -774 -784 0
-373 774 0
-373 784 0
-374 375 396 0
-374 -375 -396 0
374 -375 396 0
374 375 -396 0
-375 376 377 0
-375 -376 -377 0
375 -376 377 0
375 376 -377 0
376 -773 -785 0
-376 773 0
-376 785 0
-377 378 395 0
-377 -378 -395 0
377 -378 395 0
377 378 -395 0
-378 379 380 0
-378 -379 -380 0
378 -379 380 0
378 379 -380 0
379 -772 -786 0
-379 772 0
-379 786 0
-380 381 394 0
-380 -381 -394 0
380 -381 394 0
380 381 -394 0
-381 382 383 0
-381 -382 -383 0
381 -382 383 0
381 382 -383 0
382 -771 -787 0
-382 771 0
-382 787 0
-383 384 393 0
-383 -384 -393 0
383 -384 393 0
383 384 -393 0
-384 385 386 0
-384 -385 -386 0
384 -385 386 0
384 385 -386 0
385 -770 -788 0
-385 770 0
-385 788 0
-386 387 392 0
-386 -387 -392 0
386 -387 392 0
386 387 -392 0
-387 388 389 0
-387 -388 -389 0
387 -388 389 0
387 388 -389 0
388 -769 -789 0
-388 769 0
-388 789 0
-389 390 391 0
-389 -390 -391 0
389 -390 391 0
389 390 -391 0
-390 321 322 0
-390 319 321 0
-390 319 322 0
390 -319 -321 0
390 -321 -322 0
390 -319 -322 0
-391 316 318 0
-391 318 323 0
-391 316 323 0
391 -318 -323 0
391 -316 -318 0
391 -316 -323 0
-392 313 315 0
-392 315 324 0
-392 313 324 0
392 -315 -324 0
392 -313 -315 0
392 -313 -324 0
-393 310 312 0
-393 312 325 0
-393 310 325 0
393 -312 -325 0
393 -310 -312 0
393 -310 -325 0
-394 307 309 0
-394 309 326 0
-394 307 326 0
394 -309 -326 0
394 -307 -309 0
394 -307 -326 0
-395 304 306 0
-395 306 327 0
-395 304 327 0
395 -306 -327 0
395 -304 -306 0
395 -304 -327 0
-396 301 303 0
-396 303 328 0
-396 301 328 0
396 -303 -328 0
396 -301 -303 0
396 -301 -328 0
-397 298 300 0
-397 300 329 0
-397 298 329 0
397 -300 -329 0
397 -298 -300 0
397 -298 -329 0
-398 296 297 0
-398 294 297 0
-398 296 294 0
398 -296 -294 0
398 -294 -297 0
398 -296 -297 0
399 -400 401 0
399 400 -401 0
-399 400 401 0
-399 -400 -401 0
-400 331 357 0
-400 331 333 0
-400 333 357 0
400 -333 -357 0
400 -331 -357 0
400 -331 -333 0
-401 402 427 0
-401 -402 -427 0
401 -402 427 0
401 402 -427 0
402 -403 412 0
402 403 -412 0
-402 403 412 0
-402 -403 -412 0
-403 -404 -409 0
-403 404 409 0
403 404 -409 0
403 -404 409 0
-404 -405 -406 0
-404 405 406 0
404 405 -406 0
404 -405 406 0
-405 347 350 0
-405 349 347 0
-405 349 350 0
405 -349 -347 0
405 -347 -350 0
405 -349 -350 0
406 -407 408 0
406 407 -408 0
-406 407 408 0
-406 -407 -408 0
-407 292 298 0
-407 294 298 0
-407 292 294 0
407 -292 -294 0
407 -294 -298 0
407 -292 -298 0
-408 301 307 0
-408 304 307 0
-408 301 304 0
408 -301 -304 0
408 -304 -307 0
408 -301 -307 0
409 -410 411 0
409 410 -411 0
-409 410 411 0
-409 -410 -411 0
-410 346 353 0
-410 353 355 0
-410 346 355 0
410 -346 -355 0
410 -353 -355 0
410 -346 -353 0
-411 336 338 0
-411 338 339 0
-411 336 339 0
411 -336 -339 0
411 -338 -339 0
411 -336 -338 0
-412 -413 -414 0
-412 413 414 0
412 413 -414 0
412 -413 414 0
-413 335 341 0
-413 341 342 0
-413 335 342 0
413 -335 -342 0
413 -341 -342 0
413 -335 -341 0
414 -415 421 0
414 415 -421 0
-414 415 421 0
-414 -415 -421 0
-415 -416 -417 0
-415 416 417 0
415 416 -417 0
415 -416 417 0
416 376 -379 0
416 -376 379 0
-416 -376 -379 0
-416 376 379 0
417 -418 419 0
417 418 -419 0
-417 418 419 0
-417 -418 -419 0
418 -310 -313 0
-418 310 0
-418 313 0
-419 -382 -420 0
-419 382 420 0
419 382 -420 0
419 -382 420 0
420 385 -388 0
420 -385 388 0
-420 -385 -388 0
-420 385 388 0
-421 422 425 0
-421 -422 -425 0
421 -422 425 0
421 422 -425 0
422 423 -424 0
422 -423 424 0
-422 -423 -424 0
-422 423 424 0
-423 316 321 0
-423 319 321 0
-423 316 319 0
423 -316 -319 0
423 -319 -321 0
423 -316 -321 0
424 361 -363 0
424 -361 363 0
-424 -361 -363 0
-424 361 363 0
-425 -367 -426 0
-425 367 426 0
425 367 -426 0
425 -367 426 0
426 370 -373 0
426 -370 373 0
-426 -370 -373 0
-426 370 373 0
-427 334 344 0
-427 344 345 0
-427 334 345 0
427 -344 -345 0
427 -334 -344 0
427 -334 -345 0
428 429 -430 0
428 -429 430 0
-428 -429 -430 0
-428 429 430 0
429 -361 -362 0
-429 361 0
-429 362 0
430 431 -432 0
430 -431 432 0
-430 -431 -432 0
-430 431 432 0
431 -778 -781 0
-431 778 0
-431 781 0
432 -433 434 0
432 433 -434 0
-432 433 434 0
-432 -433 -434 0
433 -777 -782 0
-433 777 0
-433 782 0
-434 435 464 0
-434 -435 -464 0
434 -435 464 0
434 435 -464 0
-435 436 437 0
-435 -436 -437 0
435 -436 437 0
435 436 -437 0
436 -776 -783 0
-436 776 0
-436 783 0
-437 438 463 0
-437 -438 -463 0
437 -438 463 0
437 438 -463 0
-438 439 440 0
-438 -439 -440 0
438 -439 440 0
438 439 -440 0
439 -775 -784 0
-439 775 0
-439 784 0
-440 441 462 0
-440 -441 -462 0
440 -441 462 0
440 441 -462 0
-441 442 443 0
-441 -442 -443 0
441 -442 443 0
441 442 -443 0
442 -774 -785 0
-442 774 0
-442 785 0
-443 444 461 0
-443 -444 -461 0
443 -444 461 0
443 444 -461 0
-444 445 446 0
-444 -445 -446 0
444 -445 446 0
444 445 -446 0
445 -773 -786 0
-445 773 0
-445 786 0
-446 447 460 0
-446 -447 -460 0
446 -447 460 0
446 447 -460 0
-447 448 449 0
-447 -448 -449 0
447 -448 449 0
447 448 -449 0
448 -772 -787 0
-448 772 0
-448 787 0
-449 450 459 0
-449 -450 -459 0
449 -450 459 0
449 450 -459 0
-450 451 452 0
-450 -451 -452 0
450 -451 452 0
450 451 -452 0
451 -771 -788 0
-451 771 0
-451 788 0
-452 453 458 0
-452 -453 -458 0
452 -453 458 0
452 453 -458 0
-453 454 455 0
-453 -454 -455 0
453 -454 455 0
453 454 -455 0
454 -770 -789 0
-454 770 0
-454 789 0
-455 456 457 0
-455 -456 -457 0
455 -456 457 0
455 456 -457 0
-456 388 390 0
-456 390 391 0
-456 388 391 0
456 -390 -391 0
456 -388 -390 0
456 -388 -391 0
-457 385 387 0
-457 387 392 0
-457 385 392 0
457 -387 -392 0
457 -385 -387 0
457 -385 -392 0
-458 382 384 0
-458 384 393 0
-458 382 393 0
458 -384 -393 0
458 -382 -384 0
458 -382 -393 0
-459 379 381 0
-459 381 394 0
-459 379 394 0
459 -381 -394 0
459 -379 -381 0
459 -379 -394 0
-460 376 378 0
-460 378 395 0
-460 376 395 0
460 -378 -395 0
460 -376 -378 0
460 -376 -395 0
-461 373 375 0
-461 375 396 0
-461 373 396 0
461 -375 -396 0
461 -373 -375 0
461 -373 -396 0
-462 370 372 0
-462 372 397 0
-462 370 397 0
462 -372 -397 0
462 -370 -372 0
462 -370 -397 0
-463 367 369 0
-463 369 398 0
-463 367 398 0
463 -369 -398 0
463 -367 -369 0
463 -367 -398 0
-464 363 366 0
-464 365 363 0
-464 365 366 0
464 -365 -363 0
464 -363 -366 0
464 -365 -366 0
465 466 -467 0
465 -466 467 0
-465 -466 -467 0
-465 466 467 0
-466 400 427 0
-466 400 402 0
-466 402 427 0
466 -402 -427 0
466 -400 -427 0
466 -400 -402 0
467 -468 492 0
467 468 -492 0
-467 468 492 0
-467 -468 -492 0
468 -469 478 0
468 469 -478 0
-468 469 478 0
-468 -469 -478 0
-469 -470 -475 0
-469 470 475 0
469 470 -475 0
469 -470 475 0
-470 -471 -472 0
-470 471 472 0
470 471 -472 0
470 -471 472 0
-471 416 419 0
-471 418 416 0
-471 418 419 0
471 -418 -416 0
471 -416 -419 0
471 -418 -419 0
472 -473 474 0
472 473 -474 0
-472 473 474 0
-472 -473 -474 0
-473 363 423 0
-473 361 363 0
-473 361 423 0
473 -361 -363 0
473 -363 -423 0
473 -361 -423 0
-474 367 373 0
-474 370 373 0
-474 367 370 0
474 -367 -370 0
474 -370 -373 0
474 -367 -373 0
475 -476 477 0
475 476 -477 0
-475 476 477 0
-475 -476 -477 0
-476 415 425 0
-476 415 422 0
-476 422 425 0
476 -422 -425 0
476 -415 -425 0
476 -415 -422 0
-477 405 407 0
-477 407 408 0
-477 405 408 0
477 -405 -408 0
477 -407 -408 0
477 -405 -407 0
-478 -479 -480 0
-478 479 480 0
478 479 -480 0
478 -479 480 0
-479 404 410 0
-479 410 411 0
-479 404 411 0
479 -404 -411 0
479 -410 -411 0
479 -404 -410 0
480 481 -487 0
480 -481 487 0
-480 -481 -487 0
-480 481 487 0
-481 -482 -484 0
-481 482 484 0
481 482 -484 0
481 -482 484 0
-482 -448 -483 0
-482 448 483 0
482 448 -483 0
482 -448 483 0
483 451 -454 0
483 -451 454 0
-483 -451 -454 0
-483 451 454 0
484 -485 486 0
484 485 -486 0
-484 485 486 0
-484 -485 -486 0
485 -376 -379 0
-485 376 0
-485 379 0
-486 788 388 0
-486 770 382 0
-486 382 388 0
-486 788 382 0
-486 770 388 0
486 -382 -388 0
486 -770 -788 -388 0
486 -770 -788 -382 0
487 -488 490 0
487 488 -490 0
-487 488 490 0
-487 -488 -490 0
-488 -431 -489 0
-488 431 489 0
488 431 -489 0
488 -431 489 0
489 433 -436 0
489 -433 436 0
-489 -433 -436 0
-489 433 436 0
-490 -439 -491 0
-490 439 491 0
490 439 -491 0
490 -439 491 0
491 442 -445 0
491 -442 445 0
-491 -442 -445 0
-491 442 445 0
-492 403 413 0
-492 413 414 0
-492 403 414 0
492 -413 -414 0
492 -403 -413 0
492 -403 -414 0
493 494 -495 0
493 -494 495 0
-493 -494 -495 0
-493 494 495 0
-494 781 432 0
-494 778 429 0
-494 429 432 0
-494 781 429 0
-494 778 432 0
494 -429 -432 0
494 -778 -781 -432 0
494 -778 -781 -429 0
495 496 -497 0
495 -496 497 0
-495 -496 -497 0
-495 496 497 0
496 -778 -782 0
-496 778 0
-496 782 0
497 -498 499 0
497 498 -499 0
-497 498 499 0
-497 -498 -499 0
498 -777 -783 0
-498 777 0
-498 783 0
-499 500 525 0
-499 -500 -525 0
499 -500 525 0
499 500 -525 0
-500 501 502 0
-500 -501 -502 0
500 -501 502 0
500 501 -502 0
501 -776 -784 0
-501 776 0
-501 784 0
-502 503 524 0
-502 -503 -524 0
502 -503 524 0
502 503 -524 0
-503 504 505 0
-503 -504 -505 0
503 -504 505 0
503 504 -505 0
504 -775 -785 0
-504 775 0
-504 785 0
-505 506 523 0
-505 -506 -523 0
505 -506 523 0
505 506 -523 0
-506 507 508 0
-506 -507 -508 0
506 -507 508 0
506 507 -508 0
507 -774 -786 0
-507 774 0
-507 786 0
-508 509 522 0
-508 -509 -522 0
508 -509 522 0
508 509 -522 0
-509 510 511 0
-509 -510 -511 0
509 -510 511 0
509 510 -511 0
510 -773 -787 0
-510 773 0
-510 787 0
-511 512 521 0
-511 -512 -521 0
511 -512 521 0
511 512 -521 0
-512 513 514 0
-512 -513 -514 0
512 -513 514 0
512 513 -514 0
513 -772 -788 0
-513 772 0
-513 788 0
-514 515 520 0
-514 -515 -520 0
514 -515 520 0
514 515 -520 0
-515 516 517 0
-515 -516 -517 0
515 -516 517 0
515 516 -517 0
516 -771 -789 0
-516 771 0
-516 789 0
-517 518 519 0
-517 -518 -519 0
517 -518 519 0
517 518 -519 0
-518 454 456 0
-518 456 457 0
-518 454 457 0
518 -456 -457 0
518 -454 -456 0
518 -454 -457 0
-519 451 453 0
-519 453 458 0
-519 451 458 0
519 -453 -458 0
519 -451 -453 0
519 -451 -458 0
-520 448 450 0
-520 450 459 0
-520 448 459 0
520 -450 -459 0
520 -448 -450 0
520 -448 -459 0
-521 445 447 0
-521 447 460 0
-521 445 460 0
521 -447 -460 0
521 -445 -447 0
521 -445 -460 0
-522 442 444 0
-522 444 461 0
-522 442 461 0
522 -444 -461 0
522 -442 -444 0
522 -442 -461 0
-523 439 441 0
-523 441 462 0
-523 439 462 0
523 -441 -462 0
523 -439 -441 0
523 -439 -462 0
-524 436 438 0
-524 438 463 0
-524 436 463 0
524 -438 -463 0
524 -436 -438 0
524 -436 -463 0
-525 433 435 0
-525 435 464 0
-525 433 464 0
525 -435 -464 0
525 -433 -435 0
525 -433 -464 0
526 527 -528 0
526 -527 528 0
-526 -527 -528 0
-526 527 528 0
-527 466 492 0
-527 466 468 0
-527 468 492 0
527 -468 -492 0
527 -466 -492 0
527 -466 -468 0
528 -529 550 0
528 529 -550 0
-528 529 550 0
-528 -529 -550 0
529 -530 539 0
529 530 -539 0
-529 530 539 0
-529 -530 -539 0
-530 -531 -536 0
-530 531 536 0
530 531 -536 0
530 -531 536 0
-531 -532 -533 0
-531 532 533 0
531 532 -533 0
531 -532 533 0
-532 485 482 0
-532 482 486 0
-532 485 486 0
532 -482 -486 0
532 -485 -482 0
532 -485 -486 0
533 -534 535 0
533 534 -535 0
-533 534 535 0
-533 -534 -535 0
-534 782 436 0
-534 777 431 0
-534 431 436 0
-534 782 431 0
-534 777 436 0
534 -431 -436 0
534 -777 -782 -436 0
534 -777 -782 -431 0
-535 785 445 0
-535 774 439 0
-535 439 445 0
-535 785 439 0
-535 774 445 0
535 -439 -445 0
535 -774 -785 -445 0
535 -774 -785 -439 0
536 -537 538 0
536 537 -538 0
-536 537 538 0
-536 -537 -538 0
-537 481 488 0
-537 488 490 0
-537 481 490 0
537 -481 -490 0
537 -488 -490 0
537 -481 -488 0
-538 471 473 0
-538 473 474 0
-538 471 474 0
538 -471 -474 0
538 -473 -474 0
538 -471 -473 0
-539 -540 -541 0
-539 540 541 0
539 540 -541 0
539 -540 541 0
-540 470 476 0
-540 476 477 0
-540 470 477 0
540 -470 -477 0
540 -476 -477 0
540 -470 -476 0
541 542 -545 0
541 -542 545 0
-541 -542 -545 0
-541 542 545 0
-542 -543 -544 0
-542 543 544 0
542 543 -544 0
542 -543 544 0
-543 448 454 0
-543 451 454 0
-543 448 451 0
543 -448 -451 0
543 -451 -454 0
543 -448 -454 0
544 496 -498 0
544 -496 498 0
-544 -496 -498 0
-544 496 498 0
545 -546 548 0
545 546 -548 0
-545 546 548 0
-545 -546 -548 0
-546 -501 -547 0
-546 501 547 0
546 501 -547 0
546 -501 547 0
547 504 -507 0
547 -504 507 0
-547 -504 -507 0
-547 504 507 0
-548 -510 -549 0
-548 510 549 0
548 510 -549 0
548 -510 549 0
549 513 -516 0
549 -513 516 0
-549 -513 -516 0
-549 513 516 0
-550 469 479 0
-550 479 480 0
-550 469 480 0
550 -479 -480 0
550 -469 -479 0
550 -469 -480 0
-551 552 581 -603 -628 0
-551 -552 -581 -603 -628 0
-551 552 581 603 628 0
-551 -552 -581 603 628 0
551 552 -581 0
551 -552 581 0
551 603 -628 0
551 -603 628 0
552 553 -554 0
552 -553 554 0
-552 -553 -554 0
-552 553 554 0
-553 496 497 0
-553 494 496 0
-553 494 497 0
553 -494 -496 0
553 -496 -497 0
553 -494 -497 0
554 555 -556 0
554 -555 556 0
-554 -555 -556 0
-554 555 556 0
555 -778 -783 0
-555 778 0
-555 783 0
556 -557 558 0
556 557 -558 0
-556 557 558 0
-556 -557 -558 0
557 -777 -784 0
-557 777 0
-557 784 0
-558 559 580 0
-558 -559 -580 0
558 -559 580 0
558 559 -580 0
-559 560 561 0
-559 -560 -561 0
559 -560 561 0
559 560 -561 0
560 -776 -785 0
-560 776 0
-560 785 0
-561 562 579 0
-561 -562 -579 0
561 -562 579 0
561 562 -579 0
-562 563 564 0
-562 -563 -564 0
562 -563 564 0
562 563 -564 0
563 -775 -786 0
-563 775 0
-563 786 0
-564 565 578 0
-564 -565 -578 0
564 -565 578 0
564 565 -578 0
-565 566 567 0
-565 -566 -567 0
565 -566 567 0
565 566 -567 0
566 -774 -787 0
-566 774 0
-566 787 0
-567 568 577 0
-567 -568 -577 0
567 -568 577 0
567 568 -577 0
-568 569 570 0
-568 -569 -570 0
568 -569 570 0
568 569 -570 0
569 -773 -788 0
-569 773 0
-569 788 0
-570 571 576 0
-570 -571 -576 0
570 -571 576 0
570 571 -576 0
-571 572 573 0
-571 -572 -573 0
571 -572 573 0
571 572 -573 0
572 -772 -789 0
-572 772 0
-572 789 0
-573 574 575 0
-573 -574 -575 0
573 -574 575 0
573 574 -575 0
-574 516 518 0
-574 518 519 0
-574 516 519 0
574 -518 -519 0
574 -516 -518 0
574 -516 -519 0
-575 513 515 0
-575 515 520 0
-575 513 520 0
575 -515 -520 0
575 -513 -515 0
575 -513 -520 0
-576 510 512 0
-576 512 521 0
-576 510 521 0
576 -512 -521 0
576 -510 -512 0
576 -510 -521 0
-577 507 509 0
-577 509 522 0
-577 507 522 0
577 -509 -522 0
577 -507 -509 0
577 -507 -522 0
-578 504 506 0
-578 506 523 0
-578 504 523 0
578 -506 -523 0
578 -504 -506 0
578 -504 -523 0
-579 501 503 0
-579 503 524 0
-579 501 524 0
579 -503 -524 0
579 -501 -503 0
579 -501 -524 0
-580 498 500 0
-580 500 525 0
-580 498 525 0
580 -500 -525 0
580 -498 -500 0
580 -498 -525 0
581 582 -583 0
581 -582 583 0
-581 -582 -583 0
-581 582 583 0
-582 527 550 0
-582 527 529 0
-582 529 550 0
582 -529 -550 0
582 -527 -550 0
582 -527 -529 0
583 -584 602 0
583 584 -602 0
-583 584 602 0
-583 -584 -602 0
584 -585 593 0
584 585 -593 0
-584 585 593 0
-584 -585 -593 0
-585 -586 -590 0
-585 586 590 0
585 586 -590 0
585 -586 590 0
-586 587 588 0
-586 -587 -588 0
586 -587 588 0
586 587 -588 0
-587 501 507 0
-587 504 507 0
-587 501 504 0
587 -501 -504 0
587 -504 -507 0
587 -501 -507 0
-588 555 589 0
-588 -555 -589 0
588 -555 589 0
588 555 -589 0
-589 510 516 0
-589 513 516 0
-589 510 513 0
589 -510 -513 0
589 -513 -516 0
589 -510 -516 0
590 -591 592 0
590 591 -592 0
-590 591 592 0
-590 -591 -592 0
-591 542 546 0
-591 546 548 0
-591 542 548 0
591 -542 -548 0
591 -546 -548 0
591 -542 -546 0
-592 532 534 0
-592 534 535 0
-592 532 535 0
592 -532 -535 0
592 -534 -535 0
592 -532 -534 0
-593 -594 -595 0
-593 594 595 0
593 594 -595 0
593 -594 595 0
-594 531 537 0
-594 537 538 0
-594 531 538 0
594 -531 -538 0
594 -537 -538 0
594 -531 -537 0
595 -596 598 0
595 596 -598 0
-595 596 598 0
-595 -596 -598 0
-596 -557 -597 0
-596 557 597 0
596 557 -597 0
596 -557 597 0
597 560 -563 0
597 -560 563 0
-597 -560 -563 0
-597 560 563 0
-598 599 601 0
-598 -599 -601 0
598 -599 601 0
598 599 -601 0
-599 -566 -600 0
-599 566 600 0
599 566 -600 0
599 -566 600 0
600 569 -572 0
600 -569 572 0
-600 -569 -572 0
-600 569 572 0
-601 498 543 0
-601 496 498 0
-601 496 543 0
601 -496 -498 0
601 -498 -543 0
601 -496 -543 0
-602 530 540 0
-602 540 541 0
-602 530 541 0
602 -540 -541 0
602 -530 -540 0
602 -530 -541 0
603 604 -605 0
603 -604 605 0
-603 -604 -605 0
-603 604 605 0
-604 555 556 0
-604 553 555 0
-604 553 556 0
604 -553 -555 0
604 -555 -556 0
604 -553 -556 0
605 606 -607 0
605 -606 607 0
-605 -606 -607 0
-605 606 607 0
606 -778 -784 0
-606 778 0
-606 784 0
607 -608 609 0
607 608 -609 0
-607 608 609 0
-607 -608 -609 0
608 -777 -785 0
-608 777 0
-608 785 0
-609 610 627 0
-609 -610 -627 0
609 -610 627 0
609 610 -627 0
-610 611 612 0
-610 -611 -612 0
610 -611 612 0
610 611 -612 0
611 -776 -786 0
-611 776 0
-611 786 0
-612 613 626 0
-612 -613 -626 0
612 -613 626 0
612 613 -626 0
-613 614 615 0
-613 -614 -615 0
613 -614 615 0
613 614 -615 0
614 -775 -787 0
-614 775 0
-614 787 0
-615 616 625 0
-615 -616 -625 0
615 -616 625 0
615 616 -625 0
-616 617 618 0
-616 -617 -618 0
616 -617 618 0
616 617 -618 0
617 -774 -788 0
-617 774 0
-617 788 0
-618 619 624 0
-618 -619 -624 0
618 -619 624 0
618 619 -624 0
-619 620 621 0
-619 -620 -621 0
619 -620 621 0
619 620 -621 0
620 -773 -789 0
-620 773 0
-620 789 0
-621 622 623 0
-621 -622 -623 0
621 -622 623 0
621 622 -623 0
-622 572 574 0
-622 574 575 0
-622 572 575 0
622 -574 -575 0
622 -572 -574 0
622 -572 -575 0
-623 569 571 0
-623 571 576 0
-623 569 576 0
623 -571 -576 0
623 -569 -571 0
623 -569 -576 0
-624 566 568 0
-624 568 577 0
-624 566 577 0
624 -568 -577 0
624 -566 -568 0
624 -566 -577 0
-625 563 565 0
-625 565 578 0
-625 563 578 0
625 -565 -578 0
625 -563 -565 0
625 -563 -578 0
-626 560 562 0
-626 562 579 0
-626 560 579 0
626 -562 -579 0
626 -560 -562 0
626 -560 -579 0
-627 557 559 0
-627 559 580 0
-627 557 580 0
627 -559 -580 0
627 -557 -559 0
627 -557 -580 0
628 -629 630 0
628 629 -630 0
-628 629 630 0
-628 -629 -630 0
-629 582 602 0
-629 582 584 0
-629 584 602 0
629 -584 -602 0
629 -582 -602 0
629 -582 -584 0
-630 631 646 0
-630 -631 -646 0
630 -631 646 0
630 631 -646 0
631 -632 638 0
631 632 -638 0
-631 632 638 0
-631 -632 -638 0
-632 -633 -635 0
-632 633 635 0
632 633 -635 0
632 -633 635 0
-633 -606 -634 0
-633 606 634 0
633 606 -634 0
633 -606 634 0
634 608 -611 0
634 -608 611 0
-634 -608 -611 0
-634 608 611 0
635 -636 637 0
635 636 -637 0
-635 636 637 0
-635 -636 -637 0
-636 596 599 0
-636 599 601 0
-636 596 601 0
636 -596 -601 0
636 -599 -601 0
636 -596 -599 0
-637 555 587 0
-637 587 589 0
-637 555 589 0
637 -587 -589 0
637 -555 -587 0
637 -555 -589 0
-638 -639 -640 0
-638 639 640 0
638 639 -640 0
638 -639 640 0
-639 586 591 0
-639 591 592 0
-639 586 592 0
639 -586 -592 0
639 -591 -592 0
639 -586 -591 0
640 -641 643 0
640 641 -643 0
-640 641 643 0
-640 -641 -643 0
-641 -614 -642 0
-641 614 642 0
641 614 -642 0
641 -614 642 0
642 617 -620 0
642 -617 620 0
-642 -617 -620 0
-642 617 620 0
-643 644 645 0
-643 -644 -645 0
643 -644 645 0
643 644 -645 0
-644 785 563 0
-644 776 557 0
-644 557 563 0
-644 785 557 0
-644 776 563 0
644 -557 -563 0
644 -776 -785 -563 0
644 -776 -785 -557 0
-645 566 572 0
-645 569 572 0
-645 566 569 0
645 -566 -569 0
645 -569 -572 0
645 -566 -572 0
-646 585 594 0
-646 594 595 0
-646 585 595 0
646 -594 -595 0
646 -585 -594 0
646 -585 -595 0
-647 648 669 685 739 0
-647 -648 -669 685 739 0
647 -739 0
647 -648 669 0
647 -685 0
647 648 -669 0
648 649 -650 0
648 -649 650 0
-648 -649 -650 0
-648 649 650 0
-649 606 607 0
-649 604 606 0
-649 604 607 0
649 -604 -606 0
649 -606 -607 0
649 -604 -607 0
650 651 -652 0
650 -651 652 0
-650 -651 -652 0
-650 651 652 0
651 -778 -785 0
-651 778 0
-651 785 0
652 -653 654 0
652 653 -654 0
-652 653 654 0
-652 -653 -654 0
653 -777 -786 0
-653 777 0
-653 786 0
-654 655 668 0
-654 -655 -668 0
654 -655 668 0
654 655 -668 0
-655 656 657 0
-655 -656 -657 0
655 -656 657 0
655 656 -657 0
656 -776 -787 0
-656 776 0
-656 787 0
-657 658 667 0
-657 -658 -667 0
657 -658 667 0
657 658 -667 0
-658 659 660 0
-658 -659 -660 0
658 -659 660 0
658 659 -660 0
659 -775 -788 0
-659 775 0
-659 788 0
-660 661 666 0
-660 -661 -666 0
660 -661 666 0
660 661 -666 0
-661 662 663 0
-661 -662 -663 0
661 -662 663 0
661 662 -663 0
662 -774 -789 0
-662 774 0
-662 789 0
-663 664 665 0
-663 -664 -665 0
663 -664 665 0
663 664 -665 0
-664 620 622 0
-664 622 623 0
-664 620 623 0
664 -622 -623 0
664 -620 -622 0
664 -620 -623 0
-665 617 619 0
-665 619 624 0
-665 617 624 0
665 -619 -624 0
665 -617 -619 0
665 -617 -624 0
-666 614 616 0
-666 616 625 0
-666 614 625 0
666 -616 -625 0
666 -614 -616 0
666 -614 -625 0
-667 611 613 0
-667 613 626 0
-667 611 626 0
667 -613 -626 0
667 -611 -613 0
667 -611 -626 0
-668 608 610 0
-668 610 627 0
-668 608 627 0
668 -610 -627 0
668 -608 -610 0
668 -608 -627 0
669 -670 671 0
669 670 -671 0
-669 670 671 0
-669 -670 -671 0
-670 629 646 0
-670 629 631 0
-670 631 646 0
670 -631 -646 0
670 -629 -646 0
670 -629 -631 0
-671 672 684 0
-671 -672 -684 0
671 -672 684 0
671 672 -684 0
672 -673 679 0
672 673 -679 0
-672 673 679 0
-672 -673 -679 0
-673 -674 -676 0
-673 674 676 0
673 674 -676 0
673 -674 676 0
-674 -656 -675 0
-674 656 675 0
674 656 -675 0
674 -656 675 0
675 659 -662 0
675 -659 662 0
-675 -659 -662 0
-675 659 662 0
676 -677 678 0
676 677 -678 0
-676 677 678 0
-676 -677 -678 0
-677 641 644 0
-677 644 645 0
-677 641 645 0
677 -641 -645 0
677 -644 -645 0
677 -641 -644 0
-678 606 611 0
-678 608 611 0
-678 606 608 0
678 -606 -608 0
678 -608 -611 0
678 -606 -611 0
-679 -680 -681 0
-679 680 681 0
679 680 -681 0
679 -680 681 0
-680 633 636 0
-680 636 637 0
-680 633 637 0
680 -633 -637 0
680 -636 -637 0
680 -633 -636 0
681 682 -683 0
681 -682 683 0
-681 -682 -683 0
-681 682 683 0
-682 614 620 0
-682 617 620 0
-682 614 617 0
682 -614 -617 0
682 -617 -620 0
682 -614 -620 0
683 651 -653 0
683 -651 653 0
-683 -651 -653 0
-683 651 653 0
-684 632 639 0
-684 639 640 0
-684 632 640 0
684 -639 -640 0
684 -632 -639 0
684 -632 -640 0
-685 686 703 -716 -729 0
-685 -686 -703 -716 -729 0
-685 686 703 716 729 0
-685 -686 -703 716 729 0
685 686 -703 0
685 -686 703 0
685 716 -729 0
685 -716 729 0
686 687 -688 0
686 -687 688 0
-686 -687 -688 0
-686 687 688 0
-687 651 652 0
-687 649 651 0
-687 649 652 0
687 -649 -651 0
687 -651 -652 0
687 -649 -652 0
688 689 -690 0
688 -689 690 0
-688 -689 -690 0
-688 689 690 0
689 -778 -786 0
-689 778 0
-689 786 0
690 -691 692 0
690 691 -692 0
-690 691 692 0
-690 -691 -692 0
691 -777 -787 0
-691 777 0
-691 787 0
-692 693 702 0
-692 -693 -702 0
692 -693 702 0
692 693 -702 0
-693 694 695 0
-693 -694 -695 0
693 -694 695 0
693 694 -695 0
694 -776 -788 0
-694 776 0
-694 788 0
-695 696 701 0
-695 -696 -701 0
695 -696 701 0
695 696 -701 0
-696 697 698 0
-696 -697 -698 0
696 -697 698 0
696 697 -698 0
697 -775 -789 0
-697 775 0
-697 789 0
-698 699 700 0
-698 -699 -700 0
698 -699 700 0
698 699 -700 0
-699 662 664 0
-699 664 665 0
-699 662 665 0
699 -664 -665 0
699 -662 -664 0
699 -662 -665 0
-700 659 661 0
-700 661 666 0
-700 659 666 0
700 -661 -666 0
700 -659 -661 0
700 -659 -666 0
-701 656 658 0
-701 658 667 0
-701 656 667 0
701 -658 -667 0
701 -656 -658 0
701 -656 -667 0
-702 653 655 0
-702 655 668 0
-702 653 668 0
702 -655 -668 0
702 -653 -655 0
702 -653 -668 0
703 -704 705 0
703 704 -705 0
-703 704 705 0
-703 -704 -705 0
-704 670 684 0
-704 670 672 0
-704 672 684 0
704 -672 -684 0
704 -670 -684 0
704 -670 -672 0
-705 706 715 0
-705 -706 -715 0
705 -706 715 0
705 706 -715 0
706 -707 711 0
706 707 -711 0
-706 707 711 0
-706 -707 -711 0
-707 -708 -709 0
-707 708 709 0
707 708 -709 0
707 -708 709 0
-708 653 682 0
-708 651 653 0
-708 651 682 0
708 -651 -653 0
708 -653 -682 0
708 -651 -682 0
709 -689 710 0
709 689 -710 0
-709 689 710 0
-709 -689 -710 0
-710 788 662 0
-710 775 656 0
-710 656 662 0
-710 788 656 0
-710 775 662 0
710 -656 -662 0
710 -775 -788 -662 0
710 -775 -788 -656 0
-711 -712 -713 0
-711 712 713 0
711 712 -713 0
711 -712 713 0
-712 674 677 0
-712 677 678 0
-712 674 678 0
712 -674 -678 0
712 -677 -678 0
712 -674 -677 0
713 691 -714 0
713 -691 714 0
-713 -691 -714 0
-713 691 714 0
714 694 -697 0
714 -694 697 0
-714 -694 -697 0
-714 694 697 0
-715 673 680 0
-715 680 681 0
-715 673 681 0
715 -680 -681 0
715 -673 -680 0
715 -673 -681 0
716 717 -718 0
716 -717 718 0
-716 -717 -718 0
-716 717 718 0
-717 689 690 0
-717 687 689 0
-717 687 690 0
717 -687 -689 0
717 -689 -690 0
717 -687 -690 0
718 719 -720 0
718 -719 720 0
-718 -719 -720 0
-718 719 720 0
719 -778 -787 0
-719 778 0
-719 787 0
720 -721 722 0
720 721 -722 0
-720 721 722 0
-720 -721 -722 0
721 -777 -788 0
-721 777 0
-721 788 0
-722 723 728 0
-722 -723 -728 0
722 -723 728 0
722 723 -728 0
-723 724 725 0
-723 -724 -725 0
723 -724 725 0
723 724 -725 0
724 -776 -789 0
-724 776 0
-724 789 0
-725 726 727 0
-725 -726 -727 0
725 -726 727 0
725 726 -727 0
-726 697 699 0
-726 699 700 0
-726 697 700 0
726 -699 -700 0
726 -697 -699 0
726 -697 -700 0
-727 694 696 0
-727 696 701 0
-727 694 701 0
727 -696 -701 0
727 -694 -696 0
727 -694 -701 0
-728 691 693 0
-728 693 702 0
-728 691 702 0
728 -693 -702 0
728 -691 -693 0
728 -691 -702 0
729 -730 731 0
729 730 -731 0
-729 730 731 0
-729 -730 -731 0
-730 704 715 0
-730 704 706 0
-730 706 715 0
730 -706 -715 0
730 -704 -715 0
730 -704 -706 0
-731 732 738 0
-731 -732 -738 0
731 -732 738 0
731 732 -738 0
732 -733 735 0
732 733 -735 0
-732 733 735 0
-732 -733 -735 0
-733 -719 -734 0
-733 719 734 0
733 719 -734 0
733 -719 734 0
734 721 -724 0
734 -721 724 0
-734 -721 -724 0
-734 721 724 0
-735 736 737 0
-735 -736 -737 0
735 -736 737 0
735 736 -737 0
-736 689 708 0
-736 708 710 0
-736 689 710 0
736 -708 -710 0
736 -689 -708 0
736 -689 -710 0
-737 691 697 0
-737 694 697 0
-737 691 694 0
737 -691 -694 0
737 -694 -697 0
737 -691 -697 0
-738 707 712 0
-738 712 713 0
-738 707 713 0
738 -712 -713 0
738 -707 -712 0
738 -707 -713 0
-739 -740 -749 756 0
-739 740 749 756 0
739 -756 0
739 -740 749 0
739 740 -749 0
740 741 -742 0
740 -741 742 0
-740 -741 -742 0
-740 741 742 0
-741 719 720 0
-741 717 719 0
-741 717 720 0
741 -717 -719 0
741 -719 -720 0
741 -717 -720 0
742 743 -744 0
742 -743 744 0
-742 -743 -744 0
-742 743 744 0
743 -778 -788 0
-743 778 0
-743 788 0
744 -745 746 0
744 745 -746 0
-744 745 746 0
-744 -745 -746 0
745 -777 -789 0
-745 777 0
-745 789 0
-746 747 748 0
-746 -747 -748 0
746 -747 748 0
746 747 -748 0
-747 724 726 0
-747 726 727 0
-747 724 727 0
747 -726 -727 0
747 -724 -726 0
747 -724 -727 0
-748 721 723 0
-748 723 728 0
-748 721 728 0
748 -723 -728 0
748 -721 -723 0
748 -721 -728 0
749 -750 751 0
749 750 -751 0
-749 750 751 0
-749 -750 -751 0
-750 730 738 0
-750 730 732 0
-750 732 738 0
750 -732 -738 0
750 -730 -738 0
750 -730 -732 0
-751 752 755 0
-751 -752 -755 0
751 -752 755 0
751 752 -755 0
752 753 -754 0
752 -753 754 0
-752 -753 -754 0
-752 753 754 0
-753 788 724 0
-753 777 719 0
-753 719 724 0
-753 788 719 0
-753 777 724 0
753 -719 -724 0
753 -777 -788 -724 0
753 -777 -788 -719 0
754 743 -745 0
754 -743 745 0
-754 -743 -745 0
-754 743 745 0
-755 733 736 0
-755 736 737 0
-755 733 737 0
755 -733 -737 0
755 -736 -737 0
755 -733 -736 0
-756 757 762 766 767 0
-756 -757 -762 766 767 0
-756 757 762 -766 -767 0
-756 -757 -762 -766 -767 0
756 757 -762 0
756 -757 762 0
756 -766 767 0
756 766 -767 0
757 758 -759 0
757 -758 759 0
-757 -758 -759 0
-757 758 759 0
-758 743 744 0
-758 741 743 0
-758 741 744 0
758 -741 -743 0
758 -743 -744 0
758 -741 -744 0
759 -760 761 0
759 760 -761 0
-759 760 761 0
-759 -760 -761 0
760 -778 -789 0
-760 778 0
-760 789 0
-761 745 747 0
-761 747 748 0
-761 745 748 0
761 -747 -748 0
761 -745 -747 0
761 -745 -748 0
762 -763 764 0
762 763 -764 0
-762 763 764 0
-762 -763 -764 0
-763 750 755 0
-763 750 752 0
-763 752 755 0
763 -752 -755 0
763 -750 -755 0
763 -750 -752 0
-764 760 765 0
-764 -760 -765 0
764 -760 765 0
764 760 -765 0
-765 745 753 0
-765 743 745 0
-765 743 753 0
765 -743 -745 0
765 -745 -753 0
765 -743 -753 0
-766 758 761 0
-766 758 760 0
-766 760 761 0
766 -760 -761 0
766 -758 -761 0
766 -758 -760 0
-767 760 763 0
-767 763 765 0
-767 760 765 0
767 -763 -765 0
767 -760 -763 0
767 -760 -765 0
-790 0
2 0

