c Result of efficient AIG-to-CNF conversion using package CNF
p cnf 437 1797
-2 3 185 279 349 0
2 -349 0
2 -3 0
2 -279 0
2 -185 0
-3 4 34 94 0
3 -4 0
3 -34 0
3 -94 0
-4 5 0
4 -5 0
-5 -6 -25 0
-5 6 25 0
5 6 -25 0
5 -6 25 0
6 7 -8 0
6 -7 8 0
-6 -7 -8 0
-6 7 8 0
7 -424 -429 0
-7 424 0
-7 429 0
8 -9 10 0
8 9 -10 0
-8 9 10 0
-8 -9 -10 0
9 -423 -430 0
-9 423 0
-9 430 0
-10 -11 -20 0
-10 11 20 0
10 11 -20 0
10 -11 20 0
11 -12 -13 0
-11 12 0
-11 13 0
12 -423 -429 0
-12 423 0
-12 429 0
13 -14 15 0
13 14 -15 0
-13 14 15 0
-13 -14 -15 0
14 -422 -430 0
-14 422 0
-14 430 0
-15 -16 -19 0
-15 16 19 0
15 16 -19 0
15 -16 19 0
16 -17 -18 0
-16 17 0
-16 18 0
17 -422 -429 0
-17 422 0
-17 429 0
18 -421 -430 0
-18 421 0
-18 430 0
19 -421 -431 0
-19 421 0
-19 431 0
20 21 -22 0
20 -21 22 0
-20 -21 -22 0
-20 21 22 0
21 -422 -431 0
-21 422 0
-21 431 0
22 -23 24 0
22 23 -24 0
-22 23 24 0
-22 -23 -24 0
23 -421 -432 0
-23 421 0
-23 432 0
-24 16 19 0
-24 14 19 0
-24 16 14 0
24 -16 -14 0
24 -14 -19 0
24 -16 -19 0
25 -26 29 0
25 26 -29 0
-25 26 29 0
-25 -26 -29 0
26 -16 -27 0
-26 16 0
-26 27 0
-27 -12 -28 0
-27 12 28 0
27 12 -28 0
27 -12 28 0
28 14 -19 0
28 -14 19 0
-28 -14 -19 0
-28 14 19 0
-29 30 32 0
-29 -30 -32 0
29 -30 32 0
29 30 -32 0
-30 -9 -31 0
-30 9 31 0
30 9 -31 0
30 -9 31 0
31 21 -23 0
31 -21 23 0
-31 -21 -23 0
-31 21 23 0
-32 7 33 0
-32 -7 -33 0
32 -7 33 0
32 7 -33 0
-33 12 19 0
-33 14 19 0
-33 12 14 0
33 -12 -14 0
33 -14 -19 0
33 -12 -19 0
-34 35 50 -60 -79 0
-34 -35 -50 -60 -79 0
-34 35 50 60 79 0
-34 -35 -50 60 79 0
34 35 -50 0
34 -35 50 0
34 60 -79 0
34 -60 79 0
35 36 -37 0
35 -36 37 0
-35 -36 -37 0
-35 36 37 0
36 -425 -429 0
-36 425 0
-36 429 0
37 -38 39 0
37 38 -39 0
-37 38 39 0
-37 -38 -39 0
38 -424 -430 0
-38 424 0
-38 430 0
-39 40 41 0
-39 -40 -41 0
39 -40 41 0
39 40 -41 0
40 -7 -8 0
-40 7 0
-40 8 0
-41 42 43 0
-41 -42 -43 0
41 -42 43 0
41 42 -43 0
42 -423 -431 0
-42 423 0
-42 431 0
-43 44 49 0
-43 -44 -49 0
43 -44 49 0
43 44 -49 0
-44 -45 -46 0
-44 45 46 0
44 45 -46 0
44 -45 46 0
45 -422 -432 0
-45 422 0
-45 432 0
46 -47 48 0
46 47 -48 0
-46 47 48 0
-46 -47 -48 0
47 -421 -433 0
-47 421 0
-47 433 0
-48 23 24 0
-48 21 23 0
-48 21 24 0
48 -21 -23 0
48 -23 -24 0
48 -21 -24 0
-49 11 20 0
-49 9 20 0
-49 11 9 0
49 -11 -9 0
49 -9 -20 0
49 -11 -20 0
50 -51 52 0
50 51 -52 0
-50 51 52 0
-50 -51 -52 0
51 -26 -29 0
-51 26 0
-51 29 0
-52 53 59 0
-52 -53 -59 0
52 -53 59 0
52 53 -59 0
-53 -54 -55 0
-53 54 55 0
53 54 -55 0
53 -54 55 0
-54 -36 -38 0
-54 36 38 0
54 36 -38 0
54 -36 38 0
55 -56 58 0
55 56 -58 0
-55 56 58 0
-55 -56 -58 0
56 -42 57 0
56 42 -57 0
-56 42 57 0
-56 -42 -57 0
-57 -45 -47 0
-57 45 47 0
57 45 -47 0
57 -45 47 0
-58 9 23 0
-58 21 23 0
-58 9 21 0
58 -9 -21 0
58 -21 -23 0
58 -9 -23 0
-59 7 30 0
-59 30 33 0
-59 7 33 0
59 -30 -33 0
59 -7 -30 0
59 -7 -33 0
60 61 -62 0
60 -61 62 0
-60 -61 -62 0
-60 61 62 0
61 -426 -429 0
-61 426 0
-61 429 0
62 -63 64 0
62 63 -64 0
-62 63 64 0
-62 -63 -64 0
63 -425 -430 0
-63 425 0
-63 430 0
-64 65 66 0
-64 -65 -66 0
64 -65 66 0
64 65 -66 0
65 -36 -37 0
-65 36 0
-65 37 0
-66 67 68 0
-66 -67 -68 0
66 -67 68 0
66 67 -68 0
67 -424 -431 0
-67 424 0
-67 431 0
-68 69 78 0
-68 -69 -78 0
68 -69 78 0
68 69 -78 0
-69 70 71 0
-69 -70 -71 0
69 -70 71 0
69 70 -71 0
70 -423 -432 0
-70 423 0
-70 432 0
-71 72 77 0
-71 -72 -77 0
71 -72 77 0
71 72 -77 0
-72 -73 -74 0
-72 73 74 0
72 73 -74 0
72 -73 74 0
73 -422 -433 0
-73 422 0
-73 433 0
74 -75 76 0
74 75 -76 0
-74 75 76 0
-74 -75 -76 0
75 -421 -434 0
-75 421 0
-75 434 0
-76 47 48 0
-76 45 47 0
-76 45 48 0
76 -45 -47 0
76 -47 -48 0
76 -45 -48 0
-77 42 44 0
-77 44 49 0
-77 42 49 0
77 -44 -49 0
77 -42 -44 0
77 -42 -49 0
-78 38 41 0
-78 40 38 0
-78 40 41 0
78 -40 -38 0
78 -38 -41 0
78 -40 -41 0
79 -80 81 0
79 80 -81 0
-79 80 81 0
-79 -80 -81 0
80 -51 -52 0
-80 51 0
-80 52 0
-81 -82 -93 0
-81 82 93 0
81 82 -93 0
81 -82 93 0
-82 -83 -89 0
-82 83 89 0
82 83 -89 0
82 -83 89 0
-83 -84 -86 0
-83 84 86 0
83 84 -86 0
83 -84 86 0
-84 -70 -85 0
-84 70 85 0
84 70 -85 0
84 -70 85 0
85 73 -75 0
85 -73 75 0
-85 -73 -75 0
-85 73 75 0
86 -87 88 0
86 87 -88 0
-86 87 88 0
-86 -87 -88 0
87 -36 -38 0
-87 36 0
-87 38 0
-88 42 47 0
-88 45 47 0
-88 42 45 0
88 -42 -45 0
88 -45 -47 0
88 -42 -47 0
89 90 -91 0
89 -90 91 0
-89 -90 -91 0
-89 90 91 0
-90 54 58 0
-90 54 56 0
-90 56 58 0
90 -56 -58 0
90 -54 -58 0
90 -54 -56 0
91 61 -92 0
91 -61 92 0
-91 -61 -92 0
-91 61 92 0
92 63 -67 0
92 -63 67 0
-92 -63 -67 0
-92 63 67 0
93 -53 -59 0
-93 53 0
-93 59 0
-94 95 118 -136 -163 0
-94 -95 -118 -136 -163 0
-94 95 118 136 163 0
-94 -95 -118 136 163 0
94 95 -118 0
94 -95 118 0
94 136 -163 0
94 -136 163 0
95 96 -97 0
95 -96 97 0
-95 -96 -97 0
-95 96 97 0
96 -427 -429 0
-96 427 0
-96 429 0
97 -98 99 0
97 98 -99 0
-97 98 99 0
-97 -98 -99 0
98 -426 -430 0
-98 426 0
-98 430 0
-99 100 101 0
-99 -100 -101 0
99 -100 101 0
99 100 -101 0
100 -61 -62 0
-100 61 0
-100 62 0
-101 102 103 0
-101 -102 -103 0
101 -102 103 0
101 102 -103 0
102 -425 -431 0
-102 425 0
-102 431 0
-103 104 117 0
-103 -104 -117 0
103 -104 117 0
103 104 -117 0
-104 105 106 0
-104 -105 -106 0
104 -105 106 0
104 105 -106 0
105 -424 -432 0
-105 424 0
-105 432 0
-106 107 116 0
-106 -107 -116 0
106 -107 116 0
106 107 -116 0
-107 108 109 0
-107 -108 -109 0
107 -108 109 0
107 108 -109 0
108 -423 -433 0
-108 423 0
-108 433 0
-109 110 115 0
-109 -110 -115 0
109 -110 115 0
109 110 -115 0
-110 -111 -112 0
-110 111 112 0
110 111 -112 0
110 -111 112 0
111 -422 -434 0
-111 422 0
-111 434 0
112 -113 114 0
112 113 -114 0
-112 113 114 0
-112 -113 -114 0
113 -421 -435 0
-113 421 0
-113 435 0
-114 75 76 0
-114 73 75 0
-114 73 76 0
114 -73 -75 0
114 -75 -76 0
114 -73 -76 0
-115 70 72 0
-115 72 77 0
-115 70 77 0
115 -72 -77 0
115 -70 -72 0
115 -70 -77 0
-116 67 69 0
-116 69 78 0
-116 67 78 0
116 -69 -78 0
116 -67 -69 0
116 -67 -78 0
-117 63 66 0
-117 65 63 0
-117 65 66 0
117 -65 -63 0
117 -63 -66 0
117 -65 -66 0
118 -119 120 0
118 119 -120 0
-118 119 120 0
-118 -119 -120 0
119 -80 -81 0
-119 80 0
-119 81 0
-120 -121 -135 0
-120 121 135 0
120 121 -135 0
120 -121 135 0
-121 122 134 0
-121 -122 -134 0
121 -122 134 0
121 122 -134 0
-122 -123 -128 0
-122 123 128 0
122 123 -128 0
122 -123 128 0
-123 -124 -126 0
-123 124 126 0
123 124 -126 0
123 -124 126 0
-124 -98 -125 0
-124 98 125 0
124 98 -125 0
124 -98 125 0
125 102 -105 0
125 -102 105 0
-125 -102 -105 0
-125 102 105 0
126 108 -127 0
126 -108 127 0
-126 -108 -127 0
-126 108 127 0
127 111 -113 0
127 -111 113 0
-127 -111 -113 0
-127 111 113 0
128 -129 133 0
128 129 -133 0
-128 129 133 0
-128 -129 -133 0
-129 130 131 0
-129 -130 -131 0
129 -130 131 0
129 130 -131 0
-130 429 67 0
-130 426 63 0
-130 63 67 0
-130 429 63 0
-130 426 67 0
130 -63 -67 0
130 -426 -429 -67 0
130 -426 -429 -63 0
-131 96 132 0
-131 -96 -132 0
131 -96 132 0
131 96 -132 0
-132 434 73 0
-132 421 70 0
-132 70 73 0
-132 434 70 0
-132 421 73 0
132 -70 -73 0
132 -421 -434 -73 0
132 -421 -434 -70 0
-133 84 88 0
-133 84 87 0
-133 87 88 0
133 -87 -88 0
133 -84 -88 0
133 -84 -87 0
-134 83 90 0
-134 90 91 0
-134 83 91 0
134 -90 -91 0
134 -83 -90 0
134 -83 -91 0
135 -82 -93 0
-135 82 0
-135 93 0
136 137 -138 0
136 -137 138 0
-136 -137 -138 0
-136 137 138 0
137 -428 -429 0
-137 428 0
-137 429 0
138 139 -140 0
138 -139 140 0
-138 -139 -140 0
-138 139 140 0
139 -427 -430 0
-139 427 0
-139 430 0
140 141 -142 0
140 -141 142 0
-140 -141 -142 0
-140 141 142 0
141 -96 -97 0
-141 96 0
-141 97 0
142 -143 144 0
142 143 -144 0
-142 143 144 0
-142 -143 -144 0
143 -426 -431 0
-143 426 0
-143 431 0
-144 145 162 0
-144 -145 -162 0
144 -145 162 0
144 145 -162 0
-145 146 147 0
-145 -146 -147 0
145 -146 147 0
145 146 -147 0
146 -425 -432 0
-146 425 0
-146 432 0
-147 148 161 0
-147 -148 -161 0
147 -148 161 0
147 148 -161 0
-148 149 150 0
-148 -149 -150 0
148 -149 150 0
148 149 -150 0
149 -424 -433 0
-149 424 0
-149 433 0
-150 151 160 0
-150 -151 -160 0
150 -151 160 0
150 151 -160 0
-151 152 153 0
-151 -152 -153 0
151 -152 153 0
151 152 -153 0
152 -423 -434 0
-152 423 0
-152 434 0
-153 154 159 0
-153 -154 -159 0
153 -154 159 0
153 154 -159 0
-154 -155 -156 0
-154 155 156 0
154 155 -156 0
154 -155 156 0
155 -422 -435 0
-155 422 0
-155 435 0
156 -157 158 0
156 157 -158 0
-156 157 158 0
-156 -157 -158 0
157 -421 -436 0
-157 421 0
-157 436 0
-158 113 114 0
-158 111 113 0
-158 111 114 0
158 -111 -113 0
158 -113 -114 0
158 -111 -114 0
-159 108 110 0
-159 110 115 0
-159 108 115 0
159 -110 -115 0
159 -108 -110 0
159 -108 -115 0
-160 105 107 0
-160 107 116 0
-160 105 116 0
160 -107 -116 0
160 -105 -107 0
160 -105 -116 0
-161 102 104 0
-161 104 117 0
-161 102 117 0
161 -104 -117 0
161 -102 -104 0
161 -102 -117 0
-162 98 101 0
-162 100 98 0
-162 100 101 0
162 -100 -98 0
162 -98 -101 0
162 -100 -101 0
163 -164 166 0
163 164 -166 0
-163 164 166 0
-163 -164 -166 0
-164 165 0
164 -165 0
-165 121 0
-165 119 135 0
165 -119 -121 0
165 -121 -135 0
-166 -167 -184 0
-166 167 184 0
166 167 -184 0
166 -167 184 0
-167 168 178 0
-167 -168 -178 0
167 -168 178 0
167 168 -178 0
-168 -169 -175 0
-168 169 175 0
168 169 -175 0
168 -169 175 0
-169 -170 -172 0
-169 170 172 0
169 170 -172 0
169 -170 172 0
-170 -152 -171 0
-170 152 171 0
170 152 -171 0
170 -152 171 0
171 155 -157 0
171 -155 157 0
-171 -155 -157 0
-171 155 157 0
172 -173 174 0
172 173 -174 0
-172 173 174 0
-172 -173 -174 0
-173 431 105 0
-173 425 98 0
-173 98 105 0
-173 431 98 0
-173 425 105 0
173 -98 -105 0
173 -425 -431 -105 0
173 -425 -431 -98 0
-174 108 113 0
-174 111 113 0
-174 108 111 0
174 -108 -111 0
174 -111 -113 0
174 -108 -113 0
175 -176 177 0
175 176 -177 0
-175 176 177 0
-175 -176 -177 0
176 -124 -126 0
-176 124 0
-176 126 0
-177 96 130 0
-177 130 132 0
-177 96 132 0
177 -130 -132 0
177 -96 -130 0
177 -96 -132 0
-178 -179 -180 0
-178 179 180 0
178 179 -180 0
178 -179 180 0
-179 123 129 0
-179 129 133 0
-179 123 133 0
179 -123 -133 0
179 -129 -133 0
179 -123 -129 0
180 -181 182 0
180 181 -182 0
-180 181 182 0
-180 -181 -182 0
181 137 -139 0
181 -137 139 0
-181 -137 -139 0
-181 137 139 0
-182 -143 -183 0
-182 143 183 0
182 143 -183 0
182 -143 183 0
183 146 -149 0
183 -146 149 0
-183 -146 -149 0
-183 146 149 0
184 -122 -134 0
-184 122 0
-184 134 0
-185 186 213 -235 -260 0
-185 -186 -213 -235 -260 0
-185 186 213 235 260 0
-185 -186 -213 235 260 0
185 186 -213 0
185 -186 213 0
185 235 -260 0
185 -235 260 0
186 -187 188 0
186 187 -188 0
-186 187 188 0
-186 -187 -188 0
187 -428 -430 0
-187 428 0
-187 430 0
-188 189 190 0
-188 -189 -190 0
188 -189 190 0
188 189 -190 0
189 -427 -431 0
-189 427 0
-189 431 0
-190 191 192 0
-190 -191 -192 0
190 -191 192 0
190 191 -192 0
191 -137 -138 0
-191 137 0
-191 138 0
-192 193 194 0
-192 -193 -194 0
192 -193 194 0
192 193 -194 0
193 -426 -432 0
-193 426 0
-193 432 0
-194 195 212 0
-194 -195 -212 0
194 -195 212 0
194 195 -212 0
-195 196 197 0
-195 -196 -197 0
195 -196 197 0
195 196 -197 0
196 -425 -433 0
-196 425 0
-196 433 0
-197 198 211 0
-197 -198 -211 0
197 -198 211 0
197 198 -211 0
-198 199 200 0
-198 -199 -200 0
198 -199 200 0
198 199 -200 0
199 -424 -434 0
-199 424 0
-199 434 0
-200 201 210 0
-200 -201 -210 0
200 -201 210 0
200 201 -210 0
-201 202 203 0
-201 -202 -203 0
201 -202 203 0
201 202 -203 0
202 -423 -435 0
-202 423 0
-202 435 0
-203 204 209 0
-203 -204 -209 0
203 -204 209 0
203 204 -209 0
-204 205 206 0
-204 -205 -206 0
204 -205 206 0
204 205 -206 0
205 -422 -436 0
-205 422 0
-205 436 0
-206 207 208 0
-206 -207 -208 0
206 -207 208 0
206 207 -208 0
-207 157 158 0
-207 155 157 0
-207 155 158 0
207 -155 -157 0
207 -157 -158 0
207 -155 -158 0
-208 152 154 0
-208 154 159 0
-208 152 159 0
208 -154 -159 0
208 -152 -154 0
208 -152 -159 0
-209 149 151 0
-209 151 160 0
-209 149 160 0
209 -151 -160 0
209 -149 -151 0
209 -149 -160 0
-210 146 148 0
-210 148 161 0
-210 146 161 0
210 -148 -161 0
210 -146 -148 0
210 -146 -161 0
-211 143 145 0
-211 145 162 0
-211 143 162 0
211 -145 -162 0
211 -143 -145 0
211 -143 -162 0
-212 141 142 0
-212 139 142 0
-212 141 139 0
212 -141 -139 0
212 -139 -142 0
212 -141 -142 0
213 -214 215 0
213 214 -215 0
-213 214 215 0
-213 -214 -215 0
-214 164 167 0
-214 167 184 0
-214 164 184 0
214 -167 -184 0
214 -164 -167 0
214 -164 -184 0
-215 216 234 0
-215 -216 -234 0
215 -216 234 0
215 216 -234 0
216 -217 225 0
216 217 -225 0
-216 217 225 0
-216 -217 -225 0
-217 -218 -222 0
-217 218 222 0
217 218 -222 0
217 -218 222 0
-218 -219 -220 0
-218 219 220 0
218 219 -220 0
218 -219 220 0
-219 143 149 0
-219 146 149 0
-219 143 146 0
219 -143 -146 0
219 -146 -149 0
219 -143 -149 0
220 -187 221 0
220 187 -221 0
-220 187 221 0
-220 -187 -221 0
-221 152 157 0
-221 155 157 0
-221 152 155 0
221 -152 -155 0
221 -155 -157 0
221 -152 -157 0
222 -223 224 0
222 223 -224 0
-222 223 224 0
-222 -223 -224 0
223 -181 -182 0
-223 181 0
-223 182 0
-224 170 173 0
-224 173 174 0
-224 170 174 0
224 -170 -174 0
224 -173 -174 0
224 -170 -173 0
-225 -226 -227 0
-225 226 227 0
225 226 -227 0
225 -226 227 0
-226 169 177 0
-226 169 176 0
-226 176 177 0
226 -176 -177 0
226 -169 -177 0
226 -169 -176 0
227 -228 230 0
227 228 -230 0
-227 228 230 0
-227 -228 -230 0
-228 -189 -229 0
-228 189 229 0
228 189 -229 0
228 -189 229 0
229 193 -196 0
229 -193 196 0
-229 -193 -196 0
-229 193 196 0
-230 231 232 0
-230 -231 -232 0
230 -231 232 0
230 231 -232 0
231 -137 -139 0
-231 137 0
-231 139 0
-232 -199 -233 0
-232 199 233 0
232 199 -233 0
232 -199 233 0
233 202 -205 0
233 -202 205 0
-233 -202 -205 0
-233 202 205 0
-234 168 179 0
-234 179 180 0
-234 168 180 0
234 -179 -180 0
234 -168 -179 0
234 -168 -180 0
235 236 -237 0
235 -236 237 0
-235 -236 -237 0
-235 236 237 0
236 -187 -188 0
-236 187 0
-236 188 0
237 238 -239 0
237 -238 239 0
-237 -238 -239 0
-237 238 239 0
238 -428 -431 0
-238 428 0
-238 431 0
239 -240 241 0
239 240 -241 0
-239 240 241 0
-239 -240 -241 0
240 -427 -432 0
-240 427 0
-240 432 0
-241 242 259 0
-241 -242 -259 0
241 -242 259 0
241 242 -259 0
-242 243 244 0
-242 -243 -244 0
242 -243 244 0
242 243 -244 0
243 -426 -433 0
-243 426 0
-243 433 0
-244 245 258 0
-244 -245 -258 0
244 -245 258 0
244 245 -258 0
-245 246 247 0
-245 -246 -247 0
245 -246 247 0
245 246 -247 0
246 -425 -434 0
-246 425 0
-246 434 0
-247 248 257 0
-247 -248 -257 0
247 -248 257 0
247 248 -257 0
-248 249 250 0
-248 -249 -250 0
248 -249 250 0
248 249 -250 0
249 -424 -435 0
-249 424 0
-249 435 0
-250 251 256 0
-250 -251 -256 0
250 -251 256 0
250 251 -256 0
-251 252 253 0
-251 -252 -253 0
251 -252 253 0
251 252 -253 0
252 -423 -436 0
-252 423 0
-252 436 0
-253 254 255 0
-253 -254 -255 0
253 -254 255 0
253 254 -255 0
-254 205 207 0
-254 207 208 0
-254 205 208 0
254 -207 -208 0
254 -205 -207 0
254 -205 -208 0
-255 202 204 0
-255 204 209 0
-255 202 209 0
255 -204 -209 0
255 -202 -204 0
255 -202 -209 0
-256 199 201 0
-256 201 210 0
-256 199 210 0
256 -201 -210 0
256 -199 -201 0
256 -199 -210 0
-257 196 198 0
-257 198 211 0
-257 196 211 0
257 -198 -211 0
257 -196 -198 0
257 -196 -211 0
-258 193 195 0
-258 195 212 0
-258 193 212 0
258 -195 -212 0
258 -193 -195 0
258 -193 -212 0
-259 189 192 0
-259 191 189 0
-259 191 192 0
259 -191 -189 0
259 -189 -192 0
259 -191 -192 0
260 -261 262 0
260 261 -262 0
-260 261 262 0
-260 -261 -262 0
-261 214 234 0
-261 214 216 0
-261 216 234 0
261 -216 -234 0
261 -214 -234 0
261 -214 -216 0
-262 263 278 0
-262 -263 -278 0
262 -263 278 0
262 263 -278 0
263 -264 270 0
263 264 -270 0
-263 264 270 0
-263 -264 -270 0
-264 -265 -266 0
-264 265 266 0
264 265 -266 0
264 -265 266 0
-265 231 228 0
-265 228 232 0
-265 231 232 0
265 -228 -232 0
265 -231 -228 0
265 -231 -232 0
266 -267 268 0
266 267 -268 0
-266 267 268 0
-266 -267 -268 0
-267 187 219 0
-267 219 221 0
-267 187 221 0
267 -219 -221 0
267 -187 -219 0
267 -187 -221 0
-268 -238 -269 0
-268 238 269 0
268 238 -269 0
268 -238 269 0
269 240 -243 0
269 -240 243 0
-269 -240 -243 0
-269 240 243 0
-270 -271 -272 0
-270 271 272 0
270 271 -272 0
270 -271 272 0
-271 223 218 0
-271 218 224 0
-271 223 224 0
271 -218 -224 0
271 -223 -218 0
271 -223 -224 0
272 -273 275 0
272 273 -275 0
-272 273 275 0
-272 -273 -275 0
-273 -246 -274 0
-273 246 274 0
273 246 -274 0
273 -246 274 0
274 249 -252 0
274 -249 252 0
-274 -249 -252 0
-274 249 252 0
-275 276 277 0
-275 -276 -277 0
275 -276 277 0
275 276 -277 0
-276 189 196 0
-276 193 196 0
-276 189 193 0
276 -189 -193 0
276 -193 -196 0
276 -189 -196 0
-277 435 205 0
-277 423 199 0
-277 199 205 0
-277 435 199 0
-277 423 205 0
277 -199 -205 0
277 -423 -435 -205 0
277 -423 -435 -199 0
-278 217 226 0
-278 226 227 0
-278 217 227 0
278 -226 -227 0
278 -217 -226 0
278 -217 -227 0
-279 280 301 -317 -334 0
-279 -280 -301 -317 -334 0
-279 280 301 317 334 0
-279 -280 -301 317 334 0
279 280 -301 0
279 -280 301 0
279 317 -334 0
279 -317 334 0
280 281 -282 0
280 -281 282 0
-280 -281 -282 0
-280 281 282 0
-281 431 239 0
-281 428 236 0
-281 236 239 0
-281 431 236 0
-281 428 239 0
281 -236 -239 0
281 -428 -431 -239 0
281 -428 -431 -236 0
282 283 -284 0
282 -283 284 0
-282 -283 -284 0
-282 283 284 0
283 -428 -432 0
-283 428 0
-283 432 0
284 -285 286 0
284 285 -286 0
-284 285 286 0
-284 -285 -286 0
285 -427 -433 0
-285 427 0
-285 433 0
-286 287 300 0
-286 -287 -300 0
286 -287 300 0
286 287 -300 0
-287 288 289 0
-287 -288 -289 0
287 -288 289 0
287 288 -289 0
288 -426 -434 0
-288 426 0
-288 434 0
-289 290 299 0
-289 -290 -299 0
289 -290 299 0
289 290 -299 0
-290 291 292 0
-290 -291 -292 0
290 -291 292 0
290 291 -292 0
291 -425 -435 0
-291 425 0
-291 435 0
-292 293 298 0
-292 -293 -298 0
292 -293 298 0
292 293 -298 0
-293 294 295 0
-293 -294 -295 0
293 -294 295 0
293 294 -295 0
294 -424 -436 0
-294 424 0
-294 436 0
-295 296 297 0
-295 -296 -297 0
295 -296 297 0
295 296 -297 0
-296 252 254 0
-296 254 255 0
-296 252 255 0
296 -254 -255 0
296 -252 -254 0
296 -252 -255 0
-297 249 251 0
-297 251 256 0
-297 249 256 0
297 -251 -256 0
297 -249 -251 0
297 -249 -256 0
-298 246 248 0
-298 248 257 0
-298 246 257 0
298 -248 -257 0
298 -246 -248 0
298 -246 -257 0
-299 243 245 0
-299 245 258 0
-299 243 258 0
299 -245 -258 0
299 -243 -245 0
299 -243 -258 0
-300 240 242 0
-300 242 259 0
-300 240 259 0
300 -242 -259 0
300 -240 -242 0
300 -240 -259 0
301 -302 303 0
301 302 -303 0
-301 302 303 0
-301 -302 -303 0
-302 261 278 0
-302 261 263 0
-302 263 278 0
302 -263 -278 0
302 -261 -278 0
302 -261 -263 0
-303 304 316 0
-303 -304 -316 0
303 -304 316 0
303 304 -316 0
304 -305 315 0
304 305 -315 0
-304 305 315 0
-304 -305 -315 0
-305 -306 -312 0
-305 306 312 0
305 306 -312 0
305 -306 312 0
-306 -307 -309 0
-306 307 309 0
306 307 -309 0
306 -307 309 0
-307 -288 -308 0
-307 288 308 0
307 288 -308 0
307 -288 308 0
308 291 -294 0
308 -291 294 0
-308 -291 -294 0
-308 291 294 0
309 -310 311 0
309 310 -311 0
-309 310 311 0
-309 -310 -311 0
-310 238 243 0
-310 240 243 0
-310 238 240 0
310 -238 -240 0
310 -240 -243 0
310 -238 -243 0
-311 435 252 0
-311 424 246 0
-311 246 252 0
-311 435 246 0
-311 424 252 0
311 -246 -252 0
311 -424 -435 -252 0
311 -424 -435 -246 0
312 313 -314 0
312 -313 314 0
-312 -313 -314 0
-312 313 314 0
-313 273 276 0
-313 276 277 0
-313 273 277 0
313 -273 -277 0
313 -276 -277 0
313 -273 -276 0
314 283 -285 0
314 -283 285 0
-314 -283 -285 0
-314 283 285 0
-315 265 267 0
-315 267 268 0
-315 265 268 0
315 -265 -268 0
315 -267 -268 0
315 -265 -267 0
-316 264 271 0
-316 271 272 0
-316 264 272 0
316 -271 -272 0
316 -264 -271 0
316 -264 -272 0
317 318 -319 0
317 -318 319 0
-317 -318 -319 0
-317 318 319 0
-318 283 284 0
-318 281 283 0
-318 281 284 0
318 -281 -283 0
318 -283 -284 0
318 -281 -284 0
319 320 -321 0
319 -320 321 0
-319 -320 -321 0
-319 320 321 0
320 -428 -433 0
-320 428 0
-320 433 0
321 -322 323 0
321 322 -323 0
-321 322 323 0
-321 -322 -323 0
322 -427 -434 0
-322 427 0
-322 434 0
-323 324 333 0
-323 -324 -333 0
323 -324 333 0
323 324 -333 0
-324 325 326 0
-324 -325 -326 0
324 -325 326 0
324 325 -326 0
325 -426 -435 0
-325 426 0
-325 435 0
-326 327 332 0
-326 -327 -332 0
326 -327 332 0
326 327 -332 0
-327 328 329 0
-327 -328 -329 0
327 -328 329 0
327 328 -329 0
328 -425 -436 0
-328 425 0
-328 436 0
-329 330 331 0
-329 -330 -331 0
329 -330 331 0
329 330 -331 0
-330 294 296 0
-330 296 297 0
-330 294 297 0
330 -296 -297 0
330 -294 -296 0
330 -294 -297 0
-331 291 293 0
-331 293 298 0
-331 291 298 0
331 -293 -298 0
331 -291 -293 0
331 -291 -298 0
-332 288 290 0
-332 290 299 0
-332 288 299 0
332 -290 -299 0
332 -288 -290 0
332 -288 -299 0
-333 285 287 0
-333 287 300 0
-333 285 300 0
333 -287 -300 0
333 -285 -287 0
333 -285 -300 0
334 -335 336 0
334 335 -336 0
-334 335 336 0
-334 -335 -336 0
-335 302 316 0
-335 302 304 0
-335 304 316 0
335 -304 -316 0
335 -302 -316 0
335 -302 -304 0
-336 -337 -338 0
-336 337 338 0
336 337 -338 0
336 -337 338 0
337 -305 -315 0
-337 305 0
-337 315 0
338 -339 348 0
338 339 -348 0
-338 339 348 0
-338 -339 -348 0
-339 -340 -344 0
-339 340 344 0
339 340 -344 0
339 -340 344 0
-340 341 342 0
-340 -341 -342 0
340 -341 342 0
340 341 -342 0
341 -283 -285 0
-341 283 0
-341 285 0
-342 320 343 0
-342 -320 -343 0
342 -320 343 0
342 320 -343 0
-343 288 294 0
-343 291 294 0
-343 288 291 0
343 -288 -291 0
343 -291 -294 0
343 -288 -294 0
344 -345 346 0
344 345 -346 0
-344 345 346 0
-344 -345 -346 0
-345 307 310 0
-345 310 311 0
-345 307 311 0
345 -307 -311 0
345 -310 -311 0
345 -307 -310 0
-346 -322 -347 0
-346 322 347 0
346 322 -347 0
346 -322 347 0
347 325 -328 0
347 -325 328 0
-347 -325 -328 0
-347 325 328 0
-348 306 313 0
-348 313 314 0
-348 306 314 0
348 -313 -314 0
348 -306 -313 0
348 -306 -314 0
-349 350 396 -413 -414 0
-349 350 396 413 414 0
349 -396 0
349 -413 414 0
349 -350 0
349 413 -414 0
-350 351 364 -376 -385 0
-350 -351 -364 -376 -385 0
-350 351 364 376 385 0
-350 -351 -364 376 385 0
350 351 -364 0
350 -351 364 0
350 376 -385 0
350 -376 385 0
351 352 -353 0
351 -352 353 0
-351 -352 -353 0
-351 352 353 0
-352 320 321 0
-352 318 320 0
-352 318 321 0
352 -318 -320 0
352 -320 -321 0
352 -318 -321 0
353 354 -355 0
353 -354 355 0
-353 -354 -355 0
-353 354 355 0
354 -428 -434 0
-354 428 0
-354 434 0
355 -356 357 0
355 356 -357 0
-355 356 357 0
-355 -356 -357 0
356 -427 -435 0
-356 427 0
-356 435 0
-357 358 363 0
-357 -358 -363 0
357 -358 363 0
357 358 -363 0
-358 359 360 0
-358 -359 -360 0
358 -359 360 0
358 359 -360 0
359 -426 -436 0
-359 426 0
-359 436 0
-360 361 362 0
-360 -361 -362 0
360 -361 362 0
360 361 -362 0
-361 328 330 0
-361 330 331 0
-361 328 331 0
361 -330 -331 0
361 -328 -330 0
361 -328 -331 0
-362 325 327 0
-362 327 332 0
-362 325 332 0
362 -327 -332 0
362 -325 -327 0
362 -325 -332 0
-363 322 324 0
-363 324 333 0
-363 322 333 0
363 -324 -333 0
363 -322 -324 0
363 -322 -333 0
364 -365 366 0
364 365 -366 0
-364 365 366 0
-364 -365 -366 0
-365 335 338 0
-365 337 338 0
-365 337 335 0
365 -337 -338 0
365 -337 -335 0
365 -335 -338 0
-366 -367 -368 0
-366 367 368 0
366 367 -368 0
366 -367 368 0
367 -339 -348 0
-367 339 0
-367 348 0
368 -369 375 0
368 369 -375 0
-368 369 375 0
-368 -369 -375 0
-369 370 374 0
-369 -370 -374 0
369 -370 374 0
369 370 -374 0
-370 371 373 0
-370 -371 -373 0
370 -371 373 0
370 371 -373 0
-371 -354 -372 0
-371 354 372 0
371 354 -372 0
371 -354 372 0
372 356 -359 0
372 -356 359 0
-372 -356 -359 0
-372 356 359 0
-373 322 328 0
-373 325 328 0
-373 322 325 0
373 -322 -325 0
373 -325 -328 0
373 -322 -328 0
-374 320 343 0
-374 341 320 0
-374 341 343 0
374 -341 -320 0
374 -320 -343 0
374 -341 -343 0
-375 340 345 0
-375 345 346 0
-375 340 346 0
375 -340 -346 0
375 -345 -346 0
375 -340 -345 0
376 377 -378 0
376 -377 378 0
-376 -377 -378 0
-376 377 378 0
-377 354 355 0
-377 352 354 0
-377 352 355 0
377 -352 -354 0
377 -354 -355 0
377 -352 -355 0
378 379 -380 0
378 -379 380 0
-378 -379 -380 0
-378 379 380 0
379 -428 -435 0
-379 428 0
-379 435 0
380 -381 382 0
380 381 -382 0
-380 381 382 0
-380 -381 -382 0
381 -427 -436 0
-381 427 0
-381 436 0
-382 383 384 0
-382 -383 -384 0
382 -383 384 0
382 383 -384 0
-383 359 361 0
-383 361 362 0
-383 359 362 0
383 -361 -362 0
383 -359 -361 0
383 -359 -362 0
-384 356 358 0
-384 358 363 0
-384 356 363 0
384 -358 -363 0
384 -356 -358 0
384 -356 -363 0
385 -386 387 0
385 386 -387 0
-385 386 387 0
-385 -386 -387 0
-386 365 368 0
-386 367 368 0
-386 367 365 0
386 -367 -368 0
386 -367 -365 0
386 -365 -368 0
-387 388 389 0
-387 -388 -389 0
387 -388 389 0
387 388 -389 0
388 -369 -375 0
-388 369 0
-388 375 0
-389 -390 -395 0
-389 390 395 0
389 390 -395 0
389 -390 395 0
-390 -391 -394 0
-390 391 394 0
390 391 -394 0
390 -391 394 0
-391 392 393 0
-391 -392 -393 0
391 -392 393 0
391 392 -393 0
392 379 -381 0
392 -379 381 0
-392 -379 -381 0
-392 379 381 0
-393 435 359 0
-393 427 354 0
-393 354 359 0
-393 435 354 0
-393 427 359 0
393 -354 -359 0
393 -427 -435 -359 0
393 -427 -435 -354 0
394 -371 -373 0
-394 371 0
-394 373 0
395 -370 -374 0
-395 370 0
-395 374 0
-396 -397 -402 0
-396 397 402 0
396 397 -402 0
396 -397 402 0
397 398 -399 0
397 -398 399 0
-397 -398 -399 0
-397 398 399 0
-398 379 380 0
-398 377 379 0
-398 377 380 0
398 -377 -379 0
398 -379 -380 0
398 -377 -380 0
399 -400 401 0
399 400 -401 0
-399 400 401 0
-399 -400 -401 0
400 -428 -436 0
-400 428 0
-400 436 0
-401 381 383 0
-401 383 384 0
-401 381 384 0
401 -383 -384 0
401 -381 -383 0
401 -381 -384 0
402 -403 404 0
402 403 -404 0
-402 403 404 0
-402 -403 -404 0
-403 388 386 0
-403 386 389 0
-403 388 389 0
403 -386 -389 0
403 -388 -386 0
403 -388 -389 0
-404 -405 -412 0
-404 405 412 0
404 405 -412 0
404 -405 412 0
-405 -406 -411 0
-405 406 411 0
405 406 -411 0
405 -406 411 0
-406 -407 -410 0
-406 407 410 0
406 407 -410 0
406 -407 410 0
-407 408 0
407 -408 0
408 409 -400 0
-408 -409 0
-408 400 0
409 -379 -381 0
-409 379 0
-409 381 0
410 -392 -393 0
-410 392 0
-410 393 0
411 -391 -394 0
-411 391 0
-411 394 0
412 -390 -395 0
-412 390 0
-412 395 0
-413 398 401 0
-413 398 400 0
-413 400 401 0
413 -400 -401 0
413 -398 -401 0
413 -398 -400 0
414 -415 416 0
414 415 -416 0
-414 415 416 0
-414 -415 -416 0
-415 403 405 0
-415 405 412 0
-415 403 412 0
415 -405 -412 0
415 -403 -405 0
415 -403 -412 0
-416 -417 -420 0
-416 417 420 0
416 417 -420 0
416 -417 420 0
-417 -418 -419 0
-417 418 419 0
417 418 -419 0
417 -418 419 0
418 -407 -410 0
-418 407 0
-418 410 0
419 -409 -400 0
-419 409 0
-419 400 0
420 -406 -411 0
-420 406 0
-420 411 0
-437 0
2 0

