c Result of efficient AIG-to-CNF conversion using package CNF
p cnf 213 849
-2 3 88 163 180 0
2 -180 0
2 -3 0
2 -163 0
2 -88 0
-3 -4 -20 29 0
-3 4 20 29 0
3 -29 0
3 -4 20 0
3 4 -20 0
4 -5 11 0
4 5 -11 0
-4 5 11 0
-4 -5 -11 0
-5 7 10 0
-5 6 10 0
-5 6 7 0
5 -6 -10 0
5 -6 -7 0
5 -7 -10 0
6 -201 -202 -207 -208 0
-6 208 0
-6 201 0
-6 207 0
-6 202 0
-7 -8 -9 0
-7 8 9 0
7 8 -9 0
7 -8 9 0
8 -202 -208 0
-8 202 0
-8 208 0
9 -201 -209 0
-9 201 0
-9 209 0
10 -203 -207 0
-10 203 0
-10 207 0
-11 12 13 0
-11 -12 -13 0
11 -12 13 0
11 12 -13 0
12 -8 -9 0
-12 8 0
-12 9 0
-13 -14 -17 0
-13 14 17 0
13 14 -17 0
13 -14 17 0
-14 -15 -16 0
-14 15 16 0
14 15 -16 0
14 -15 16 0
15 -202 -209 0
-15 202 0
-15 209 0
16 -201 -210 0
-16 201 0
-16 210 0
17 18 -19 0
17 -18 19 0
-17 -18 -19 0
-17 18 19 0
18 -204 -207 0
-18 204 0
-18 207 0
19 -203 -208 0
-19 203 0
-19 208 0
20 -21 24 0
20 21 -24 0
-20 21 24 0
-20 -21 -24 0
21 -6 -22 0
-21 6 0
-21 22 0
-22 -10 -23 0
-22 10 23 0
22 10 -23 0
22 -10 23 0
23 8 -9 0
23 -8 9 0
-23 -8 -9 0
-23 8 9 0
-24 25 27 0
-24 -25 -27 0
24 -25 27 0
24 25 -27 0
-25 -19 -26 0
-25 19 26 0
25 19 -26 0
25 -19 26 0
26 15 -16 0
26 -15 16 0
-26 -15 -16 0
-26 15 16 0
-27 18 28 0
-27 -18 -28 0
27 -18 28 0
27 18 -28 0
-28 8 10 0
-28 9 10 0
-28 8 9 0
28 -8 -9 0
28 -9 -10 0
28 -8 -10 0
-29 30 45 -55 -74 0
-29 -30 -45 -55 -74 0
-29 30 45 55 74 0
-29 -30 -45 55 74 0
29 30 -45 0
29 -30 45 0
29 55 -74 0
29 -55 74 0
30 -31 32 0
30 31 -32 0
-30 31 32 0
-30 -31 -32 0
-31 12 5 0
-31 5 13 0
-31 12 13 0
31 -5 -13 0
31 -12 -5 0
31 -12 -13 0
-32 33 44 0
-32 -33 -44 0
32 -33 44 0
32 33 -44 0
-33 -34 -39 0
-33 34 39 0
33 34 -39 0
33 -34 39 0
-34 35 36 0
-34 -35 -36 0
34 -35 36 0
34 35 -36 0
35 -205 -207 0
-35 205 0
-35 207 0
-36 -37 -38 0
-36 37 38 0
36 37 -38 0
36 -37 38 0
37 -204 -208 0
-37 204 0
-37 208 0
38 -203 -209 0
-38 203 0
-38 209 0
39 40 -41 0
39 -40 41 0
-39 -40 -41 0
-39 40 41 0
40 -15 -16 0
-40 15 0
-40 16 0
41 42 -43 0
41 -42 43 0
-41 -42 -43 0
-41 42 43 0
42 -202 -210 0
-42 202 0
-42 210 0
43 -201 -211 0
-43 201 0
-43 211 0
-44 18 19 0
-44 14 18 0
-44 14 19 0
44 -14 -18 0
44 -18 -19 0
44 -14 -19 0
45 -46 47 0
45 46 -47 0
-45 46 47 0
-45 -46 -47 0
46 -21 -24 0
-46 21 0
-46 24 0
-47 48 54 0
-47 -48 -54 0
47 -48 54 0
47 48 -54 0
-48 -49 -50 0
-48 49 50 0
48 49 -50 0
48 -49 50 0
-49 -35 -37 0
-49 35 37 0
49 35 -37 0
49 -35 37 0
50 -51 53 0
50 51 -53 0
-50 51 53 0
-50 -51 -53 0
51 -38 52 0
51 38 -52 0
-51 38 52 0
-51 -38 -52 0
-52 -42 -43 0
-52 42 43 0
52 42 -43 0
52 -42 43 0
-53 209 19 0
-53 202 16 0
-53 16 19 0
-53 209 16 0
-53 202 19 0
53 -16 -19 0
53 -202 -209 -19 0
53 -202 -209 -16 0
-54 18 25 0
-54 25 28 0
-54 18 28 0
54 -25 -28 0
54 -18 -25 0
54 -18 -28 0
55 56 -57 0
55 -56 57 0
-55 -56 -57 0
-55 56 57 0
-56 31 33 0
-56 33 44 0
-56 31 44 0
56 -31 -44 0
56 -33 -44 0
56 -31 -33 0
57 -58 73 0
57 58 -73 0
-57 58 73 0
-57 -58 -73 0
58 -59 68 0
58 59 -68 0
-58 59 68 0
-58 -59 -68 0
-59 -60 -65 0
-59 60 65 0
59 60 -65 0
59 -60 65 0
-60 -61 -62 0
-60 61 62 0
60 61 -62 0
60 -61 62 0
61 -203 -210 0
-61 203 0
-61 210 0
62 63 -64 0
62 -63 64 0
-62 -63 -64 0
-62 63 64 0
63 -202 -211 0
-63 202 0
-63 211 0
64 -201 -212 0
-64 201 0
-64 212 0
65 66 -67 0
65 -66 67 0
-65 -66 -67 0
-65 66 67 0
66 -42 -43 0
-66 42 0
-66 43 0
67 -206 -207 0
-67 206 0
-67 207 0
-68 -69 -70 0
-68 69 70 0
68 69 -70 0
68 -69 70 0
-69 35 38 0
-69 37 38 0
-69 35 37 0
69 -35 -37 0
69 -37 -38 0
69 -35 -38 0
70 71 -72 0
70 -71 72 0
-70 -71 -72 0
-70 71 72 0
71 -205 -208 0
-71 205 0
-71 208 0
72 -204 -209 0
-72 204 0
-72 209 0
-73 34 41 0
-73 40 41 0
-73 40 34 0
73 -40 -41 0
73 -40 -34 0
73 -34 -41 0
74 -75 76 0
74 75 -76 0
-74 75 76 0
-74 -75 -76 0
75 -46 -47 0
-75 46 0
-75 47 0
-76 -77 -87 0
-76 77 87 0
76 77 -87 0
76 -77 87 0
-77 78 84 0
-77 -78 -84 0
77 -78 84 0
77 78 -84 0
-78 -79 -81 0
-78 79 81 0
78 79 -81 0
78 -79 81 0
-79 61 80 0
-79 -61 -80 0
79 -61 80 0
79 61 -80 0
-80 -63 -64 0
-80 63 64 0
80 63 -64 0
80 -63 64 0
81 -82 83 0
81 82 -83 0
-81 82 83 0
-81 -82 -83 0
82 -35 -37 0
-82 35 0
-82 37 0
-83 38 43 0
-83 42 43 0
-83 38 42 0
83 -38 -42 0
83 -42 -43 0
83 -38 -43 0
-84 -85 -86 0
-84 85 86 0
84 85 -86 0
84 -85 86 0
-85 49 53 0
-85 49 51 0
-85 51 53 0
85 -51 -53 0
85 -49 -53 0
85 -49 -51 0
86 67 -70 0
86 -67 70 0
-86 -67 -70 0
-86 67 70 0
87 -48 -54 0
-87 48 0
-87 54 0
-88 -89 -108 119 0
-88 89 108 119 0
88 -119 0
88 -89 108 0
88 89 -108 0
89 -90 91 0
89 90 -91 0
-89 90 91 0
-89 -90 -91 0
-90 56 73 0
-90 56 58 0
-90 58 73 0
90 -58 -73 0
90 -56 -73 0
90 -56 -58 0
-91 92 107 0
-91 -92 -107 0
91 -92 107 0
91 92 -107 0
92 -93 102 0
92 93 -102 0
-92 93 102 0
-92 -93 -102 0
-93 -94 -99 0
-93 94 99 0
93 94 -99 0
93 -94 99 0
-94 -95 -96 0
-94 95 96 0
94 95 -96 0
94 -95 96 0
95 -204 -210 0
-95 204 0
-95 210 0
96 97 -98 0
96 -97 98 0
-96 -97 -98 0
-96 97 98 0
97 -203 -211 0
-97 203 0
-97 211 0
98 -202 -212 0
-98 202 0
-98 212 0
99 -100 101 0
99 100 -101 0
-99 100 101 0
-99 -100 -101 0
100 -204 -205 -208 -209 0
-100 209 0
-100 204 0
-100 208 0
-100 205 0
-101 61 64 0
-101 63 64 0
-101 61 63 0
101 -61 -63 0
101 -63 -64 0
101 -61 -64 0
-102 -103 -104 0
-102 103 104 0
102 103 -104 0
102 -103 104 0
-103 60 67 0
-103 66 67 0
-103 66 60 0
103 -66 -67 0
103 -66 -60 0
103 -60 -67 0
104 105 -106 0
104 -105 106 0
-104 -105 -106 0
-104 105 106 0
105 -206 -208 0
-105 206 0
-105 208 0
106 -205 -209 0
-106 205 0
-106 209 0
-107 59 69 0
-107 69 70 0
-107 59 70 0
107 -69 -70 0
107 -59 -69 0
107 -59 -70 0
108 -109 111 0
108 109 -111 0
-108 109 111 0
-108 -109 -111 0
-109 110 0
109 -110 0
-110 77 0
-110 75 87 0
110 -75 -77 0
110 -77 -87 0
-111 112 118 0
-111 -112 -118 0
111 -112 118 0
111 112 -118 0
-112 113 116 0
-112 -113 -116 0
112 -113 116 0
112 113 -116 0
-113 -94 -114 0
-113 94 114 0
113 94 -114 0
113 -94 114 0
114 -101 115 0
114 101 -115 0
-114 101 115 0
-114 -101 -115 0
-115 208 72 0
-115 205 67 0
-115 67 72 0
-115 208 67 0
-115 205 72 0
115 -67 -72 0
115 -205 -208 -72 0
115 -205 -208 -67 0
-116 104 117 0
-116 -104 -117 0
116 -104 117 0
116 104 -117 0
-117 82 79 0
-117 79 83 0
-117 82 83 0
117 -79 -83 0
117 -82 -79 0
117 -82 -83 0
-118 78 85 0
-118 85 86 0
-118 78 86 0
118 -85 -86 0
118 -78 -85 0
118 -78 -86 0
-119 120 137 -144 -157 0
-119 -120 -137 -144 -157 0
-119 120 137 144 157 0
-119 -120 -137 144 157 0
119 120 -137 0
119 -120 137 0
119 144 -157 0
119 -144 157 0
120 121 -122 0
120 -121 122 0
-120 -121 -122 0
-120 121 122 0
-121 90 107 0
-121 90 92 0
-121 92 107 0
121 -92 -107 0
121 -90 -107 0
121 -90 -92 0
122 -123 136 0
122 123 -136 0
-122 123 136 0
-122 -123 -136 0
123 -124 129 0
123 124 -129 0
-123 124 129 0
-123 -124 -129 0
-124 125 126 0
-124 -125 -126 0
124 -125 126 0
124 125 -126 0
125 -205 -206 -208 -209 0
-125 209 0
-125 205 0
-125 208 0
-125 206 0
-126 -127 -128 0
-126 127 128 0
126 127 -128 0
126 -127 128 0
-127 95 98 0
-127 97 98 0
-127 95 97 0
127 -95 -97 0
127 -97 -98 0
127 -95 -98 0
128 -206 -209 0
-128 206 0
-128 209 0
-129 -130 -131 0
-129 130 131 0
129 130 -131 0
129 -130 131 0
-130 100 94 0
-130 94 101 0
-130 100 101 0
130 -94 -101 0
130 -100 -94 0
130 -100 -101 0
131 132 -133 0
131 -132 133 0
-131 -132 -133 0
-131 132 133 0
132 -205 -210 0
-132 205 0
-132 210 0
133 134 -135 0
133 -134 135 0
-133 -134 -135 0
-133 134 135 0
134 -204 -211 0
-134 204 0
-134 211 0
135 -203 -212 0
-135 203 0
-135 212 0
-136 93 103 0
-136 103 104 0
-136 93 104 0
136 -103 -104 0
136 -93 -103 0
136 -93 -104 0
137 -138 139 0
137 138 -139 0
-137 138 139 0
-137 -138 -139 0
-138 109 112 0
-138 112 118 0
-138 109 118 0
138 -109 -118 0
138 -112 -118 0
138 -109 -112 0
-139 140 143 0
-139 -140 -143 0
139 -140 143 0
139 140 -143 0
140 -124 141 0
140 124 -141 0
-140 124 141 0
-140 -124 -141 0
-141 131 142 0
-141 -131 -142 0
141 -131 142 0
141 131 -142 0
-142 94 101 0
-142 101 115 0
-142 94 115 0
142 -94 -115 0
142 -101 -115 0
142 -94 -101 0
-143 104 113 0
-143 113 117 0
-143 104 117 0
143 -113 -117 0
143 -104 -113 0
143 -104 -117 0
144 -145 146 0
144 145 -146 0
-144 145 146 0
-144 -145 -146 0
-145 121 136 0
-145 121 123 0
-145 123 136 0
145 -123 -136 0
145 -121 -136 0
145 -121 -123 0
-146 147 156 0
-146 -147 -156 0
146 -147 156 0
146 147 -156 0
147 -148 153 0
147 148 -153 0
-147 148 153 0
-147 -148 -153 0
-148 -149 -150 0
-148 149 150 0
148 149 -150 0
148 -149 150 0
149 -206 -210 0
-149 206 0
-149 210 0
150 151 -152 0
150 -151 152 0
-150 -151 -152 0
-150 151 152 0
151 -205 -211 0
-151 205 0
-151 211 0
152 -204 -212 0
-152 204 0
-152 212 0
-153 154 155 0
-153 -154 -155 0
153 -154 155 0
153 154 -155 0
-154 127 128 0
-154 125 128 0
-154 125 127 0
154 -125 -128 0
154 -125 -127 0
154 -127 -128 0
-155 132 135 0
-155 134 135 0
-155 132 134 0
155 -132 -134 0
155 -134 -135 0
155 -132 -135 0
-156 124 130 0
-156 130 131 0
-156 124 131 0
156 -130 -131 0
156 -124 -130 0
156 -124 -131 0
157 -158 159 0
157 158 -159 0
-157 158 159 0
-157 -158 -159 0
-158 138 143 0
-158 138 140 0
-158 140 143 0
158 -140 -143 0
158 -138 -143 0
158 -138 -140 0
-159 160 162 0
-159 -160 -162 0
159 -160 162 0
159 160 -162 0
160 -154 161 0
160 154 -161 0
-160 154 161 0
-160 -154 -161 0
-161 148 155 0
-161 -148 -155 0
161 -148 155 0
161 148 -155 0
-162 124 142 0
-162 124 131 0
-162 131 142 0
162 -131 -142 0
162 -124 -142 0
162 -124 -131 0
-163 -164 -173 0
-163 164 173 0
163 164 -173 0
163 -164 173 0
164 -165 166 0
164 165 -166 0
-164 165 166 0
-164 -165 -166 0
-165 145 156 0
-165 145 147 0
-165 147 156 0
165 -147 -156 0
165 -145 -156 0
165 -145 -147 0
-166 167 172 0
-166 -167 -172 0
166 -167 172 0
166 167 -172 0
167 168 -169 0
167 -168 169 0
-167 -168 -169 0
-167 168 169 0
-168 149 152 0
-168 151 152 0
-168 149 151 0
168 -149 -151 0
168 -151 -152 0
168 -149 -152 0
169 170 -171 0
169 -170 171 0
-169 -170 -171 0
-169 170 171 0
170 -206 -211 0
-170 206 0
-170 211 0
171 -205 -212 0
-171 205 0
-171 212 0
-172 148 154 0
-172 154 155 0
-172 148 155 0
172 -148 -155 0
172 -154 -155 0
172 -148 -154 0
173 -174 175 0
173 174 -175 0
-173 174 175 0
-173 -174 -175 0
-174 158 162 0
-174 158 160 0
-174 160 162 0
174 -160 -162 0
174 -158 -162 0
174 -158 -160 0
-175 176 177 0
-175 -176 -177 0
175 -176 177 0
175 176 -177 0
176 -154 -161 0
-176 154 0
-176 161 0
-177 178 179 0
-177 -178 -179 0
177 -178 179 0
177 178 -179 0
178 -148 -155 0
-178 148 0
-178 155 0
-179 -168 -169 0
-179 168 169 0
179 168 -169 0
179 -168 169 0
-180 181 186 195 196 0
-180 -181 -186 -195 -196 0
-180 181 186 -195 -196 0
-180 -181 -186 195 196 0
180 181 -186 0
180 -181 186 0
180 -195 196 0
180 195 -196 0
181 -182 183 0
181 182 -183 0
-181 182 183 0
-181 -182 -183 0
-182 165 172 0
-182 165 167 0
-182 167 172 0
182 -167 -172 0
182 -165 -172 0
182 -165 -167 0
-183 -184 -185 0
-183 184 185 0
183 184 -185 0
183 -184 185 0
-184 170 171 0
-184 168 170 0
-184 168 171 0
184 -168 -170 0
184 -170 -171 0
184 -168 -171 0
185 -206 -212 0
-185 206 0
-185 212 0
186 -187 188 0
186 187 -188 0
-186 187 188 0
-186 -187 -188 0
-187 176 174 0
-187 174 177 0
-187 176 177 0
187 -174 -177 0
187 -176 -174 0
187 -176 -177 0
-188 -189 -194 0
-188 189 194 0
188 189 -194 0
188 -189 194 0
-189 190 191 0
-189 -190 -191 0
189 -190 191 0
189 190 -191 0
190 -168 -169 0
-190 168 0
-190 169 0
-191 192 0
191 -192 0
192 193 -185 0
-192 -193 0
-192 185 0
193 -205 -206 -211 -212 0
-193 212 0
-193 205 0
-193 211 0
-193 206 0
194 -178 -179 0
-194 178 0
-194 179 0
-195 182 184 0
-195 184 185 0
-195 182 185 0
195 -184 -185 0
195 -182 -184 0
195 -182 -185 0
196 -197 198 0
196 197 -198 0
-196 197 198 0
-196 -197 -198 0
-197 187 189 0
-197 189 194 0
-197 187 194 0
197 -189 -194 0
197 -187 -189 0
197 -187 -194 0
-198 -199 -200 0
-198 199 200 0
198 199 -200 0
198 -199 200 0
199 -190 -191 0
-199 190 0
-199 191 0
200 -193 -185 0
-200 193 0
-200 185 0
-213 0
2 0

