c Result of efficient AIG-to-CNF conversion using package CNF
p cnf 40 108
2 24 -32 0
2 -24 32 0
-2 -24 -32 0
-2 24 32 0
3 4 -5 0
3 -4 5 0
-3 -4 -5 0
-3 4 5 0
4 -24 -32 0
-4 24 0
-4 32 0
5 25 -33 0
5 -25 33 0
-5 -25 -33 0
-5 25 33 0
6 -7 8 0
6 7 -8 0
-6 7 8 0
-6 -7 -8 0
7 26 -34 0
7 -26 34 0
-7 -26 -34 0
-7 26 34 0
-8 25 4 0
-8 33 4 0
-8 25 33 0
8 -25 -33 0
8 -33 -4 0
8 -25 -4 0
9 -10 11 0
9 10 -11 0
-9 10 11 0
-9 -10 -11 0
10 27 -35 0
10 -27 35 0
-10 -27 -35 0
-10 27 35 0
-11 34 8 0
-11 26 34 0
-11 26 8 0
11 -26 -34 0
11 -34 -8 0
11 -26 -8 0
12 -13 14 0
12 13 -14 0
-12 13 14 0
-12 -13 -14 0
13 28 -36 0
13 -28 36 0
-13 -28 -36 0
-13 28 36 0
-14 35 11 0
-14 27 35 0
-14 27 11 0
14 -27 -35 0
14 -35 -11 0
14 -27 -11 0
15 -16 17 0
15 16 -17 0
-15 16 17 0
-15 -16 -17 0
16 29 -37 0
16 -29 37 0
-16 -29 -37 0
-16 29 37 0
-17 36 14 0
-17 28 36 0
-17 28 14 0
17 -28 -36 0
17 -36 -14 0
17 -28 -14 0
18 -19 20 0
18 19 -20 0
-18 19 20 0
-18 -19 -20 0
19 30 -38 0
19 -30 38 0
-19 -30 -38 0
-19 30 38 0
-20 37 17 0
-20 29 37 0
-20 29 17 0
20 -29 -37 0
20 -37 -17 0
20 -29 -17 0
21 -22 23 0
21 22 -23 0
-21 22 23 0
-21 -22 -23 0
22 31 -39 0
22 -31 39 0
-22 -31 -39 0
-22 31 39 0
-23 38 20 0
-23 30 38 0
-23 30 20 0
23 -30 -38 0
23 -38 -20 0
23 -30 -20 0
-40 0
2 0
3 0
6 0
9 0
12 0
15 0
18 0
21 0

