c Result of efficient AIG-to-CNF conversion using package CNF
p cnf 54 160
-2 3 12 23 0
2 -3 0
2 -12 0
2 -23 0
-3 4 7 0
-3 -4 -7 0
3 -4 7 0
3 4 -7 0
-4 48 5 0
-4 40 48 0
-4 40 5 0
4 -40 -48 0
4 -48 -5 0
4 -40 -5 0
-5 39 6 0
-5 47 6 0
-5 39 47 0
5 -39 -47 0
5 -47 -6 0
5 -39 -6 0
6 -38 -46 0
-6 38 0
-6 46 0
-7 8 9 0
7 -8 0
7 -9 0
8 -40 -48 0
-8 40 0
-8 48 0
9 -10 -11 0
-9 10 0
-9 11 0
10 40 -48 0
10 -40 48 0
-10 -40 -48 0
-10 40 48 0
-11 39 6 0
-11 47 6 0
-11 39 47 0
11 -39 -47 0
11 -47 -6 0
11 -39 -6 0
-12 -13 -14 18 19 0
-12 13 14 18 19 0
-12 -13 -14 -18 -19 0
-12 13 14 -18 -19 0
12 -13 14 0
12 13 -14 0
12 -18 19 0
12 18 -19 0
-13 49 4 0
-13 41 49 0
-13 41 4 0
13 -41 -49 0
13 -49 -4 0
13 -41 -4 0
-14 10 16 0
-14 11 16 0
-14 15 16 0
14 -16 0
14 -10 -11 -15 0
15 41 -49 0
15 -41 49 0
-15 -41 -49 0
-15 41 49 0
-16 17 15 0
-16 8 17 0
16 -17 0
16 -8 -15 0
17 -41 -49 0
-17 41 0
-17 49 0
-18 50 13 0
-18 42 50 0
-18 42 13 0
18 -42 -50 0
18 -50 -13 0
18 -42 -13 0
-19 20 21 0
19 -20 0
19 -21 0
20 -42 -50 0
-20 42 0
-20 50 0
21 -22 -14 0
-21 22 0
-21 14 0
22 42 -50 0
22 -42 50 0
-22 -42 -50 0
-22 42 50 0
-23 24 27 -32 -35 0
-23 -24 -27 -32 -35 0
-23 24 27 32 35 0
-23 -24 -27 32 35 0
23 24 -27 0
23 -24 27 0
23 32 -35 0
23 -32 35 0
24 -25 26 0
24 25 -26 0
-24 25 26 0
-24 -25 -26 0
25 44 -52 0
25 -44 52 0
-25 -44 -52 0
-25 44 52 0
-26 51 18 0
-26 43 51 0
-26 43 18 0
26 -43 -51 0
26 -51 -18 0
26 -43 -18 0
27 -25 28 0
27 25 -28 0
-27 25 28 0
-27 -25 -28 0
-28 22 30 0
-28 14 30 0
-28 29 30 0
28 -30 0
28 -22 -14 -29 0
29 43 -51 0
29 -43 51 0
-29 -43 -51 0
-29 43 51 0
-30 31 29 0
-30 20 31 0
30 -31 0
30 -20 -29 0
31 -43 -51 0
-31 43 0
-31 51 0
32 -33 34 0
32 33 -34 0
-32 33 34 0
-32 -33 -34 0
33 45 -53 0
33 -45 53 0
-33 -45 -53 0
-33 45 53 0
-34 52 26 0
-34 44 52 0
-34 44 26 0
34 -44 -52 0
34 -52 -26 0
34 -44 -26 0
35 -33 36 0
35 33 -36 0
-35 33 36 0
-35 -33 -36 0
-36 44 37 0
-36 52 37 0
36 -37 0
36 -44 -52 0
37 -25 -28 0
-37 25 0
-37 28 0
-54 0
2 0

