c Result of efficient AIG-to-CNF conversion using package CNF
p cnf 304 1263
-2 3 129 238 278 0
2 -278 0
2 -3 0
2 -238 0
2 -129 0
-3 4 57 -90 -113 0
-3 4 57 90 113 0
3 -57 0
3 90 -113 0
3 -4 0
3 -90 113 0
-4 5 24 -32 -47 0
-4 -5 -24 -32 -47 0
-4 5 24 32 47 0
-4 -5 -24 32 47 0
4 5 -24 0
4 -5 24 0
4 32 -47 0
4 -32 47 0
5 6 -7 0
5 -6 7 0
-5 -6 -7 0
-5 6 7 0
6 -293 -297 0
-6 293 0
-6 297 0
7 -8 9 0
7 8 -9 0
-7 8 9 0
-7 -8 -9 0
8 -292 -298 0
-8 292 0
-8 298 0
-9 -10 -19 0
-9 10 19 0
9 10 -19 0
9 -10 19 0
10 -11 -12 0
-10 11 0
-10 12 0
11 -292 -297 0
-11 292 0
-11 297 0
12 -13 14 0
12 13 -14 0
-12 13 14 0
-12 -13 -14 0
13 -291 -298 0
-13 291 0
-13 298 0
-14 -15 -18 0
-14 15 18 0
14 15 -18 0
14 -15 18 0
15 -16 -17 0
-15 16 0
-15 17 0
16 -291 -297 0
-16 291 0
-16 297 0
17 -290 -298 0
-17 290 0
-17 298 0
18 -290 -299 0
-18 290 0
-18 299 0
19 20 -21 0
19 -20 21 0
-19 -20 -21 0
-19 20 21 0
20 -291 -299 0
-20 291 0
-20 299 0
21 -22 23 0
21 22 -23 0
-21 22 23 0
-21 -22 -23 0
22 -290 -300 0
-22 290 0
-22 300 0
-23 15 18 0
-23 13 18 0
-23 15 13 0
23 -15 -13 0
23 -13 -18 0
23 -15 -18 0
24 -25 27 0
24 25 -27 0
-24 25 27 0
-24 -25 -27 0
-25 11 26 0
-25 15 11 0
-25 15 26 0
25 -15 -11 0
25 -11 -26 0
25 -15 -26 0
-26 -13 -18 0
-26 13 18 0
26 13 -18 0
26 -13 18 0
-27 28 29 0
-27 -28 -29 0
27 -28 29 0
27 28 -29 0
28 -13 -18 0
-28 13 0
-28 18 0
-29 -30 -31 0
-29 30 31 0
29 30 -31 0
29 -30 31 0
-30 -20 -22 0
-30 20 22 0
30 20 -22 0
30 -20 22 0
31 6 -8 0
31 -6 8 0
-31 -6 -8 0
-31 6 8 0
32 33 -34 0
32 -33 34 0
-32 -33 -34 0
-32 33 34 0
33 -294 -297 0
-33 294 0
-33 297 0
34 -35 36 0
34 35 -36 0
-34 35 36 0
-34 -35 -36 0
35 -293 -298 0
-35 293 0
-35 298 0
-36 37 38 0
-36 -37 -38 0
36 -37 38 0
36 37 -38 0
37 -6 -7 0
-37 6 0
-37 7 0
-38 39 40 0
-38 -39 -40 0
38 -39 40 0
38 39 -40 0
39 -292 -299 0
-39 292 0
-39 299 0
-40 41 46 0
-40 -41 -46 0
40 -41 46 0
40 41 -46 0
-41 -42 -43 0
-41 42 43 0
41 42 -43 0
41 -42 43 0
42 -291 -300 0
-42 291 0
-42 300 0
43 -44 45 0
43 44 -45 0
-43 44 45 0
-43 -44 -45 0
44 -290 -301 0
-44 290 0
-44 301 0
-45 22 23 0
-45 20 22 0
-45 20 23 0
45 -20 -22 0
45 -22 -23 0
45 -20 -23 0
-46 10 19 0
-46 8 19 0
-46 10 8 0
46 -10 -8 0
46 -8 -19 0
46 -10 -19 0
47 -48 49 0
47 48 -49 0
-47 48 49 0
-47 -48 -49 0
-48 28 25 0
-48 25 29 0
-48 28 29 0
48 -25 -29 0
48 -28 -25 0
48 -28 -29 0
-49 50 56 0
-49 -50 -56 0
49 -50 56 0
49 50 -56 0
-50 -51 -53 0
-50 51 53 0
50 51 -53 0
50 -51 53 0
-51 33 52 0
-51 -33 -52 0
51 -33 52 0
51 33 -52 0
-52 -35 -39 0
-52 35 39 0
52 35 -39 0
52 -35 39 0
53 54 -55 0
53 -54 55 0
-53 -54 -55 0
-53 54 55 0
54 -20 -22 0
-54 20 0
-54 22 0
55 42 -44 0
55 -42 44 0
-55 -42 -44 0
-55 42 44 0
-56 8 30 0
-56 6 8 0
-56 6 30 0
56 -6 -8 0
56 -8 -30 0
56 -6 -30 0
-57 -58 -77 0
-57 58 77 0
57 58 -77 0
57 -58 77 0
58 59 -60 0
58 -59 60 0
-58 -59 -60 0
-58 59 60 0
59 -295 -297 0
-59 295 0
-59 297 0
60 -61 62 0
60 61 -62 0
-60 61 62 0
-60 -61 -62 0
61 -294 -298 0
-61 294 0
-61 298 0
-62 63 64 0
-62 -63 -64 0
62 -63 64 0
62 63 -64 0
63 -33 -34 0
-63 33 0
-63 34 0
-64 65 66 0
-64 -65 -66 0
64 -65 66 0
64 65 -66 0
65 -293 -299 0
-65 293 0
-65 299 0
-66 67 76 0
-66 -67 -76 0
66 -67 76 0
66 67 -76 0
-67 68 69 0
-67 -68 -69 0
67 -68 69 0
67 68 -69 0
68 -292 -300 0
-68 292 0
-68 300 0
-69 70 75 0
-69 -70 -75 0
69 -70 75 0
69 70 -75 0
-70 -71 -72 0
-70 71 72 0
70 71 -72 0
70 -71 72 0
71 -291 -301 0
-71 291 0
-71 301 0
72 -73 74 0
72 73 -74 0
-72 73 74 0
-72 -73 -74 0
73 -290 -302 0
-73 290 0
-73 302 0
-74 44 45 0
-74 42 44 0
-74 42 45 0
74 -42 -44 0
74 -44 -45 0
74 -42 -45 0
-75 39 41 0
-75 41 46 0
-75 39 46 0
75 -41 -46 0
75 -39 -41 0
75 -39 -46 0
-76 35 38 0
-76 37 35 0
-76 37 38 0
76 -37 -35 0
76 -35 -38 0
76 -37 -38 0
77 78 -79 0
77 -78 79 0
-77 -78 -79 0
-77 78 79 0
-78 48 50 0
-78 50 56 0
-78 48 56 0
78 -48 -56 0
78 -50 -56 0
78 -48 -50 0
79 -80 89 0
79 80 -89 0
-79 80 89 0
-79 -80 -89 0
80 -81 86 0
80 81 -86 0
-80 81 86 0
-80 -81 -86 0
-81 -82 -84 0
-81 82 84 0
81 82 -84 0
81 -82 84 0
-82 -68 -83 0
-82 68 83 0
82 68 -83 0
82 -68 83 0
83 71 -73 0
83 -71 73 0
-83 -71 -73 0
-83 71 73 0
84 85 -59 0
84 -85 59 0
-84 -85 -59 0
-84 85 59 0
85 -42 -44 0
-85 42 0
-85 44 0
-86 -87 -88 0
-86 87 88 0
86 87 -88 0
86 -87 88 0
-87 33 39 0
-87 35 39 0
-87 33 35 0
87 -33 -35 0
87 -35 -39 0
87 -33 -39 0
88 61 -65 0
88 -61 65 0
-88 -61 -65 0
-88 61 65 0
-89 51 55 0
-89 54 55 0
-89 54 51 0
89 -54 -55 0
89 -54 -51 0
89 -51 -55 0
90 91 -92 0
90 -91 92 0
-90 -91 -92 0
-90 91 92 0
91 -296 -297 0
-91 296 0
-91 297 0
92 93 -94 0
92 -93 94 0
-92 -93 -94 0
-92 93 94 0
93 -295 -298 0
-93 295 0
-93 298 0
94 95 -96 0
94 -95 96 0
-94 -95 -96 0
-94 95 96 0
95 -59 -60 0
-95 59 0
-95 60 0
96 -97 98 0
96 97 -98 0
-96 97 98 0
-96 -97 -98 0
97 -294 -299 0
-97 294 0
-97 299 0
-98 99 112 0
-98 -99 -112 0
98 -99 112 0
98 99 -112 0
-99 100 101 0
-99 -100 -101 0
99 -100 101 0
99 100 -101 0
100 -293 -300 0
-100 293 0
-100 300 0
-101 102 111 0
-101 -102 -111 0
101 -102 111 0
101 102 -111 0
-102 103 104 0
-102 -103 -104 0
102 -103 104 0
102 103 -104 0
103 -292 -301 0
-103 292 0
-103 301 0
-104 105 110 0
-104 -105 -110 0
104 -105 110 0
104 105 -110 0
-105 -106 -107 0
-105 106 107 0
105 106 -107 0
105 -106 107 0
106 -291 -302 0
-106 291 0
-106 302 0
107 -108 109 0
107 108 -109 0
-107 108 109 0
-107 -108 -109 0
108 -290 -303 0
-108 290 0
-108 303 0
-109 73 74 0
-109 71 73 0
-109 71 74 0
109 -71 -73 0
109 -73 -74 0
109 -71 -74 0
-110 68 70 0
-110 70 75 0
-110 68 75 0
110 -70 -75 0
110 -68 -70 0
110 -68 -75 0
-111 65 67 0
-111 67 76 0
-111 65 76 0
111 -67 -76 0
111 -65 -67 0
111 -65 -76 0
-112 61 64 0
-112 63 61 0
-112 63 64 0
112 -63 -61 0
112 -61 -64 0
112 -63 -64 0
113 -114 115 0
113 114 -115 0
-113 114 115 0
-113 -114 -115 0
-114 78 89 0
-114 78 80 0
-114 80 89 0
114 -80 -89 0
114 -78 -89 0
114 -78 -80 0
-115 116 128 0
-115 -116 -128 0
115 -116 128 0
115 116 -128 0
116 -117 123 0
116 117 -123 0
-116 117 123 0
-116 -117 -123 0
-117 -118 -120 0
-117 118 120 0
117 118 -120 0
117 -118 120 0
-118 -97 -119 0
-118 97 119 0
118 97 -119 0
118 -97 119 0
119 100 -103 0
119 -100 103 0
-119 -100 -103 0
-119 100 103 0
120 -121 122 0
120 121 -122 0
-120 121 122 0
-120 -121 -122 0
121 -61 -65 0
-121 61 0
-121 65 0
-122 302 71 0
-122 290 68 0
-122 68 71 0
-122 302 68 0
-122 290 71 0
122 -68 -71 0
122 -290 -302 -71 0
122 -290 -302 -68 0
-123 -124 -125 0
-123 124 125 0
123 124 -125 0
123 -124 125 0
-124 295 82 0
-124 85 82 0
-124 295 85 0
-124 297 82 0
-124 297 85 0
124 -85 -82 0
124 -295 -297 -82 0
124 -295 -297 -85 0
125 126 -127 0
125 -126 127 0
-125 -126 -127 0
-125 126 127 0
126 106 -108 0
126 -106 108 0
-126 -106 -108 0
-126 106 108 0
127 91 -93 0
127 -91 93 0
-127 -91 -93 0
-127 91 93 0
-128 81 87 0
-128 87 88 0
-128 81 88 0
128 -87 -88 0
128 -81 -87 0
128 -81 -88 0
-129 -130 -153 170 0
-129 130 153 170 0
129 -170 0
129 -130 153 0
129 130 -153 0
130 -131 132 0
130 131 -132 0
-130 131 132 0
-130 -131 -132 0
131 -296 -298 0
-131 296 0
-131 298 0
-132 133 134 0
-132 -133 -134 0
132 -133 134 0
132 133 -134 0
133 -295 -299 0
-133 295 0
-133 299 0
-134 135 136 0
-134 -135 -136 0
134 -135 136 0
134 135 -136 0
135 -91 -92 0
-135 91 0
-135 92 0
-136 137 138 0
-136 -137 -138 0
136 -137 138 0
136 137 -138 0
137 -294 -300 0
-137 294 0
-137 300 0
-138 139 152 0
-138 -139 -152 0
138 -139 152 0
138 139 -152 0
-139 140 141 0
-139 -140 -141 0
139 -140 141 0
139 140 -141 0
140 -293 -301 0
-140 293 0
-140 301 0
-141 142 151 0
-141 -142 -151 0
141 -142 151 0
141 142 -151 0
-142 143 144 0
-142 -143 -144 0
142 -143 144 0
142 143 -144 0
143 -292 -302 0
-143 292 0
-143 302 0
-144 145 150 0
-144 -145 -150 0
144 -145 150 0
144 145 -150 0
-145 146 147 0
-145 -146 -147 0
145 -146 147 0
145 146 -147 0
146 -291 -303 0
-146 291 0
-146 303 0
-147 148 149 0
-147 -148 -149 0
147 -148 149 0
147 148 -149 0
-148 108 109 0
-148 106 108 0
-148 106 109 0
148 -106 -108 0
148 -108 -109 0
148 -106 -109 0
-149 103 105 0
-149 105 110 0
-149 103 110 0
149 -105 -110 0
149 -103 -105 0
149 -103 -110 0
-150 100 102 0
-150 102 111 0
-150 100 111 0
150 -102 -111 0
150 -100 -102 0
150 -100 -111 0
-151 97 99 0
-151 99 112 0
-151 97 112 0
151 -99 -112 0
151 -97 -99 0
151 -97 -112 0
-152 95 96 0
-152 93 96 0
-152 95 93 0
152 -95 -93 0
152 -93 -96 0
152 -95 -96 0
153 154 -155 0
153 -154 155 0
-153 -154 -155 0
-153 154 155 0
-154 114 128 0
-154 114 116 0
-154 116 128 0
154 -116 -128 0
154 -114 -128 0
154 -114 -116 0
155 -156 169 0
155 156 -169 0
-155 156 169 0
-155 -156 -169 0
156 -157 163 0
156 157 -163 0
-156 157 163 0
-156 -157 -163 0
-157 -158 -160 0
-157 158 160 0
157 158 -160 0
157 -158 160 0
-158 -133 -159 0
-158 133 159 0
158 133 -159 0
158 -133 159 0
159 137 -140 0
159 -137 140 0
-159 -137 -140 0
-159 137 140 0
160 -161 162 0
160 161 -162 0
-160 161 162 0
-160 -161 -162 0
-161 297 126 0
-161 296 93 0
-161 93 126 0
-161 297 93 0
-161 296 126 0
161 -93 -126 0
161 -296 -297 -126 0
161 -296 -297 -93 0
-162 97 103 0
-162 100 103 0
-162 97 100 0
162 -97 -100 0
162 -100 -103 0
162 -97 -103 0
-163 -164 -165 0
-163 164 165 0
163 164 -165 0
163 -164 165 0
-164 121 118 0
-164 118 122 0
-164 121 122 0
164 -118 -122 0
164 -121 -118 0
164 -121 -122 0
165 166 -167 0
165 -166 167 0
-165 -166 -167 0
-165 166 167 0
166 143 -146 0
166 -143 146 0
-166 -143 -146 0
-166 143 146 0
167 168 -131 0
167 -168 131 0
-167 -168 -131 0
-167 168 131 0
168 -106 -108 0
-168 106 0
-168 108 0
-169 117 124 0
-169 124 125 0
-169 117 125 0
169 -124 -125 0
169 -117 -124 0
169 -117 -125 0
-170 171 192 -208 -225 0
-170 -171 -192 -208 -225 0
-170 171 192 208 225 0
-170 -171 -192 208 225 0
170 171 -192 0
170 -171 192 0
170 208 -225 0
170 -208 225 0
171 172 -173 0
171 -172 173 0
-171 -172 -173 0
-171 172 173 0
172 -131 -132 0
-172 131 0
-172 132 0
173 174 -175 0
173 -174 175 0
-173 -174 -175 0
-173 174 175 0
174 -296 -299 0
-174 296 0
-174 299 0
175 -176 177 0
175 176 -177 0
-175 176 177 0
-175 -176 -177 0
176 -295 -300 0
-176 295 0
-176 300 0
-177 178 191 0
-177 -178 -191 0
177 -178 191 0
177 178 -191 0
-178 179 180 0
-178 -179 -180 0
178 -179 180 0
178 179 -180 0
179 -294 -301 0
-179 294 0
-179 301 0
-180 181 190 0
-180 -181 -190 0
180 -181 190 0
180 181 -190 0
-181 182 183 0
-181 -182 -183 0
181 -182 183 0
181 182 -183 0
182 -293 -302 0
-182 293 0
-182 302 0
-183 184 189 0
-183 -184 -189 0
183 -184 189 0
183 184 -189 0
-184 185 186 0
-184 -185 -186 0
184 -185 186 0
184 185 -186 0
185 -292 -303 0
-185 292 0
-185 303 0
-186 187 188 0
-186 -187 -188 0
186 -187 188 0
186 187 -188 0
-187 146 148 0
-187 148 149 0
-187 146 149 0
187 -148 -149 0
187 -146 -148 0
187 -146 -149 0
-188 143 145 0
-188 145 150 0
-188 143 150 0
188 -145 -150 0
188 -143 -145 0
188 -143 -150 0
-189 140 142 0
-189 142 151 0
-189 140 151 0
189 -142 -151 0
189 -140 -142 0
189 -140 -151 0
-190 137 139 0
-190 139 152 0
-190 137 152 0
190 -139 -152 0
190 -137 -139 0
190 -137 -152 0
-191 133 136 0
-191 135 133 0
-191 135 136 0
191 -135 -133 0
191 -133 -136 0
191 -135 -136 0
192 193 -194 0
192 -193 194 0
-192 -193 -194 0
-192 193 194 0
-193 154 169 0
-193 154 156 0
-193 156 169 0
193 -156 -169 0
193 -154 -169 0
193 -154 -156 0
194 -195 207 0
194 195 -207 0
-194 195 207 0
-194 -195 -207 0
195 -196 202 0
195 196 -202 0
-195 196 202 0
-195 -196 -202 0
-196 -197 -199 0
-196 197 199 0
196 197 -199 0
196 -197 199 0
-197 -179 -198 0
-197 179 198 0
197 179 -198 0
197 -179 198 0
198 182 -185 0
198 -182 185 0
-198 -182 -185 0
-198 182 185 0
199 -200 201 0
199 200 -201 0
-199 200 201 0
-199 -200 -201 0
-200 168 166 0
-200 131 166 0
-200 168 131 0
200 -168 -131 0
200 -131 -166 0
200 -168 -166 0
-201 133 140 0
-201 137 140 0
-201 133 137 0
201 -133 -137 0
201 -137 -140 0
201 -133 -140 0
-202 -203 -204 0
-202 203 204 0
202 203 -204 0
202 -203 204 0
-203 158 161 0
-203 161 162 0
-203 158 162 0
203 -158 -162 0
203 -161 -162 0
203 -158 -161 0
204 205 -206 0
204 -205 206 0
-204 -205 -206 0
-204 205 206 0
205 -143 -146 0
-205 143 0
-205 146 0
206 174 -176 0
206 -174 176 0
-206 -174 -176 0
-206 174 176 0
-207 157 164 0
-207 164 165 0
-207 157 165 0
207 -164 -165 0
207 -157 -164 0
207 -157 -165 0
208 209 -210 0
208 -209 210 0
-208 -209 -210 0
-208 209 210 0
-209 299 175 0
-209 296 172 0
-209 172 175 0
-209 299 172 0
-209 296 175 0
209 -172 -175 0
209 -296 -299 -175 0
209 -296 -299 -172 0
210 211 -212 0
210 -211 212 0
-210 -211 -212 0
-210 211 212 0
211 -296 -300 0
-211 296 0
-211 300 0
212 -213 214 0
212 213 -214 0
-212 213 214 0
-212 -213 -214 0
213 -295 -301 0
-213 295 0
-213 301 0
-214 215 224 0
-214 -215 -224 0
214 -215 224 0
214 215 -224 0
-215 216 217 0
-215 -216 -217 0
215 -216 217 0
215 216 -217 0
216 -294 -302 0
-216 294 0
-216 302 0
-217 218 223 0
-217 -218 -223 0
217 -218 223 0
217 218 -223 0
-218 219 220 0
-218 -219 -220 0
218 -219 220 0
218 219 -220 0
219 -293 -303 0
-219 293 0
-219 303 0
-220 221 222 0
-220 -221 -222 0
220 -221 222 0
220 221 -222 0
-221 185 187 0
-221 187 188 0
-221 185 188 0
221 -187 -188 0
221 -185 -187 0
221 -185 -188 0
-222 182 184 0
-222 184 189 0
-222 182 189 0
222 -184 -189 0
222 -182 -184 0
222 -182 -189 0
-223 179 181 0
-223 181 190 0
-223 179 190 0
223 -181 -190 0
223 -179 -181 0
223 -179 -190 0
-224 176 178 0
-224 178 191 0
-224 176 191 0
224 -178 -191 0
224 -176 -178 0
224 -176 -191 0
225 -226 227 0
225 226 -227 0
-225 226 227 0
-225 -226 -227 0
-226 193 207 0
-226 193 195 0
-226 195 207 0
226 -195 -207 0
226 -193 -207 0
226 -193 -195 0
-227 228 237 0
-227 -228 -237 0
227 -228 237 0
227 228 -237 0
228 -229 233 0
228 229 -233 0
-228 229 233 0
-228 -229 -233 0
-229 -230 -231 0
-229 230 231 0
229 230 -231 0
229 -230 231 0
-230 205 176 0
-230 174 176 0
-230 205 174 0
230 -205 -174 0
230 -174 -176 0
230 -205 -176 0
231 -211 232 0
231 211 -232 0
-231 211 232 0
-231 -211 -232 0
-232 179 185 0
-232 182 185 0
-232 179 182 0
232 -179 -182 0
232 -182 -185 0
232 -179 -185 0
-233 -234 -235 0
-233 234 235 0
233 234 -235 0
233 -234 235 0
-234 197 200 0
-234 200 201 0
-234 197 201 0
234 -197 -201 0
234 -200 -201 0
234 -197 -200 0
235 213 -236 0
235 -213 236 0
-235 -213 -236 0
-235 213 236 0
236 216 -219 0
236 -216 219 0
-236 -216 -219 0
-236 216 219 0
-237 196 203 0
-237 203 204 0
-237 196 204 0
237 -203 -204 0
237 -196 -203 0
237 -196 -204 0
-238 239 252 -262 -271 0
-238 -239 -252 -262 -271 0
-238 239 252 262 271 0
-238 -239 -252 262 271 0
238 239 -252 0
238 -239 252 0
238 262 -271 0
238 -262 271 0
239 240 -241 0
239 -240 241 0
-239 -240 -241 0
-239 240 241 0
-240 211 212 0
-240 209 211 0
-240 209 212 0
240 -209 -211 0
240 -211 -212 0
240 -209 -212 0
241 242 -243 0
241 -242 243 0
-241 -242 -243 0
-241 242 243 0
242 -296 -301 0
-242 296 0
-242 301 0
243 -244 245 0
243 244 -245 0
-243 244 245 0
-243 -244 -245 0
244 -295 -302 0
-244 295 0
-244 302 0
-245 246 251 0
-245 -246 -251 0
245 -246 251 0
245 246 -251 0
-246 247 248 0
-246 -247 -248 0
246 -247 248 0
246 247 -248 0
247 -294 -303 0
-247 294 0
-247 303 0
-248 249 250 0
-248 -249 -250 0
248 -249 250 0
248 249 -250 0
-249 219 221 0
-249 221 222 0
-249 219 222 0
249 -221 -222 0
249 -219 -221 0
249 -219 -222 0
-250 216 218 0
-250 218 223 0
-250 216 223 0
250 -218 -223 0
250 -216 -218 0
250 -216 -223 0
-251 213 215 0
-251 215 224 0
-251 213 224 0
251 -215 -224 0
251 -213 -215 0
251 -213 -224 0
252 -253 254 0
252 253 -254 0
-252 253 254 0
-252 -253 -254 0
-253 226 237 0
-253 226 228 0
-253 228 237 0
253 -228 -237 0
253 -226 -237 0
253 -226 -228 0
-254 255 261 0
-254 -255 -261 0
254 -255 261 0
254 255 -261 0
255 -256 258 0
255 256 -258 0
-255 256 258 0
-255 -256 -258 0
-256 -242 -257 0
-256 242 257 0
256 242 -257 0
256 -242 257 0
257 244 -247 0
257 -244 247 0
-257 -244 -247 0
-257 244 247 0
-258 259 260 0
-258 -259 -260 0
258 -259 260 0
258 259 -260 0
-259 211 230 0
-259 230 232 0
-259 211 232 0
259 -230 -232 0
259 -211 -230 0
259 -211 -232 0
-260 213 219 0
-260 216 219 0
-260 213 216 0
260 -213 -216 0
260 -216 -219 0
260 -213 -219 0
-261 229 234 0
-261 234 235 0
-261 229 235 0
261 -234 -235 0
261 -229 -234 0
261 -229 -235 0
262 263 -264 0
262 -263 264 0
-262 -263 -264 0
-262 263 264 0
-263 242 243 0
-263 240 242 0
-263 240 243 0
263 -240 -242 0
263 -242 -243 0
263 -240 -243 0
264 265 -266 0
264 -265 266 0
-264 -265 -266 0
-264 265 266 0
265 -296 -302 0
-265 296 0
-265 302 0
266 -267 268 0
266 267 -268 0
-266 267 268 0
-266 -267 -268 0
267 -295 -303 0
-267 295 0
-267 303 0
-268 269 270 0
-268 -269 -270 0
268 -269 270 0
268 269 -270 0
-269 247 249 0
-269 249 250 0
-269 247 250 0
269 -249 -250 0
269 -247 -249 0
269 -247 -250 0
-270 244 246 0
-270 246 251 0
-270 244 251 0
270 -246 -251 0
270 -244 -246 0
270 -244 -251 0
271 -272 273 0
271 272 -273 0
-271 272 273 0
-271 -272 -273 0
-272 253 261 0
-272 253 255 0
-272 255 261 0
272 -255 -261 0
272 -253 -261 0
272 -253 -255 0
-273 274 277 0
-273 -274 -277 0
273 -274 277 0
273 274 -277 0
274 275 -276 0
274 -275 276 0
-274 -275 -276 0
-274 275 276 0
-275 302 247 0
-275 295 242 0
-275 242 247 0
-275 302 242 0
-275 295 247 0
275 -242 -247 0
275 -295 -302 -247 0
275 -295 -302 -242 0
276 265 -267 0
276 -265 267 0
-276 -265 -267 0
-276 265 267 0
-277 256 259 0
-277 259 260 0
-277 256 260 0
277 -256 -260 0
277 -259 -260 0
277 -256 -259 0
-278 279 284 288 289 0
-278 -279 -284 288 289 0
-278 279 284 -288 -289 0
-278 -279 -284 -288 -289 0
278 279 -284 0
278 -279 284 0
278 -288 289 0
278 288 -289 0
279 280 -281 0
279 -280 281 0
-279 -280 -281 0
-279 280 281 0
-280 265 266 0
-280 263 265 0
-280 263 266 0
280 -263 -265 0
280 -265 -266 0
280 -263 -266 0
281 -282 283 0
281 282 -283 0
-281 282 283 0
-281 -282 -283 0
282 -296 -303 0
-282 296 0
-282 303 0
-283 267 269 0
-283 269 270 0
-283 267 270 0
283 -269 -270 0
283 -267 -269 0
283 -267 -270 0
284 -285 286 0
284 285 -286 0
-284 285 286 0
-284 -285 -286 0
-285 272 277 0
-285 272 274 0
-285 274 277 0
285 -274 -277 0
285 -272 -277 0
285 -272 -274 0
-286 282 287 0
-286 -282 -287 0
286 -282 287 0
286 282 -287 0
-287 267 275 0
-287 265 267 0
-287 265 275 0
287 -265 -267 0
287 -267 -275 0
287 -265 -275 0
-288 280 283 0
-288 280 282 0
-288 282 283 0
288 -282 -283 0
288 -280 -283 0
288 -280 -282 0
-289 282 285 0
-289 285 287 0
-289 282 287 0
289 -285 -287 0
289 -282 -285 0
289 -282 -287 0
-304 0
2 0

