c Result of efficient AIG-to-CNF conversion using package CNF
p cnf 1011 4279
-2 3 92 452 833 0
2 -833 0
2 -3 0
2 -452 0
2 -92 0
-3 -4 -23 32 0
-3 4 23 32 0
3 -32 0
3 -4 23 0
3 4 -23 0
4 5 -6 0
4 -5 6 0
-4 -5 -6 0
-4 5 6 0
5 -990 -999 0
-5 990 0
-5 999 0
6 -7 8 0
6 7 -8 0
-6 7 8 0
-6 -7 -8 0
7 -989 -1000 0
-7 989 0
-7 1000 0
-8 -9 -18 0
-8 9 18 0
8 9 -18 0
8 -9 18 0
9 -10 -11 0
-9 10 0
-9 11 0
10 -989 -999 0
-10 989 0
-10 999 0
11 -12 13 0
11 12 -13 0
-11 12 13 0
-11 -12 -13 0
12 -988 -1000 0
-12 988 0
-12 1000 0
-13 -14 -17 0
-13 14 17 0
13 14 -17 0
13 -14 17 0
14 -15 -16 0
-14 15 0
-14 16 0
15 -988 -999 0
-15 988 0
-15 999 0
16 -987 -1000 0
-16 987 0
-16 1000 0
17 -987 -1001 0
-17 987 0
-17 1001 0
18 19 -20 0
18 -19 20 0
-18 -19 -20 0
-18 19 20 0
19 -988 -1001 0
-19 988 0
-19 1001 0
20 -21 22 0
20 21 -22 0
-20 21 22 0
-20 -21 -22 0
21 -987 -1002 0
-21 987 0
-21 1002 0
-22 14 17 0
-22 12 17 0
-22 14 12 0
22 -14 -12 0
22 -12 -17 0
22 -14 -17 0
23 24 -29 0
23 -24 29 0
-23 -24 -29 0
-23 24 29 0
-24 25 27 0
-24 -25 -27 0
24 -25 27 0
24 25 -27 0
-25 -7 -26 0
-25 7 26 0
25 7 -26 0
25 -7 26 0
26 19 -21 0
26 -19 21 0
-26 -19 -21 0
-26 19 21 0
-27 5 28 0
-27 -5 -28 0
27 -5 28 0
27 5 -28 0
-28 10 17 0
-28 12 17 0
-28 10 12 0
28 -10 -12 0
28 -12 -17 0
28 -10 -17 0
29 -14 -30 0
-29 14 0
-29 30 0
-30 -10 -31 0
-30 10 31 0
30 10 -31 0
30 -10 31 0
31 12 -17 0
31 -12 17 0
-31 -12 -17 0
-31 12 17 0
-32 33 48 -58 -77 0
-32 -33 -48 -58 -77 0
-32 33 48 58 77 0
-32 -33 -48 58 77 0
32 33 -48 0
32 -33 48 0
32 58 -77 0
32 -58 77 0
33 34 -35 0
33 -34 35 0
-33 -34 -35 0
-33 34 35 0
34 -991 -999 0
-34 991 0
-34 999 0
35 -36 37 0
35 36 -37 0
-35 36 37 0
-35 -36 -37 0
36 -990 -1000 0
-36 990 0
-36 1000 0
-37 38 39 0
-37 -38 -39 0
37 -38 39 0
37 38 -39 0
38 -5 -6 0
-38 5 0
-38 6 0
-39 40 41 0
-39 -40 -41 0
39 -40 41 0
39 40 -41 0
40 -989 -1001 0
-40 989 0
-40 1001 0
-41 42 47 0
-41 -42 -47 0
41 -42 47 0
41 42 -47 0
-42 -43 -44 0
-42 43 44 0
42 43 -44 0
42 -43 44 0
43 -988 -1002 0
-43 988 0
-43 1002 0
44 -45 46 0
44 45 -46 0
-44 45 46 0
-44 -45 -46 0
45 -987 -1003 0
-45 987 0
-45 1003 0
-46 21 22 0
-46 19 21 0
-46 19 22 0
46 -19 -21 0
46 -21 -22 0
46 -19 -22 0
-47 9 18 0
-47 7 18 0
-47 9 7 0
47 -9 -7 0
47 -7 -18 0
47 -9 -18 0
48 -49 50 0
48 49 -50 0
-48 49 50 0
-48 -49 -50 0
49 -24 -29 0
-49 24 0
-49 29 0
-50 51 57 0
-50 -51 -57 0
50 -51 57 0
50 51 -57 0
-51 -52 -53 0
-51 52 53 0
51 52 -53 0
51 -52 53 0
-52 -34 -36 0
-52 34 36 0
52 34 -36 0
52 -34 36 0
53 -54 56 0
53 54 -56 0
-53 54 56 0
-53 -54 -56 0
54 -40 55 0
54 40 -55 0
-54 40 55 0
-54 -40 -55 0
-55 -43 -45 0
-55 43 45 0
55 43 -45 0
55 -43 45 0
-56 7 21 0
-56 19 21 0
-56 7 19 0
56 -7 -19 0
56 -19 -21 0
56 -7 -21 0
-57 5 25 0
-57 25 28 0
-57 5 28 0
57 -25 -28 0
57 -5 -25 0
57 -5 -28 0
58 59 -60 0
58 -59 60 0
-58 -59 -60 0
-58 59 60 0
59 -992 -999 0
-59 992 0
-59 999 0
60 -61 62 0
60 61 -62 0
-60 61 62 0
-60 -61 -62 0
61 -991 -1000 0
-61 991 0
-61 1000 0
-62 63 64 0
-62 -63 -64 0
62 -63 64 0
62 63 -64 0
63 -34 -35 0
-63 34 0
-63 35 0
-64 65 66 0
-64 -65 -66 0
64 -65 66 0
64 65 -66 0
65 -990 -1001 0
-65 990 0
-65 1001 0
-66 67 76 0
-66 -67 -76 0
66 -67 76 0
66 67 -76 0
-67 68 69 0
-67 -68 -69 0
67 -68 69 0
67 68 -69 0
68 -989 -1002 0
-68 989 0
-68 1002 0
-69 70 75 0
-69 -70 -75 0
69 -70 75 0
69 70 -75 0
-70 -71 -72 0
-70 71 72 0
70 71 -72 0
70 -71 72 0
71 -988 -1003 0
-71 988 0
-71 1003 0
72 -73 74 0
72 73 -74 0
-72 73 74 0
-72 -73 -74 0
73 -987 -1004 0
-73 987 0
-73 1004 0
-74 45 46 0
-74 43 45 0
-74 43 46 0
74 -43 -45 0
74 -45 -46 0
74 -43 -46 0
-75 40 42 0
-75 42 47 0
-75 40 47 0
75 -42 -47 0
75 -40 -42 0
75 -40 -47 0
-76 36 39 0
-76 38 36 0
-76 38 39 0
76 -38 -36 0
76 -36 -39 0
76 -38 -39 0
77 -78 79 0
77 78 -79 0
-77 78 79 0
-77 -78 -79 0
78 -49 -50 0
-78 49 0
-78 50 0
-79 -80 -91 0
-79 80 91 0
79 80 -91 0
79 -80 91 0
-80 81 87 0
-80 -81 -87 0
80 -81 87 0
80 81 -87 0
-81 -82 -84 0
-81 82 84 0
81 82 -84 0
81 -82 84 0
-82 -68 -83 0
-82 68 83 0
82 68 -83 0
82 -68 83 0
83 71 -73 0
83 -71 73 0
-83 -71 -73 0
-83 71 73 0
84 -85 86 0
84 85 -86 0
-84 85 86 0
-84 -85 -86 0
85 -34 -36 0
-85 34 0
-85 36 0
-86 1003 43 0
-86 987 40 0
-86 40 43 0
-86 1003 40 0
-86 987 43 0
86 -40 -43 0
86 -987 -1003 -43 0
86 -987 -1003 -40 0
-87 88 89 0
-87 -88 -89 0
87 -88 89 0
87 88 -89 0
-88 52 56 0
-88 52 54 0
-88 54 56 0
88 -54 -56 0
88 -52 -56 0
88 -52 -54 0
-89 -59 -90 0
-89 59 90 0
89 59 -90 0
89 -59 90 0
90 61 -65 0
90 -61 65 0
-90 -61 -65 0
-90 61 65 0
91 -51 -57 0
-91 51 0
-91 57 0
-92 93 116 134 243 0
-92 -93 -116 134 243 0
92 -243 0
92 -93 116 0
92 -134 0
92 93 -116 0
93 94 -95 0
93 -94 95 0
-93 -94 -95 0
-93 94 95 0
94 -993 -999 0
-94 993 0
-94 999 0
95 -96 97 0
95 96 -97 0
-95 96 97 0
-95 -96 -97 0
96 -992 -1000 0
-96 992 0
-96 1000 0
-97 98 99 0
-97 -98 -99 0
97 -98 99 0
97 98 -99 0
98 -59 -60 0
-98 59 0
-98 60 0
-99 100 101 0
-99 -100 -101 0
99 -100 101 0
99 100 -101 0
100 -991 -1001 0
-100 991 0
-100 1001 0
-101 102 115 0
-101 -102 -115 0
101 -102 115 0
101 102 -115 0
-102 103 104 0
-102 -103 -104 0
102 -103 104 0
102 103 -104 0
103 -990 -1002 0
-103 990 0
-103 1002 0
-104 105 114 0
-104 -105 -114 0
104 -105 114 0
104 105 -114 0
-105 106 107 0
-105 -106 -107 0
105 -106 107 0
105 106 -107 0
106 -989 -1003 0
-106 989 0
-106 1003 0
-107 108 113 0
-107 -108 -113 0
107 -108 113 0
107 108 -113 0
-108 -109 -110 0
-108 109 110 0
108 109 -110 0
108 -109 110 0
109 -988 -1004 0
-109 988 0
-109 1004 0
110 -111 112 0
110 111 -112 0
-110 111 112 0
-110 -111 -112 0
111 -987 -1005 0
-111 987 0
-111 1005 0
-112 73 74 0
-112 71 73 0
-112 71 74 0
112 -71 -73 0
112 -73 -74 0
112 -71 -74 0
-113 68 70 0
-113 70 75 0
-113 68 75 0
113 -70 -75 0
113 -68 -70 0
113 -68 -75 0
-114 65 67 0
-114 67 76 0
-114 65 76 0
114 -67 -76 0
114 -65 -67 0
114 -65 -76 0
-115 61 64 0
-115 63 61 0
-115 63 64 0
115 -63 -61 0
115 -61 -64 0
115 -63 -64 0
116 -117 118 0
116 117 -118 0
-116 117 118 0
-116 -117 -118 0
117 -78 -79 0
-117 78 0
-117 79 0
-118 -119 -133 0
-118 119 133 0
118 119 -133 0
118 -119 133 0
-119 120 132 0
-119 -120 -132 0
119 -120 132 0
119 120 -132 0
-120 -121 -126 0
-120 121 126 0
120 121 -126 0
120 -121 126 0
-121 -122 -124 0
-121 122 124 0
121 122 -124 0
121 -122 124 0
-122 -96 -123 0
-122 96 123 0
122 96 -123 0
122 -96 123 0
123 100 -103 0
123 -100 103 0
-123 -100 -103 0
-123 100 103 0
124 -106 125 0
124 106 -125 0
-124 106 125 0
-124 -106 -125 0
-125 -109 -111 0
-125 109 111 0
125 109 -111 0
125 -109 111 0
126 -127 131 0
126 127 -131 0
-126 127 131 0
-126 -127 -131 0
-127 128 129 0
-127 -128 -129 0
127 -128 129 0
127 128 -129 0
-128 999 65 0
-128 992 61 0
-128 61 65 0
-128 999 61 0
-128 992 65 0
128 -61 -65 0
128 -992 -999 -65 0
128 -992 -999 -61 0
-129 94 130 0
-129 -94 -130 0
129 -94 130 0
129 94 -130 0
-130 1004 71 0
-130 987 68 0
-130 68 71 0
-130 1004 68 0
-130 987 71 0
130 -68 -71 0
130 -987 -1004 -71 0
130 -987 -1004 -68 0
-131 82 86 0
-131 82 85 0
-131 85 86 0
131 -85 -86 0
131 -82 -86 0
131 -82 -85 0
-132 81 88 0
-132 88 89 0
-132 81 89 0
132 -81 -89 0
132 -88 -89 0
132 -81 -88 0
133 -80 -91 0
-133 80 0
-133 91 0
-134 135 162 -185 -216 0
-134 -135 -162 -185 -216 0
-134 135 162 185 216 0
-134 -135 -162 185 216 0
134 135 -162 0
134 -135 162 0
134 185 -216 0
134 -185 216 0
135 136 -137 0
135 -136 137 0
-135 -136 -137 0
-135 136 137 0
136 -994 -999 0
-136 994 0
-136 999 0
137 -138 139 0
137 138 -139 0
-137 138 139 0
-137 -138 -139 0
138 -993 -1000 0
-138 993 0
-138 1000 0
-139 140 141 0
-139 -140 -141 0
139 -140 141 0
139 140 -141 0
140 -94 -95 0
-140 94 0
-140 95 0
-141 142 143 0
-141 -142 -143 0
141 -142 143 0
141 142 -143 0
142 -992 -1001 0
-142 992 0
-142 1001 0
-143 144 161 0
-143 -144 -161 0
143 -144 161 0
143 144 -161 0
-144 145 146 0
-144 -145 -146 0
144 -145 146 0
144 145 -146 0
145 -991 -1002 0
-145 991 0
-145 1002 0
-146 147 160 0
-146 -147 -160 0
146 -147 160 0
146 147 -160 0
-147 148 149 0
-147 -148 -149 0
147 -148 149 0
147 148 -149 0
148 -990 -1003 0
-148 990 0
-148 1003 0
-149 150 159 0
-149 -150 -159 0
149 -150 159 0
149 150 -159 0
-150 151 152 0
-150 -151 -152 0
150 -151 152 0
150 151 -152 0
151 -989 -1004 0
-151 989 0
-151 1004 0
-152 153 158 0
-152 -153 -158 0
152 -153 158 0
152 153 -158 0
-153 -154 -155 0
-153 154 155 0
153 154 -155 0
153 -154 155 0
154 -988 -1005 0
-154 988 0
-154 1005 0
155 -156 157 0
155 156 -157 0
-155 156 157 0
-155 -156 -157 0
156 -987 -1006 0
-156 987 0
-156 1006 0
-157 111 112 0
-157 109 111 0
-157 109 112 0
157 -109 -111 0
157 -111 -112 0
157 -109 -112 0
-158 106 108 0
-158 108 113 0
-158 106 113 0
158 -108 -113 0
158 -106 -108 0
158 -106 -113 0
-159 103 105 0
-159 105 114 0
-159 103 114 0
159 -105 -114 0
159 -103 -105 0
159 -103 -114 0
-160 100 102 0
-160 102 115 0
-160 100 115 0
160 -102 -115 0
160 -100 -102 0
160 -100 -115 0
-161 96 99 0
-161 98 96 0
-161 98 99 0
161 -98 -96 0
161 -96 -99 0
161 -98 -99 0
162 -163 164 0
162 163 -164 0
-162 163 164 0
-162 -163 -164 0
163 -117 -118 0
-163 117 0
-163 118 0
-164 -165 -184 0
-164 165 184 0
164 165 -184 0
164 -165 184 0
-165 -166 -183 0
-165 166 183 0
165 166 -183 0
165 -166 183 0
-166 -167 -177 0
-166 167 177 0
166 167 -177 0
166 -167 177 0
-167 -168 -174 0
-167 168 174 0
167 168 -174 0
167 -168 174 0
-168 -169 -171 0
-168 169 171 0
168 169 -171 0
168 -169 171 0
-169 -151 -170 0
-169 151 170 0
169 151 -170 0
169 -151 170 0
170 154 -156 0
170 -154 156 0
-170 -154 -156 0
-170 154 156 0
171 -172 173 0
171 172 -173 0
-171 172 173 0
-171 -172 -173 0
-172 1001 103 0
-172 991 96 0
-172 96 103 0
-172 1001 96 0
-172 991 103 0
172 -96 -103 0
172 -991 -1001 -103 0
172 -991 -1001 -96 0
-173 1005 109 0
-173 987 106 0
-173 106 109 0
-173 1005 106 0
-173 987 109 0
173 -106 -109 0
173 -987 -1005 -109 0
173 -987 -1005 -106 0
174 -175 176 0
174 175 -176 0
-174 175 176 0
-174 -175 -176 0
175 -122 -124 0
-175 122 0
-175 124 0
-176 94 128 0
-176 128 130 0
-176 94 130 0
176 -128 -130 0
176 -94 -128 0
176 -94 -130 0
177 178 -179 0
177 -178 179 0
-177 -178 -179 0
-177 178 179 0
-178 121 127 0
-178 127 131 0
-178 121 131 0
178 -121 -131 0
178 -127 -131 0
178 -121 -127 0
179 -180 181 0
179 180 -181 0
-179 180 181 0
-179 -180 -181 0
180 136 -138 0
180 -136 138 0
-180 -136 -138 0
-180 136 138 0
-181 -142 -182 0
-181 142 182 0
181 142 -182 0
181 -142 182 0
182 145 -148 0
182 -145 148 0
-182 -145 -148 0
-182 145 148 0
183 -120 -132 0
-183 120 0
-183 132 0
184 -119 -133 0
-184 119 0
-184 133 0
185 186 -187 0
185 -186 187 0
-185 -186 -187 0
-185 186 187 0
186 -995 -999 0
-186 995 0
-186 999 0
187 -188 189 0
187 188 -189 0
-187 188 189 0
-187 -188 -189 0
188 -994 -1000 0
-188 994 0
-188 1000 0
-189 190 191 0
-189 -190 -191 0
189 -190 191 0
189 190 -191 0
190 -136 -137 0
-190 136 0
-190 137 0
-191 192 193 0
-191 -192 -193 0
191 -192 193 0
191 192 -193 0
192 -993 -1001 0
-192 993 0
-192 1001 0
-193 194 215 0
-193 -194 -215 0
193 -194 215 0
193 194 -215 0
-194 195 196 0
-194 -195 -196 0
194 -195 196 0
194 195 -196 0
195 -992 -1002 0
-195 992 0
-195 1002 0
-196 197 214 0
-196 -197 -214 0
196 -197 214 0
196 197 -214 0
-197 198 199 0
-197 -198 -199 0
197 -198 199 0
197 198 -199 0
198 -991 -1003 0
-198 991 0
-198 1003 0
-199 200 213 0
-199 -200 -213 0
199 -200 213 0
199 200 -213 0
-200 201 202 0
-200 -201 -202 0
200 -201 202 0
200 201 -202 0
201 -990 -1004 0
-201 990 0
-201 1004 0
-202 203 212 0
-202 -203 -212 0
202 -203 212 0
202 203 -212 0
-203 204 205 0
-203 -204 -205 0
203 -204 205 0
203 204 -205 0
204 -989 -1005 0
-204 989 0
-204 1005 0
-205 206 211 0
-205 -206 -211 0
205 -206 211 0
205 206 -211 0
-206 -207 -208 0
-206 207 208 0
206 207 -208 0
206 -207 208 0
207 -988 -1006 0
-207 988 0
-207 1006 0
208 -209 210 0
208 209 -210 0
-208 209 210 0
-208 -209 -210 0
209 -987 -1007 0
-209 987 0
-209 1007 0
-210 156 157 0
-210 154 156 0
-210 154 157 0
210 -154 -156 0
210 -156 -157 0
210 -154 -157 0
-211 151 153 0
-211 153 158 0
-211 151 158 0
211 -153 -158 0
211 -151 -153 0
211 -151 -158 0
-212 148 150 0
-212 150 159 0
-212 148 159 0
212 -150 -159 0
212 -148 -150 0
212 -148 -159 0
-213 145 147 0
-213 147 160 0
-213 145 160 0
213 -147 -160 0
213 -145 -147 0
213 -145 -160 0
-214 142 144 0
-214 144 161 0
-214 142 161 0
214 -144 -161 0
214 -142 -144 0
214 -142 -161 0
-215 138 141 0
-215 140 138 0
-215 140 141 0
215 -140 -138 0
215 -138 -141 0
215 -140 -141 0
216 -217 219 0
216 217 -219 0
-216 217 219 0
-216 -217 -219 0
-217 218 0
217 -218 0
-218 165 0
-218 163 184 0
218 -163 -165 0
218 -165 -184 0
-219 -220 -242 0
-219 220 242 0
219 220 -242 0
219 -220 242 0
-220 221 241 0
-220 -221 -241 0
220 -221 241 0
220 221 -241 0
-221 -222 -231 0
-221 222 231 0
221 222 -231 0
221 -222 231 0
-222 -223 -228 0
-222 223 228 0
222 223 -228 0
222 -223 228 0
-223 224 225 0
-223 -224 -225 0
223 -224 225 0
223 224 -225 0
224 -136 -138 0
-224 136 0
-224 138 0
-225 226 227 0
-225 -226 -227 0
225 -226 227 0
225 226 -227 0
-226 142 148 0
-226 145 148 0
-226 142 145 0
226 -142 -145 0
226 -145 -148 0
226 -142 -148 0
-227 151 156 0
-227 154 156 0
-227 151 154 0
227 -151 -154 0
227 -154 -156 0
227 -151 -156 0
228 -229 230 0
228 229 -230 0
-228 229 230 0
-228 -229 -230 0
229 -180 -181 0
-229 180 0
-229 181 0
-230 169 172 0
-230 172 173 0
-230 169 173 0
230 -169 -173 0
230 -172 -173 0
230 -169 -172 0
231 232 -233 0
231 -232 233 0
-231 -232 -233 0
-231 232 233 0
-232 168 176 0
-232 168 175 0
-232 175 176 0
232 -175 -176 0
232 -168 -176 0
232 -168 -175 0
233 234 -236 0
233 -234 236 0
-233 -234 -236 0
-233 234 236 0
-234 -186 -235 0
-234 186 235 0
234 186 -235 0
234 -186 235 0
235 188 -192 0
235 -188 192 0
-235 -188 -192 0
-235 188 192 0
236 -237 239 0
236 237 -239 0
-236 237 239 0
-236 -237 -239 0
-237 -195 -238 0
-237 195 238 0
237 195 -238 0
237 -195 238 0
238 198 -201 0
238 -198 201 0
-238 -198 -201 0
-238 198 201 0
-239 -204 -240 0
-239 204 240 0
239 204 -240 0
239 -204 240 0
240 207 -209 0
240 -207 209 0
-240 -207 -209 0
-240 207 209 0
-241 167 178 0
-241 178 179 0
-241 167 179 0
241 -178 -179 0
241 -167 -178 0
241 -167 -179 0
242 -166 -183 0
-242 166 0
-242 183 0
-243 -244 -279 306 0
-243 244 279 306 0
243 -306 0
243 -244 279 0
243 244 -279 0
244 245 -246 0
244 -245 246 0
-244 -245 -246 0
-244 245 246 0
245 -996 -999 0
-245 996 0
-245 999 0
246 -247 248 0
246 247 -248 0
-246 247 248 0
-246 -247 -248 0
247 -995 -1000 0
-247 995 0
-247 1000 0
-248 249 250 0
-248 -249 -250 0
248 -249 250 0
248 249 -250 0
249 -186 -187 0
-249 186 0
-249 187 0
-250 251 252 0
-250 -251 -252 0
250 -251 252 0
250 251 -252 0
251 -994 -1001 0
-251 994 0
-251 1001 0
-252 253 278 0
-252 -253 -278 0
252 -253 278 0
252 253 -278 0
-253 254 255 0
-253 -254 -255 0
253 -254 255 0
253 254 -255 0
254 -993 -1002 0
-254 993 0
-254 1002 0
-255 256 277 0
-255 -256 -277 0
255 -256 277 0
255 256 -277 0
-256 257 258 0
-256 -257 -258 0
256 -257 258 0
256 257 -258 0
257 -992 -1003 0
-257 992 0
-257 1003 0
-258 259 276 0
-258 -259 -276 0
258 -259 276 0
258 259 -276 0
-259 260 261 0
-259 -260 -261 0
259 -260 261 0
259 260 -261 0
260 -991 -1004 0
-260 991 0
-260 1004 0
-261 262 275 0
-261 -262 -275 0
261 -262 275 0
261 262 -275 0
-262 263 264 0
-262 -263 -264 0
262 -263 264 0
262 263 -264 0
263 -990 -1005 0
-263 990 0
-263 1005 0
-264 265 274 0
-264 -265 -274 0
264 -265 274 0
264 265 -274 0
-265 266 267 0
-265 -266 -267 0
265 -266 267 0
265 266 -267 0
266 -989 -1006 0
-266 989 0
-266 1006 0
-267 268 273 0
-267 -268 -273 0
267 -268 273 0
267 268 -273 0
-268 -269 -270 0
-268 269 270 0
268 269 -270 0
268 -269 270 0
269 -988 -1007 0
-269 988 0
-269 1007 0
270 -271 272 0
270 271 -272 0
-270 271 272 0
-270 -271 -272 0
271 -987 -1008 0
-271 987 0
-271 1008 0
-272 209 210 0
-272 207 209 0
-272 207 210 0
272 -207 -209 0
272 -209 -210 0
272 -207 -210 0
-273 204 206 0
-273 206 211 0
-273 204 211 0
273 -206 -211 0
273 -204 -206 0
273 -204 -211 0
-274 201 203 0
-274 203 212 0
-274 201 212 0
274 -203 -212 0
274 -201 -203 0
274 -201 -212 0
-275 198 200 0
-275 200 213 0
-275 198 213 0
275 -200 -213 0
275 -198 -200 0
275 -198 -213 0
-276 195 197 0
-276 197 214 0
-276 195 214 0
276 -197 -214 0
276 -195 -197 0
276 -195 -214 0
-277 192 194 0
-277 194 215 0
-277 192 215 0
277 -194 -215 0
277 -192 -194 0
277 -192 -215 0
-278 188 191 0
-278 190 188 0
-278 190 191 0
278 -190 -188 0
278 -188 -191 0
278 -190 -191 0
279 -280 281 0
279 280 -281 0
-279 280 281 0
-279 -280 -281 0
-280 217 220 0
-280 220 242 0
-280 217 242 0
280 -220 -242 0
280 -217 -220 0
280 -217 -242 0
-281 -282 -305 0
-281 282 305 0
281 282 -305 0
281 -282 305 0
282 -283 304 0
282 283 -304 0
-282 283 304 0
-282 -283 -304 0
-283 -284 -296 0
-283 284 296 0
283 284 -296 0
283 -284 296 0
-284 -285 -292 0
-284 285 292 0
284 285 -292 0
284 -285 292 0
-285 -286 -288 0
-285 286 288 0
285 286 -288 0
285 -286 288 0
-286 -257 -287 0
-286 257 287 0
286 257 -287 0
286 -257 287 0
287 260 -263 0
287 -260 263 0
-287 -260 -263 0
-287 260 263 0
288 -289 291 0
288 289 -291 0
-288 289 291 0
-288 -289 -291 0
-289 -266 -290 0
-289 266 290 0
289 266 -290 0
289 -266 290 0
290 269 -271 0
290 -269 271 0
-290 -269 -271 0
-290 269 271 0
-291 186 192 0
-291 188 192 0
-291 186 188 0
291 -186 -188 0
291 -188 -192 0
291 -186 -192 0
292 -293 294 0
292 293 -294 0
-292 293 294 0
-292 -293 -294 0
-293 195 201 0
-293 198 201 0
-293 195 198 0
293 -195 -198 0
293 -198 -201 0
293 -195 -201 0
-294 245 295 0
-294 -245 -295 0
294 -245 295 0
294 245 -295 0
-295 204 209 0
-295 207 209 0
-295 204 207 0
295 -204 -207 0
295 -207 -209 0
295 -204 -209 0
296 -297 303 0
296 297 -303 0
-296 297 303 0
-296 -297 -303 0
297 -298 299 0
297 298 -299 0
-297 298 299 0
-297 -298 -299 0
-298 234 237 0
-298 237 239 0
-298 234 239 0
298 -234 -239 0
298 -237 -239 0
298 -234 -237 0
-299 -300 -301 0
-299 300 301 0
299 300 -301 0
299 -300 301 0
-300 224 226 0
-300 226 227 0
-300 224 227 0
300 -226 -227 0
300 -224 -226 0
300 -224 -227 0
301 247 -302 0
301 -247 302 0
-301 -247 -302 0
-301 247 302 0
302 251 -254 0
302 -251 254 0
-302 -251 -254 0
-302 251 254 0
-303 229 223 0
-303 223 230 0
-303 229 230 0
303 -223 -230 0
303 -229 -223 0
303 -229 -230 0
-304 222 232 0
-304 232 233 0
-304 222 233 0
304 -232 -233 0
304 -222 -232 0
304 -222 -233 0
305 -221 -241 0
-305 221 0
-305 241 0
-306 307 346 -376 -419 0
-306 -307 -346 -376 -419 0
-306 307 346 376 419 0
-306 -307 -346 376 419 0
306 307 -346 0
306 -307 346 0
306 376 -419 0
306 -376 419 0
307 308 -309 0
307 -308 309 0
-307 -308 -309 0
-307 308 309 0
308 -997 -999 0
-308 997 0
-308 999 0
309 -310 311 0
309 310 -311 0
-309 310 311 0
-309 -310 -311 0
310 -996 -1000 0
-310 996 0
-310 1000 0
-311 312 313 0
-311 -312 -313 0
311 -312 313 0
311 312 -313 0
312 -245 -246 0
-312 245 0
-312 246 0
-313 314 315 0
-313 -314 -315 0
313 -314 315 0
313 314 -315 0
314 -995 -1001 0
-314 995 0
-314 1001 0
-315 316 345 0
-315 -316 -345 0
315 -316 345 0
315 316 -345 0
-316 317 318 0
-316 -317 -318 0
316 -317 318 0
316 317 -318 0
317 -994 -1002 0
-317 994 0
-317 1002 0
-318 319 344 0
-318 -319 -344 0
318 -319 344 0
318 319 -344 0
-319 320 321 0
-319 -320 -321 0
319 -320 321 0
319 320 -321 0
320 -993 -1003 0
-320 993 0
-320 1003 0
-321 322 343 0
-321 -322 -343 0
321 -322 343 0
321 322 -343 0
-322 323 324 0
-322 -323 -324 0
322 -323 324 0
322 323 -324 0
323 -992 -1004 0
-323 992 0
-323 1004 0
-324 325 342 0
-324 -325 -342 0
324 -325 342 0
324 325 -342 0
-325 326 327 0
-325 -326 -327 0
325 -326 327 0
325 326 -327 0
326 -991 -1005 0
-326 991 0
-326 1005 0
-327 328 341 0
-327 -328 -341 0
327 -328 341 0
327 328 -341 0
-328 329 330 0
-328 -329 -330 0
328 -329 330 0
328 329 -330 0
329 -990 -1006 0
-329 990 0
-329 1006 0
-330 331 340 0
-330 -331 -340 0
330 -331 340 0
330 331 -340 0
-331 332 333 0
-331 -332 -333 0
331 -332 333 0
331 332 -333 0
332 -989 -1007 0
-332 989 0
-332 1007 0
-333 334 339 0
-333 -334 -339 0
333 -334 339 0
333 334 -339 0
-334 -335 -336 0
-334 335 336 0
334 335 -336 0
334 -335 336 0
335 -988 -1008 0
-335 988 0
-335 1008 0
336 -337 338 0
336 337 -338 0
-336 337 338 0
-336 -337 -338 0
337 -987 -1009 0
-337 987 0
-337 1009 0
-338 271 272 0
-338 269 271 0
-338 269 272 0
338 -269 -271 0
338 -271 -272 0
338 -269 -272 0
-339 266 268 0
-339 268 273 0
-339 266 273 0
339 -268 -273 0
339 -266 -268 0
339 -266 -273 0
-340 263 265 0
-340 265 274 0
-340 263 274 0
340 -265 -274 0
340 -263 -265 0
340 -263 -274 0
-341 260 262 0
-341 262 275 0
-341 260 275 0
341 -262 -275 0
341 -260 -262 0
341 -260 -275 0
-342 257 259 0
-342 259 276 0
-342 257 276 0
342 -259 -276 0
342 -257 -259 0
342 -257 -276 0
-343 254 256 0
-343 256 277 0
-343 254 277 0
343 -256 -277 0
343 -254 -256 0
343 -254 -277 0
-344 251 253 0
-344 253 278 0
-344 251 278 0
344 -253 -278 0
344 -251 -253 0
344 -251 -278 0
-345 247 250 0
-345 249 247 0
-345 249 250 0
345 -249 -247 0
345 -247 -250 0
345 -249 -250 0
346 -347 348 0
346 347 -348 0
-346 347 348 0
-346 -347 -348 0
-347 282 305 0
-347 280 282 0
-347 280 305 0
347 -280 -282 0
347 -282 -305 0
347 -280 -305 0
-348 -349 -350 0
-348 349 350 0
348 349 -350 0
348 -349 350 0
349 -283 -304 0
-349 283 0
-349 304 0
350 -351 360 0
350 351 -360 0
-350 351 360 0
-350 -351 -360 0
-351 -352 -357 0
-351 352 357 0
351 352 -357 0
351 -352 357 0
-352 -353 -354 0
-352 353 354 0
352 353 -354 0
352 -353 354 0
-353 286 289 0
-353 289 291 0
-353 286 291 0
353 -286 -291 0
353 -289 -291 0
353 -286 -289 0
354 355 -356 0
354 -355 356 0
-354 -355 -356 0
-354 355 356 0
-355 245 293 0
-355 293 295 0
-355 245 295 0
355 -293 -295 0
355 -245 -293 0
355 -245 -295 0
356 308 -310 0
356 -308 310 0
-356 -308 -310 0
-356 308 310 0
357 -358 359 0
357 358 -359 0
-357 358 359 0
-357 -358 -359 0
358 -285 -292 0
-358 285 0
-358 292 0
-359 298 300 0
-359 300 301 0
-359 298 301 0
359 -300 -301 0
359 -298 -300 0
359 -298 -301 0
-360 -361 -362 0
-360 361 362 0
360 361 -362 0
360 -361 362 0
-361 284 303 0
-361 284 297 0
-361 297 303 0
361 -297 -303 0
361 -284 -303 0
361 -284 -297 0
362 363 -371 0
362 -363 371 0
-362 -363 -371 0
-362 363 371 0
-363 -364 -366 0
-363 364 366 0
363 364 -366 0
363 -364 366 0
-364 -314 -365 0
-364 314 365 0
364 314 -365 0
364 -314 365 0
365 317 -320 0
365 -317 320 0
-365 -317 -320 0
-365 317 320 0
366 -367 369 0
366 367 -369 0
-366 367 369 0
-366 -367 -369 0
-367 -323 -368 0
-367 323 368 0
367 323 -368 0
367 -323 368 0
368 326 -329 0
368 -326 329 0
-368 -326 -329 0
-368 326 329 0
-369 -332 -370 0
-369 332 370 0
369 332 -370 0
369 -332 370 0
370 335 -337 0
370 -335 337 0
-370 -335 -337 0
-370 335 337 0
371 -372 373 0
371 372 -373 0
-371 372 373 0
-371 -372 -373 0
-372 1001 254 0
-372 994 247 0
-372 247 254 0
-372 1001 247 0
-372 994 254 0
372 -247 -254 0
372 -994 -1001 -254 0
372 -994 -1001 -247 0
-373 374 375 0
-373 -374 -375 0
373 -374 375 0
373 374 -375 0
-374 257 263 0
-374 260 263 0
-374 257 260 0
374 -257 -260 0
374 -260 -263 0
374 -257 -263 0
-375 266 271 0
-375 269 271 0
-375 266 269 0
375 -266 -269 0
375 -269 -271 0
375 -266 -271 0
376 377 -378 0
376 -377 378 0
-376 -377 -378 0
-376 377 378 0
377 -998 -999 0
-377 998 0
-377 999 0
378 379 -380 0
378 -379 380 0
-378 -379 -380 0
-378 379 380 0
379 -997 -1000 0
-379 997 0
-379 1000 0
380 381 -382 0
380 -381 382 0
-380 -381 -382 0
-380 381 382 0
381 -308 -309 0
-381 308 0
-381 309 0
382 -383 384 0
382 383 -384 0
-382 383 384 0
-382 -383 -384 0
383 -996 -1001 0
-383 996 0
-383 1001 0
-384 385 418 0
-384 -385 -418 0
384 -385 418 0
384 385 -418 0
-385 386 387 0
-385 -386 -387 0
385 -386 387 0
385 386 -387 0
386 -995 -1002 0
-386 995 0
-386 1002 0
-387 388 417 0
-387 -388 -417 0
387 -388 417 0
387 388 -417 0
-388 389 390 0
-388 -389 -390 0
388 -389 390 0
388 389 -390 0
389 -994 -1003 0
-389 994 0
-389 1003 0
-390 391 416 0
-390 -391 -416 0
390 -391 416 0
390 391 -416 0
-391 392 393 0
-391 -392 -393 0
391 -392 393 0
391 392 -393 0
392 -993 -1004 0
-392 993 0
-392 1004 0
-393 394 415 0
-393 -394 -415 0
393 -394 415 0
393 394 -415 0
-394 395 396 0
-394 -395 -396 0
394 -395 396 0
394 395 -396 0
395 -992 -1005 0
-395 992 0
-395 1005 0
-396 397 414 0
-396 -397 -414 0
396 -397 414 0
396 397 -414 0
-397 398 399 0
-397 -398 -399 0
397 -398 399 0
397 398 -399 0
398 -991 -1006 0
-398 991 0
-398 1006 0
-399 400 413 0
-399 -400 -413 0
399 -400 413 0
399 400 -413 0
-400 401 402 0
-400 -401 -402 0
400 -401 402 0
400 401 -402 0
401 -990 -1007 0
-401 990 0
-401 1007 0
-402 403 412 0
-402 -403 -412 0
402 -403 412 0
402 403 -412 0
-403 404 405 0
-403 -404 -405 0
403 -404 405 0
403 404 -405 0
404 -989 -1008 0
-404 989 0
-404 1008 0
-405 406 411 0
-405 -406 -411 0
405 -406 411 0
405 406 -411 0
-406 -407 -408 0
-406 407 408 0
406 407 -408 0
406 -407 408 0
407 -988 -1009 0
-407 988 0
-407 1009 0
408 -409 410 0
408 409 -410 0
-408 409 410 0
-408 -409 -410 0
409 -987 -1010 0
-409 987 0
-409 1010 0
-410 337 338 0
-410 335 337 0
-410 335 338 0
410 -335 -337 0
410 -337 -338 0
410 -335 -338 0
-411 332 334 0
-411 334 339 0
-411 332 339 0
411 -334 -339 0
411 -332 -334 0
411 -332 -339 0
-412 329 331 0
-412 331 340 0
-412 329 340 0
412 -331 -340 0
412 -329 -331 0
412 -329 -340 0
-413 326 328 0
-413 328 341 0
-413 326 341 0
413 -328 -341 0
413 -326 -328 0
413 -326 -341 0
-414 323 325 0
-414 325 342 0
-414 323 342 0
414 -325 -342 0
414 -323 -325 0
414 -323 -342 0
-415 320 322 0
-415 322 343 0
-415 320 343 0
415 -322 -343 0
415 -320 -322 0
415 -320 -343 0
-416 317 319 0
-416 319 344 0
-416 317 344 0
416 -319 -344 0
416 -317 -319 0
416 -317 -344 0
-417 314 316 0
-417 316 345 0
-417 314 345 0
417 -316 -345 0
417 -314 -316 0
417 -314 -345 0
-418 310 313 0
-418 312 310 0
-418 312 313 0
418 -312 -310 0
418 -310 -313 0
418 -312 -313 0
419 -420 421 0
419 420 -421 0
-419 420 421 0
-419 -420 -421 0
-420 347 350 0
-420 349 350 0
-420 349 347 0
420 -349 -350 0
420 -349 -347 0
420 -347 -350 0
-421 422 451 0
-421 -422 -451 0
421 -422 451 0
421 422 -451 0
422 -423 436 0
422 423 -436 0
-422 423 436 0
-422 -423 -436 0
-423 -424 -433 0
-423 424 433 0
423 424 -433 0
423 -424 433 0
-424 -425 -430 0
-424 425 430 0
424 425 -430 0
424 -425 430 0
-425 -426 -427 0
-425 426 427 0
425 426 -427 0
425 -426 427 0
-426 314 320 0
-426 317 320 0
-426 314 317 0
426 -314 -317 0
426 -317 -320 0
426 -314 -320 0
427 -428 429 0
427 428 -429 0
-427 428 429 0
-427 -428 -429 0
-428 1005 329 0
-428 991 323 0
-428 323 329 0
-428 1005 323 0
-428 991 329 0
428 -323 -329 0
428 -991 -1005 -329 0
428 -991 -1005 -323 0
-429 1009 335 0
-429 987 332 0
-429 332 335 0
-429 1009 332 0
-429 987 335 0
429 -332 -335 0
429 -987 -1009 -335 0
429 -987 -1009 -332 0
430 -431 432 0
430 431 -432 0
-430 431 432 0
-430 -431 -432 0
-431 364 367 0
-431 367 369 0
-431 364 369 0
431 -364 -369 0
431 -367 -369 0
431 -364 -367 0
-432 372 374 0
-432 374 375 0
-432 372 375 0
432 -372 -375 0
432 -374 -375 0
432 -372 -374 0
433 -434 435 0
433 434 -435 0
-433 434 435 0
-433 -434 -435 0
434 -363 -371 0
-434 363 0
-434 371 0
-435 353 355 0
-435 355 356 0
-435 353 356 0
435 -355 -356 0
435 -353 -355 0
435 -353 -356 0
-436 -437 -438 0
-436 437 438 0
436 437 -438 0
436 -437 438 0
-437 352 359 0
-437 352 358 0
-437 358 359 0
437 -358 -359 0
437 -352 -359 0
437 -352 -358 0
438 439 -444 0
438 -439 444 0
-438 -439 -444 0
-438 439 444 0
439 -440 442 0
439 440 -442 0
-439 440 442 0
-439 -440 -442 0
-440 -377 -441 0
-440 377 441 0
440 377 -441 0
440 -377 441 0
441 379 -383 0
441 -379 383 0
-441 -379 -383 0
-441 379 383 0
-442 -386 -443 0
-442 386 443 0
442 386 -443 0
442 -386 443 0
443 389 -392 0
443 -389 392 0
-443 -389 -392 0
-443 389 392 0
444 -445 447 0
444 445 -447 0
-444 445 447 0
-444 -445 -447 0
-445 -395 -446 0
-445 395 446 0
445 395 -446 0
445 -395 446 0
446 398 -401 0
446 -398 401 0
-446 -398 -401 0
-446 398 401 0
-447 448 449 0
-447 -448 -449 0
447 -448 449 0
447 448 -449 0
448 -308 -310 0
-448 308 0
-448 310 0
-449 -404 -450 0
-449 404 450 0
449 404 -450 0
449 -404 450 0
450 407 -409 0
450 -407 409 0
-450 -407 -409 0
-450 407 409 0
-451 351 361 0
-451 361 362 0
-451 351 362 0
451 -361 -362 0
451 -351 -361 0
451 -351 -362 0
-452 453 496 530 672 0
-452 -453 -496 530 672 0
452 -672 0
452 -453 496 0
452 -530 0
452 453 -496 0
453 -454 455 0
453 454 -455 0
-453 454 455 0
-453 -454 -455 0
454 -998 -1000 0
-454 998 0
-454 1000 0
-455 456 457 0
-455 -456 -457 0
455 -456 457 0
455 456 -457 0
456 -997 -1001 0
-456 997 0
-456 1001 0
-457 458 459 0
-457 -458 -459 0
457 -458 459 0
457 458 -459 0
458 -377 -378 0
-458 377 0
-458 378 0
-459 460 461 0
-459 -460 -461 0
459 -460 461 0
459 460 -461 0
460 -996 -1002 0
-460 996 0
-460 1002 0
-461 462 495 0
-461 -462 -495 0
461 -462 495 0
461 462 -495 0
-462 463 464 0
-462 -463 -464 0
462 -463 464 0
462 463 -464 0
463 -995 -1003 0
-463 995 0
-463 1003 0
-464 465 494 0
-464 -465 -494 0
464 -465 494 0
464 465 -494 0
-465 466 467 0
-465 -466 -467 0
465 -466 467 0
465 466 -467 0
466 -994 -1004 0
-466 994 0
-466 1004 0
-467 468 493 0
-467 -468 -493 0
467 -468 493 0
467 468 -493 0
-468 469 470 0
-468 -469 -470 0
468 -469 470 0
468 469 -470 0
469 -993 -1005 0
-469 993 0
-469 1005 0
-470 471 492 0
-470 -471 -492 0
470 -471 492 0
470 471 -492 0
-471 472 473 0
-471 -472 -473 0
471 -472 473 0
471 472 -473 0
472 -992 -1006 0
-472 992 0
-472 1006 0
-473 474 491 0
-473 -474 -491 0
473 -474 491 0
473 474 -491 0
-474 475 476 0
-474 -475 -476 0
474 -475 476 0
474 475 -476 0
475 -991 -1007 0
-475 991 0
-475 1007 0
-476 477 490 0
-476 -477 -490 0
476 -477 490 0
476 477 -490 0
-477 478 479 0
-477 -478 -479 0
477 -478 479 0
477 478 -479 0
478 -990 -1008 0
-478 990 0
-478 1008 0
-479 480 489 0
-479 -480 -489 0
479 -480 489 0
479 480 -489 0
-480 481 482 0
-480 -481 -482 0
480 -481 482 0
480 481 -482 0
481 -989 -1009 0
-481 989 0
-481 1009 0
-482 483 488 0
-482 -483 -488 0
482 -483 488 0
482 483 -488 0
-483 484 485 0
-483 -484 -485 0
483 -484 485 0
483 484 -485 0
484 -988 -1010 0
-484 988 0
-484 1010 0
-485 486 487 0
-485 -486 -487 0
485 -486 487 0
485 486 -487 0
-486 409 410 0
-486 407 409 0
-486 407 410 0
486 -407 -409 0
486 -409 -410 0
486 -407 -410 0
-487 404 406 0
-487 406 411 0
-487 404 411 0
487 -406 -411 0
487 -404 -406 0
487 -404 -411 0
-488 401 403 0
-488 403 412 0
-488 401 412 0
488 -403 -412 0
488 -401 -403 0
488 -401 -412 0
-489 398 400 0
-489 400 413 0
-489 398 413 0
489 -400 -413 0
489 -398 -400 0
489 -398 -413 0
-490 395 397 0
-490 397 414 0
-490 395 414 0
490 -397 -414 0
490 -395 -397 0
490 -395 -414 0
-491 392 394 0
-491 394 415 0
-491 392 415 0
491 -394 -415 0
491 -392 -394 0
491 -392 -415 0
-492 389 391 0
-492 391 416 0
-492 389 416 0
492 -391 -416 0
492 -389 -391 0
492 -389 -416 0
-493 386 388 0
-493 388 417 0
-493 386 417 0
493 -388 -417 0
493 -386 -388 0
493 -386 -417 0
-494 383 385 0
-494 385 418 0
-494 383 418 0
494 -385 -418 0
494 -383 -385 0
494 -383 -418 0
-495 381 382 0
-495 379 382 0
-495 381 379 0
495 -381 -379 0
495 -379 -382 0
495 -381 -382 0
496 -497 498 0
496 497 -498 0
-496 497 498 0
-496 -497 -498 0
-497 420 451 0
-497 420 422 0
-497 422 451 0
497 -422 -451 0
497 -420 -451 0
497 -420 -422 0
-498 499 529 0
-498 -499 -529 0
498 -499 529 0
498 499 -529 0
499 -500 509 0
499 500 -509 0
-499 500 509 0
-499 -500 -509 0
-500 -501 -506 0
-500 501 506 0
500 501 -506 0
500 -501 506 0
-501 502 503 0
-501 -502 -503 0
501 -502 503 0
501 502 -503 0
502 -440 -442 0
-502 440 0
-502 442 0
-503 504 505 0
-503 -504 -505 0
503 -504 505 0
503 504 -505 0
-504 448 445 0
-504 445 449 0
-504 448 449 0
504 -445 -449 0
504 -448 -445 0
504 -448 -449 0
-505 426 428 0
-505 428 429 0
-505 426 429 0
505 -426 -429 0
505 -428 -429 0
505 -426 -428 0
506 -507 508 0
506 507 -508 0
-506 507 508 0
-506 -507 -508 0
507 -439 -444 0
-507 439 0
-507 444 0
-508 425 431 0
-508 431 432 0
-508 425 432 0
508 -425 -432 0
508 -431 -432 0
508 -425 -431 0
-509 -510 -511 0
-509 510 511 0
509 510 -511 0
509 -510 511 0
-510 434 424 0
-510 424 435 0
-510 434 435 0
510 -424 -435 0
510 -434 -424 0
510 -434 -435 0
511 512 -516 0
511 -512 516 0
-511 -512 -516 0
-511 512 516 0
512 -513 514 0
512 513 -514 0
-512 513 514 0
-512 -513 -514 0
513 454 -456 0
513 -454 456 0
-513 -454 -456 0
-513 454 456 0
-514 -460 -515 0
-514 460 515 0
514 460 -515 0
514 -460 515 0
515 463 -466 0
515 -463 466 0
-515 -463 -466 0
-515 463 466 0
516 517 -524 0
516 -517 524 0
-516 -517 -524 0
-516 517 524 0
517 -518 520 0
517 518 -520 0
-517 518 520 0
-517 -518 -520 0
-518 -469 -519 0
-518 469 519 0
518 469 -519 0
518 -469 519 0
519 472 -475 0
519 -472 475 0
-519 -472 -475 0
-519 472 475 0
-520 521 523 0
-520 -521 -523 0
520 -521 523 0
520 521 -523 0
-521 -478 -522 0
-521 478 522 0
521 478 -522 0
521 -478 522 0
522 481 -484 0
522 -481 484 0
-522 -481 -484 0
-522 481 484 0
-523 999 383 0
-523 998 379 0
-523 379 383 0
-523 999 379 0
-523 998 383 0
523 -379 -383 0
523 -998 -999 -383 0
523 -998 -999 -379 0
524 -525 526 0
524 525 -526 0
-524 525 526 0
-524 -525 -526 0
-525 386 392 0
-525 389 392 0
-525 386 389 0
525 -386 -389 0
525 -389 -392 0
525 -386 -392 0
-526 527 528 0
-526 -527 -528 0
526 -527 528 0
526 527 -528 0
-527 395 401 0
-527 398 401 0
-527 395 398 0
527 -395 -398 0
527 -398 -401 0
527 -395 -401 0
-528 404 409 0
-528 407 409 0
-528 404 407 0
528 -404 -407 0
528 -407 -409 0
528 -404 -409 0
-529 423 437 0
-529 437 438 0
-529 423 438 0
529 -437 -438 0
529 -423 -437 0
529 -423 -438 0
-530 531 572 -605 -642 0
-530 -531 -572 -605 -642 0
-530 531 572 605 642 0
-530 -531 -572 605 642 0
530 531 -572 0
530 -531 572 0
530 605 -642 0
530 -605 642 0
531 532 -533 0
531 -532 533 0
-531 -532 -533 0
-531 532 533 0
532 -454 -455 0
-532 454 0
-532 455 0
533 534 -535 0
533 -534 535 0
-533 -534 -535 0
-533 534 535 0
534 -998 -1001 0
-534 998 0
-534 1001 0
535 -536 537 0
535 536 -537 0
-535 536 537 0
-535 -536 -537 0
536 -997 -1002 0
-536 997 0
-536 1002 0
-537 538 571 0
-537 -538 -571 0
537 -538 571 0
537 538 -571 0
-538 539 540 0
-538 -539 -540 0
538 -539 540 0
538 539 -540 0
539 -996 -1003 0
-539 996 0
-539 1003 0
-540 541 570 0
-540 -541 -570 0
540 -541 570 0
540 541 -570 0
-541 542 543 0
-541 -542 -543 0
541 -542 543 0
541 542 -543 0
542 -995 -1004 0
-542 995 0
-542 1004 0
-543 544 569 0
-543 -544 -569 0
543 -544 569 0
543 544 -569 0
-544 545 546 0
-544 -545 -546 0
544 -545 546 0
544 545 -546 0
545 -994 -1005 0
-545 994 0
-545 1005 0
-546 547 568 0
-546 -547 -568 0
546 -547 568 0
546 547 -568 0
-547 548 549 0
-547 -548 -549 0
547 -548 549 0
547 548 -549 0
548 -993 -1006 0
-548 993 0
-548 1006 0
-549 550 567 0
-549 -550 -567 0
549 -550 567 0
549 550 -567 0
-550 551 552 0
-550 -551 -552 0
550 -551 552 0
550 551 -552 0
551 -992 -1007 0
-551 992 0
-551 1007 0
-552 553 566 0
-552 -553 -566 0
552 -553 566 0
552 553 -566 0
-553 554 555 0
-553 -554 -555 0
553 -554 555 0
553 554 -555 0
554 -991 -1008 0
-554 991 0
-554 1008 0
-555 556 565 0
-555 -556 -565 0
555 -556 565 0
555 556 -565 0
-556 557 558 0
-556 -557 -558 0
556 -557 558 0
556 557 -558 0
557 -990 -1009 0
-557 990 0
-557 1009 0
-558 559 564 0
-558 -559 -564 0
558 -559 564 0
558 559 -564 0
-559 560 561 0
-559 -560 -561 0
559 -560 561 0
559 560 -561 0
560 -989 -1010 0
-560 989 0
-560 1010 0
-561 562 563 0
-561 -562 -563 0
561 -562 563 0
561 562 -563 0
-562 484 486 0
-562 486 487 0
-562 484 487 0
562 -486 -487 0
562 -484 -486 0
562 -484 -487 0
-563 481 483 0
-563 483 488 0
-563 481 488 0
563 -483 -488 0
563 -481 -483 0
563 -481 -488 0
-564 478 480 0
-564 480 489 0
-564 478 489 0
564 -480 -489 0
564 -478 -480 0
564 -478 -489 0
-565 475 477 0
-565 477 490 0
-565 475 490 0
565 -477 -490 0
565 -475 -477 0
565 -475 -490 0
-566 472 474 0
-566 474 491 0
-566 472 491 0
566 -474 -491 0
566 -472 -474 0
566 -472 -491 0
-567 469 471 0
-567 471 492 0
-567 469 492 0
567 -471 -492 0
567 -469 -471 0
567 -469 -492 0
-568 466 468 0
-568 468 493 0
-568 466 493 0
568 -468 -493 0
568 -466 -468 0
568 -466 -493 0
-569 463 465 0
-569 465 494 0
-569 463 494 0
569 -465 -494 0
569 -463 -465 0
569 -463 -494 0
-570 460 462 0
-570 462 495 0
-570 460 495 0
570 -462 -495 0
570 -460 -462 0
570 -460 -495 0
-571 456 459 0
-571 458 456 0
-571 458 459 0
571 -458 -456 0
571 -456 -459 0
571 -458 -459 0
572 -573 574 0
572 573 -574 0
-572 573 574 0
-572 -573 -574 0
-573 497 529 0
-573 497 499 0
-573 499 529 0
573 -499 -529 0
573 -497 -529 0
573 -497 -499 0
-574 575 604 0
-574 -575 -604 0
574 -575 604 0
574 575 -604 0
575 -576 585 0
575 576 -585 0
-575 576 585 0
-575 -576 -585 0
-576 -577 -582 0
-576 577 582 0
576 577 -582 0
576 -577 582 0
-577 578 579 0
-577 -578 -579 0
577 -578 579 0
577 578 -579 0
578 -513 -514 0
-578 513 0
-578 514 0
-579 580 581 0
-579 -580 -581 0
579 -580 581 0
579 580 -581 0
-580 518 521 0
-580 521 523 0
-580 518 523 0
580 -518 -523 0
580 -521 -523 0
580 -518 -521 0
-581 525 527 0
-581 527 528 0
-581 525 528 0
581 -525 -528 0
581 -527 -528 0
581 -525 -527 0
582 -583 584 0
582 583 -584 0
-582 583 584 0
-582 -583 -584 0
-583 512 524 0
-583 517 524 0
-583 512 517 0
583 -512 -517 0
583 -517 -524 0
583 -512 -524 0
-584 502 504 0
-584 504 505 0
-584 502 505 0
584 -504 -505 0
584 -502 -504 0
584 -502 -505 0
-585 -586 -587 0
-585 586 587 0
585 586 -587 0
585 -586 587 0
-586 507 501 0
-586 501 508 0
-586 507 508 0
586 -501 -508 0
586 -507 -501 0
586 -507 -508 0
587 588 -593 0
587 -588 593 0
-587 -588 -593 0
-587 588 593 0
588 -589 591 0
588 589 -591 0
-588 589 591 0
-588 -589 -591 0
-589 -536 -590 0
-589 536 590 0
589 536 -590 0
589 -536 590 0
590 539 -542 0
590 -539 542 0
-590 -539 -542 0
-590 539 542 0
-591 -545 -592 0
-591 545 592 0
591 545 -592 0
591 -545 592 0
592 548 -551 0
592 -548 551 0
-592 -548 -551 0
-592 548 551 0
593 594 -600 0
593 -594 600 0
-593 -594 -600 0
-593 594 600 0
594 595 -597 0
594 -595 597 0
-594 -595 -597 0
-594 595 597 0
-595 -554 -596 0
-595 554 596 0
595 554 -596 0
595 -554 596 0
596 557 -560 0
596 -557 560 0
-596 -557 -560 0
-596 557 560 0
597 -598 599 0
597 598 -599 0
-597 598 599 0
-597 -598 -599 0
598 -454 -456 0
-598 454 0
-598 456 0
-599 460 466 0
-599 463 466 0
-599 460 463 0
599 -460 -463 0
599 -463 -466 0
599 -460 -466 0
600 -601 602 0
600 601 -602 0
-600 601 602 0
-600 -601 -602 0
-601 469 475 0
-601 472 475 0
-601 469 472 0
601 -469 -472 0
601 -472 -475 0
601 -469 -475 0
-602 534 603 0
-602 -534 -603 0
602 -534 603 0
602 534 -603 0
-603 1009 484 0
-603 989 478 0
-603 478 484 0
-603 1009 478 0
-603 989 484 0
603 -478 -484 0
603 -989 -1009 -484 0
603 -989 -1009 -478 0
-604 500 510 0
-604 510 511 0
-604 500 511 0
604 -510 -511 0
604 -500 -510 0
604 -500 -511 0
605 606 -607 0
605 -606 607 0
-605 -606 -607 0
-605 606 607 0
-606 532 535 0
-606 534 535 0
-606 532 534 0
606 -532 -534 0
606 -534 -535 0
606 -532 -535 0
607 608 -609 0
607 -608 609 0
-607 -608 -609 0
-607 608 609 0
608 -998 -1002 0
-608 998 0
-608 1002 0
609 -610 611 0
609 610 -611 0
-609 610 611 0
-609 -610 -611 0
610 -997 -1003 0
-610 997 0
-610 1003 0
-611 612 641 0
-611 -612 -641 0
611 -612 641 0
611 612 -641 0
-612 613 614 0
-612 -613 -614 0
612 -613 614 0
612 613 -614 0
613 -996 -1004 0
-613 996 0
-613 1004 0
-614 615 640 0
-614 -615 -640 0
614 -615 640 0
614 615 -640 0
-615 616 617 0
-615 -616 -617 0
615 -616 617 0
615 616 -617 0
616 -995 -1005 0
-616 995 0
-616 1005 0
-617 618 639 0
-617 -618 -639 0
617 -618 639 0
617 618 -639 0
-618 619 620 0
-618 -619 -620 0
618 -619 620 0
618 619 -620 0
619 -994 -1006 0
-619 994 0
-619 1006 0
-620 621 638 0
-620 -621 -638 0
620 -621 638 0
620 621 -638 0
-621 622 623 0
-621 -622 -623 0
621 -622 623 0
621 622 -623 0
622 -993 -1007 0
-622 993 0
-622 1007 0
-623 624 637 0
-623 -624 -637 0
623 -624 637 0
623 624 -637 0
-624 625 626 0
-624 -625 -626 0
624 -625 626 0
624 625 -626 0
625 -992 -1008 0
-625 992 0
-625 1008 0
-626 627 636 0
-626 -627 -636 0
626 -627 636 0
626 627 -636 0
-627 628 629 0
-627 -628 -629 0
627 -628 629 0
627 628 -629 0
628 -991 -1009 0
-628 991 0
-628 1009 0
-629 630 635 0
-629 -630 -635 0
629 -630 635 0
629 630 -635 0
-630 631 632 0
-630 -631 -632 0
630 -631 632 0
630 631 -632 0
631 -990 -1010 0
-631 990 0
-631 1010 0
-632 633 634 0
-632 -633 -634 0
632 -633 634 0
632 633 -634 0
-633 560 562 0
-633 562 563 0
-633 560 563 0
633 -562 -563 0
633 -560 -562 0
633 -560 -563 0
-634 557 559 0
-634 559 564 0
-634 557 564 0
634 -559 -564 0
634 -557 -559 0
634 -557 -564 0
-635 554 556 0
-635 556 565 0
-635 554 565 0
635 -556 -565 0
635 -554 -556 0
635 -554 -565 0
-636 551 553 0
-636 553 566 0
-636 551 566 0
636 -553 -566 0
636 -551 -553 0
636 -551 -566 0
-637 548 550 0
-637 550 567 0
-637 548 567 0
637 -550 -567 0
637 -548 -550 0
637 -548 -567 0
-638 545 547 0
-638 547 568 0
-638 545 568 0
638 -547 -568 0
638 -545 -547 0
638 -545 -568 0
-639 542 544 0
-639 544 569 0
-639 542 569 0
639 -544 -569 0
639 -542 -544 0
639 -542 -569 0
-640 539 541 0
-640 541 570 0
-640 539 570 0
640 -541 -570 0
640 -539 -541 0
640 -539 -570 0
-641 536 538 0
-641 538 571 0
-641 536 571 0
641 -538 -571 0
641 -536 -538 0
641 -536 -571 0
642 -643 644 0
642 643 -644 0
-642 643 644 0
-642 -643 -644 0
-643 573 604 0
-643 573 575 0
-643 575 604 0
643 -575 -604 0
643 -573 -604 0
643 -573 -575 0
-644 645 671 0
-644 -645 -671 0
644 -645 671 0
644 645 -671 0
645 -646 655 0
645 646 -655 0
-645 646 655 0
-645 -646 -655 0
-646 -647 -652 0
-646 647 652 0
646 647 -652 0
646 -647 652 0
-647 648 649 0
-647 -648 -649 0
647 -648 649 0
647 648 -649 0
648 -589 -591 0
-648 589 0
-648 591 0
-649 650 651 0
-649 -650 -651 0
649 -650 651 0
649 650 -651 0
-650 598 595 0
-650 595 599 0
-650 598 599 0
650 -595 -599 0
650 -598 -595 0
650 -598 -599 0
-651 534 601 0
-651 601 603 0
-651 534 603 0
651 -601 -603 0
651 -534 -601 0
651 -534 -603 0
652 -653 654 0
652 653 -654 0
-652 653 654 0
-652 -653 -654 0
-653 588 600 0
-653 594 600 0
-653 588 594 0
653 -588 -594 0
653 -594 -600 0
653 -588 -600 0
-654 578 580 0
-654 580 581 0
-654 578 581 0
654 -580 -581 0
654 -578 -580 0
654 -578 -581 0
-655 -656 -657 0
-655 656 657 0
655 656 -657 0
655 -656 657 0
-656 577 583 0
-656 583 584 0
-656 577 584 0
656 -577 -584 0
656 -583 -584 0
656 -577 -583 0
657 658 -666 0
657 -658 666 0
-657 -658 -666 0
-657 658 666 0
-658 -659 -661 0
-658 659 661 0
658 659 -661 0
658 -659 661 0
-659 -608 -660 0
-659 608 660 0
659 608 -660 0
659 -608 660 0
660 610 -613 0
660 -610 613 0
-660 -610 -613 0
-660 610 613 0
661 -662 664 0
661 662 -664 0
-661 662 664 0
-661 -662 -664 0
-662 -616 -663 0
-662 616 663 0
662 616 -663 0
662 -616 663 0
663 619 -622 0
663 -619 622 0
-663 -619 -622 0
-663 619 622 0
-664 -625 -665 0
-664 625 665 0
664 625 -665 0
664 -625 665 0
665 628 -631 0
665 -628 631 0
-665 -628 -631 0
-665 628 631 0
666 -667 668 0
666 667 -668 0
-666 667 668 0
-666 -667 -668 0
-667 536 542 0
-667 539 542 0
-667 536 539 0
667 -536 -539 0
667 -539 -542 0
667 -536 -542 0
-668 669 670 0
-668 -669 -670 0
668 -669 670 0
668 669 -670 0
-669 1006 551 0
-669 993 545 0
-669 545 551 0
-669 1006 545 0
-669 993 551 0
669 -545 -551 0
669 -993 -1006 -551 0
669 -993 -1006 -545 0
-670 554 560 0
-670 557 560 0
-670 554 557 0
670 -554 -557 0
670 -557 -560 0
670 -554 -560 0
-671 576 586 0
-671 586 587 0
-671 576 587 0
671 -586 -587 0
671 -576 -586 0
671 -576 -587 0
-672 -673 -706 733 0
-672 673 706 733 0
672 -733 0
672 -673 706 0
672 673 -706 0
673 674 -675 0
673 -674 675 0
-673 -674 -675 0
-673 674 675 0
-674 608 609 0
-674 606 608 0
-674 606 609 0
674 -606 -608 0
674 -608 -609 0
674 -606 -609 0
675 676 -677 0
675 -676 677 0
-675 -676 -677 0
-675 676 677 0
676 -998 -1003 0
-676 998 0
-676 1003 0
677 -678 679 0
677 678 -679 0
-677 678 679 0
-677 -678 -679 0
678 -997 -1004 0
-678 997 0
-678 1004 0
-679 680 705 0
-679 -680 -705 0
679 -680 705 0
679 680 -705 0
-680 681 682 0
-680 -681 -682 0
680 -681 682 0
680 681 -682 0
681 -996 -1005 0
-681 996 0
-681 1005 0
-682 683 704 0
-682 -683 -704 0
682 -683 704 0
682 683 -704 0
-683 684 685 0
-683 -684 -685 0
683 -684 685 0
683 684 -685 0
684 -995 -1006 0
-684 995 0
-684 1006 0
-685 686 703 0
-685 -686 -703 0
685 -686 703 0
685 686 -703 0
-686 687 688 0
-686 -687 -688 0
686 -687 688 0
686 687 -688 0
687 -994 -1007 0
-687 994 0
-687 1007 0
-688 689 702 0
-688 -689 -702 0
688 -689 702 0
688 689 -702 0
-689 690 691 0
-689 -690 -691 0
689 -690 691 0
689 690 -691 0
690 -993 -1008 0
-690 993 0
-690 1008 0
-691 692 701 0
-691 -692 -701 0
691 -692 701 0
691 692 -701 0
-692 693 694 0
-692 -693 -694 0
692 -693 694 0
692 693 -694 0
693 -992 -1009 0
-693 992 0
-693 1009 0
-694 695 700 0
-694 -695 -700 0
694 -695 700 0
694 695 -700 0
-695 696 697 0
-695 -696 -697 0
695 -696 697 0
695 696 -697 0
696 -991 -1010 0
-696 991 0
-696 1010 0
-697 698 699 0
-697 -698 -699 0
697 -698 699 0
697 698 -699 0
-698 631 633 0
-698 633 634 0
-698 631 634 0
698 -633 -634 0
698 -631 -633 0
698 -631 -634 0
-699 628 630 0
-699 630 635 0
-699 628 635 0
699 -630 -635 0
699 -628 -630 0
699 -628 -635 0
-700 625 627 0
-700 627 636 0
-700 625 636 0
700 -627 -636 0
700 -625 -627 0
700 -625 -636 0
-701 622 624 0
-701 624 637 0
-701 622 637 0
701 -624 -637 0
701 -622 -624 0
701 -622 -637 0
-702 619 621 0
-702 621 638 0
-702 619 638 0
702 -621 -638 0
702 -619 -621 0
702 -619 -638 0
-703 616 618 0
-703 618 639 0
-703 616 639 0
703 -618 -639 0
703 -616 -618 0
703 -616 -639 0
-704 613 615 0
-704 615 640 0
-704 613 640 0
704 -615 -640 0
704 -613 -615 0
704 -613 -640 0
-705 610 612 0
-705 612 641 0
-705 610 641 0
705 -612 -641 0
705 -610 -612 0
705 -610 -641 0
706 -707 708 0
706 707 -708 0
-706 707 708 0
-706 -707 -708 0
-707 643 671 0
-707 643 645 0
-707 645 671 0
707 -645 -671 0
707 -643 -671 0
707 -643 -645 0
-708 709 732 0
-708 -709 -732 0
708 -709 732 0
708 709 -732 0
709 -710 721 0
709 710 -721 0
-709 710 721 0
-709 -710 -721 0
-710 711 712 0
-710 -711 -712 0
710 -711 712 0
710 711 -712 0
711 -658 -666 0
-711 658 0
-711 666 0
-712 -713 -714 0
-712 713 714 0
712 713 -714 0
712 -713 714 0
-713 648 650 0
-713 650 651 0
-713 648 651 0
713 -650 -651 0
713 -648 -650 0
713 -648 -651 0
714 715 -716 0
714 -715 716 0
-714 -715 -716 0
-714 715 716 0
715 676 -678 0
715 -676 678 0
-715 -676 -678 0
-715 676 678 0
716 -717 719 0
716 717 -719 0
-716 717 719 0
-716 -717 -719 0
-717 -681 -718 0
-717 681 718 0
717 681 -718 0
717 -681 718 0
718 684 -687 0
718 -684 687 0
-718 -684 -687 0
-718 684 687 0
-719 -690 -720 0
-719 690 720 0
719 690 -720 0
719 -690 720 0
720 693 -696 0
720 -693 696 0
-720 -693 -696 0
-720 693 696 0
-721 -722 -723 0
-721 722 723 0
721 722 -723 0
721 -722 723 0
-722 647 653 0
-722 653 654 0
-722 647 654 0
722 -647 -654 0
722 -653 -654 0
722 -647 -653 0
723 -724 729 0
723 724 -729 0
-723 724 729 0
-723 -724 -729 0
-724 -725 -726 0
-724 725 726 0
724 725 -726 0
724 -725 726 0
-725 1003 613 0
-725 997 608 0
-725 608 613 0
-725 1003 608 0
-725 997 613 0
725 -608 -613 0
725 -997 -1003 -613 0
725 -997 -1003 -608 0
726 -727 728 0
726 727 -728 0
-726 727 728 0
-726 -727 -728 0
-727 1006 622 0
-727 994 616 0
-727 616 622 0
-727 1006 616 0
-727 994 622 0
727 -616 -622 0
727 -994 -1006 -622 0
727 -994 -1006 -616 0
-728 1009 631 0
-728 991 625 0
-728 625 631 0
-728 1009 625 0
-728 991 631 0
728 -625 -631 0
728 -991 -1009 -631 0
728 -991 -1009 -625 0
-729 730 731 0
-729 -730 -731 0
729 -730 731 0
729 730 -731 0
-730 659 662 0
-730 662 664 0
-730 659 664 0
730 -659 -664 0
730 -662 -664 0
730 -659 -662 0
-731 667 669 0
-731 669 670 0
-731 667 670 0
731 -667 -670 0
731 -669 -670 0
731 -667 -669 0
-732 646 656 0
-732 656 657 0
-732 646 657 0
732 -656 -657 0
732 -646 -656 0
732 -646 -657 0
-733 734 763 -787 -812 0
-733 -734 -763 -787 -812 0
-733 734 763 787 812 0
-733 -734 -763 787 812 0
733 734 -763 0
733 -734 763 0
733 787 -812 0
733 -787 812 0
734 735 -736 0
734 -735 736 0
-734 -735 -736 0
-734 735 736 0
-735 676 677 0
-735 674 676 0
-735 674 677 0
735 -674 -676 0
735 -676 -677 0
735 -674 -677 0
736 737 -738 0
736 -737 738 0
-736 -737 -738 0
-736 737 738 0
737 -998 -1004 0
-737 998 0
-737 1004 0
738 -739 740 0
738 739 -740 0
-738 739 740 0
-738 -739 -740 0
739 -997 -1005 0
-739 997 0
-739 1005 0
-740 741 762 0
-740 -741 -762 0
740 -741 762 0
740 741 -762 0
-741 742 743 0
-741 -742 -743 0
741 -742 743 0
741 742 -743 0
742 -996 -1006 0
-742 996 0
-742 1006 0
-743 744 761 0
-743 -744 -761 0
743 -744 761 0
743 744 -761 0
-744 745 746 0
-744 -745 -746 0
744 -745 746 0
744 745 -746 0
745 -995 -1007 0
-745 995 0
-745 1007 0
-746 747 760 0
-746 -747 -760 0
746 -747 760 0
746 747 -760 0
-747 748 749 0
-747 -748 -749 0
747 -748 749 0
747 748 -749 0
748 -994 -1008 0
-748 994 0
-748 1008 0
-749 750 759 0
-749 -750 -759 0
749 -750 759 0
749 750 -759 0
-750 751 752 0
-750 -751 -752 0
750 -751 752 0
750 751 -752 0
751 -993 -1009 0
-751 993 0
-751 1009 0
-752 753 758 0
-752 -753 -758 0
752 -753 758 0
752 753 -758 0
-753 754 755 0
-753 -754 -755 0
753 -754 755 0
753 754 -755 0
754 -992 -1010 0
-754 992 0
-754 1010 0
-755 756 757 0
-755 -756 -757 0
755 -756 757 0
755 756 -757 0
-756 696 698 0
-756 698 699 0
-756 696 699 0
756 -698 -699 0
756 -696 -698 0
756 -696 -699 0
-757 693 695 0
-757 695 700 0
-757 693 700 0
757 -695 -700 0
757 -693 -695 0
757 -693 -700 0
-758 690 692 0
-758 692 701 0
-758 690 701 0
758 -692 -701 0
758 -690 -692 0
758 -690 -701 0
-759 687 689 0
-759 689 702 0
-759 687 702 0
759 -689 -702 0
759 -687 -689 0
759 -687 -702 0
-760 684 686 0
-760 686 703 0
-760 684 703 0
760 -686 -703 0
760 -684 -686 0
760 -684 -703 0
-761 681 683 0
-761 683 704 0
-761 681 704 0
761 -683 -704 0
761 -681 -683 0
761 -681 -704 0
-762 678 680 0
-762 680 705 0
-762 678 705 0
762 -680 -705 0
762 -678 -680 0
762 -678 -705 0
763 -764 765 0
763 764 -765 0
-763 764 765 0
-763 -764 -765 0
-764 707 732 0
-764 707 709 0
-764 709 732 0
764 -709 -732 0
764 -707 -732 0
764 -707 -709 0
-765 766 786 0
-765 -766 -786 0
765 -766 786 0
765 766 -786 0
766 -767 785 0
766 767 -785 0
-766 767 785 0
-766 -767 -785 0
-767 -768 -776 0
-767 768 776 0
767 768 -776 0
767 -768 776 0
-768 -769 -773 0
-768 769 773 0
768 769 -773 0
768 -769 773 0
-769 -770 -771 0
-769 770 771 0
769 770 -771 0
769 -770 771 0
-770 681 687 0
-770 684 687 0
-770 681 684 0
770 -681 -684 0
770 -684 -687 0
770 -681 -687 0
771 -737 772 0
771 737 -772 0
-771 737 772 0
-771 -737 -772 0
-772 690 696 0
-772 693 696 0
-772 690 693 0
772 -690 -693 0
772 -693 -696 0
772 -690 -696 0
773 -774 775 0
773 774 -775 0
-773 774 775 0
-773 -774 -775 0
-774 715 717 0
-774 717 719 0
-774 715 719 0
774 -717 -719 0
774 -715 -717 0
774 -715 -719 0
-775 725 727 0
-775 727 728 0
-775 725 728 0
775 -725 -728 0
775 -727 -728 0
775 -725 -727 0
776 777 -778 0
776 -777 778 0
-776 -777 -778 0
-776 777 778 0
-777 724 730 0
-777 730 731 0
-777 724 731 0
777 -724 -731 0
777 -730 -731 0
777 -724 -730 0
778 -779 781 0
778 779 -781 0
-778 779 781 0
-778 -779 -781 0
-779 -739 -780 0
-779 739 780 0
779 739 -780 0
779 -739 780 0
780 742 -745 0
780 -742 745 0
-780 -742 -745 0
-780 742 745 0
-781 782 783 0
-781 -782 -783 0
781 -782 783 0
781 782 -783 0
782 -676 -678 0
-782 676 0
-782 678 0
-783 -748 -784 0
-783 748 784 0
783 748 -784 0
783 -748 784 0
784 751 -754 0
784 -751 754 0
-784 -751 -754 0
-784 751 754 0
-785 713 714 0
-785 711 714 0
-785 711 713 0
785 -711 -714 0
785 -711 -713 0
785 -713 -714 0
-786 710 722 0
-786 722 723 0
-786 710 723 0
786 -722 -723 0
786 -710 -722 0
786 -710 -723 0
787 788 -789 0
787 -788 789 0
-787 -788 -789 0
-787 788 789 0
-788 737 738 0
-788 735 737 0
-788 735 738 0
788 -735 -737 0
788 -737 -738 0
788 -735 -738 0
789 790 -791 0
789 -790 791 0
-789 -790 -791 0
-789 790 791 0
790 -998 -1005 0
-790 998 0
-790 1005 0
791 -792 793 0
791 792 -793 0
-791 792 793 0
-791 -792 -793 0
792 -997 -1006 0
-792 997 0
-792 1006 0
-793 794 811 0
-793 -794 -811 0
793 -794 811 0
793 794 -811 0
-794 795 796 0
-794 -795 -796 0
794 -795 796 0
794 795 -796 0
795 -996 -1007 0
-795 996 0
-795 1007 0
-796 797 810 0
-796 -797 -810 0
796 -797 810 0
796 797 -810 0
-797 798 799 0
-797 -798 -799 0
797 -798 799 0
797 798 -799 0
798 -995 -1008 0
-798 995 0
-798 1008 0
-799 800 809 0
-799 -800 -809 0
799 -800 809 0
799 800 -809 0
-800 801 802 0
-800 -801 -802 0
800 -801 802 0
800 801 -802 0
801 -994 -1009 0
-801 994 0
-801 1009 0
-802 803 808 0
-802 -803 -808 0
802 -803 808 0
802 803 -808 0
-803 804 805 0
-803 -804 -805 0
803 -804 805 0
803 804 -805 0
804 -993 -1010 0
-804 993 0
-804 1010 0
-805 806 807 0
-805 -806 -807 0
805 -806 807 0
805 806 -807 0
-806 754 756 0
-806 756 757 0
-806 754 757 0
806 -756 -757 0
806 -754 -756 0
806 -754 -757 0
-807 751 753 0
-807 753 758 0
-807 751 758 0
807 -753 -758 0
807 -751 -753 0
807 -751 -758 0
-808 748 750 0
-808 750 759 0
-808 748 759 0
808 -750 -759 0
808 -748 -750 0
808 -748 -759 0
-809 745 747 0
-809 747 760 0
-809 745 760 0
809 -747 -760 0
809 -745 -747 0
809 -745 -760 0
-810 742 744 0
-810 744 761 0
-810 742 761 0
810 -744 -761 0
810 -742 -744 0
810 -742 -761 0
-811 739 741 0
-811 741 762 0
-811 739 762 0
811 -741 -762 0
811 -739 -741 0
811 -739 -762 0
812 -813 814 0
812 813 -814 0
-812 813 814 0
-812 -813 -814 0
-813 764 786 0
-813 764 766 0
-813 766 786 0
813 -766 -786 0
813 -764 -786 0
813 -764 -766 0
-814 -815 -816 0
-814 815 816 0
814 815 -816 0
814 -815 816 0
815 -767 -785 0
-815 767 0
-815 785 0
816 -817 832 0
816 817 -832 0
-816 817 832 0
-816 -817 -832 0
-817 -818 -824 0
-817 818 824 0
817 818 -824 0
817 -818 824 0
-818 -819 -820 0
-818 819 820 0
818 819 -820 0
818 -819 820 0
-819 782 779 0
-819 779 783 0
-819 782 783 0
819 -779 -783 0
819 -782 -779 0
819 -782 -783 0
820 -821 822 0
820 821 -822 0
-820 821 822 0
-820 -821 -822 0
-821 737 770 0
-821 770 772 0
-821 737 772 0
821 -770 -772 0
821 -737 -770 0
821 -737 -772 0
-822 -790 -823 0
-822 790 823 0
822 790 -823 0
822 -790 823 0
823 792 -795 0
823 -792 795 0
-823 -792 -795 0
-823 792 795 0
824 825 -826 0
824 -825 826 0
-824 -825 -826 0
-824 825 826 0
-825 769 774 0
-825 774 775 0
-825 769 775 0
825 -769 -775 0
825 -774 -775 0
825 -769 -774 0
826 -827 829 0
826 827 -829 0
-826 827 829 0
-826 -827 -829 0
-827 -798 -828 0
-827 798 828 0
827 798 -828 0
827 -798 828 0
828 801 -804 0
828 -801 804 0
-828 -801 -804 0
-828 801 804 0
-829 830 831 0
-829 -830 -831 0
829 -830 831 0
829 830 -831 0
-830 739 745 0
-830 742 745 0
-830 739 742 0
830 -739 -742 0
830 -742 -745 0
830 -739 -745 0
-831 1009 754 0
-831 993 748 0
-831 748 754 0
-831 1009 748 0
-831 993 754 0
831 -748 -754 0
831 -993 -1009 -754 0
831 -993 -1009 -748 0
-832 768 777 0
-832 777 778 0
-832 768 778 0
832 -777 -778 0
832 -768 -777 0
832 -768 -778 0
-833 834 855 873 935 0
-833 -834 -855 873 935 0
833 -935 0
833 -834 855 0
833 -873 0
833 834 -855 0
834 835 -836 0
834 -835 836 0
-834 -835 -836 0
-834 835 836 0
-835 790 791 0
-835 788 790 0
-835 788 791 0
835 -788 -790 0
835 -790 -791 0
835 -788 -791 0
836 837 -838 0
836 -837 838 0
-836 -837 -838 0
-836 837 838 0
837 -998 -1006 0
-837 998 0
-837 1006 0
838 -839 840 0
838 839 -840 0
-838 839 840 0
-838 -839 -840 0
839 -997 -1007 0
-839 997 0
-839 1007 0
-840 841 854 0
-840 -841 -854 0
840 -841 854 0
840 841 -854 0
-841 842 843 0
-841 -842 -843 0
841 -842 843 0
841 842 -843 0
842 -996 -1008 0
-842 996 0
-842 1008 0
-843 844 853 0
-843 -844 -853 0
843 -844 853 0
843 844 -853 0
-844 845 846 0
-844 -845 -846 0
844 -845 846 0
844 845 -846 0
845 -995 -1009 0
-845 995 0
-845 1009 0
-846 847 852 0
-846 -847 -852 0
846 -847 852 0
846 847 -852 0
-847 848 849 0
-847 -848 -849 0
847 -848 849 0
847 848 -849 0
848 -994 -1010 0
-848 994 0
-848 1010 0
-849 850 851 0
-849 -850 -851 0
849 -850 851 0
849 850 -851 0
-850 804 806 0
-850 806 807 0
-850 804 807 0
850 -806 -807 0
850 -804 -806 0
850 -804 -807 0
-851 801 803 0
-851 803 808 0
-851 801 808 0
851 -803 -808 0
851 -801 -803 0
851 -801 -808 0
-852 798 800 0
-852 800 809 0
-852 798 809 0
852 -800 -809 0
852 -798 -800 0
852 -798 -809 0
-853 795 797 0
-853 797 810 0
-853 795 810 0
853 -797 -810 0
853 -795 -797 0
853 -795 -810 0
-854 792 794 0
-854 794 811 0
-854 792 811 0
854 -794 -811 0
854 -792 -794 0
854 -792 -811 0
855 -856 857 0
855 856 -857 0
-855 856 857 0
-855 -856 -857 0
-856 813 816 0
-856 815 816 0
-856 815 813 0
856 -815 -816 0
856 -815 -813 0
856 -813 -816 0
-857 -858 -859 0
-857 858 859 0
857 858 -859 0
857 -858 859 0
858 -817 -832 0
-858 817 0
-858 832 0
859 -860 872 0
859 860 -872 0
-859 860 872 0
-859 -860 -872 0
-860 861 871 0
-860 -861 -871 0
860 -861 871 0
860 861 -871 0
-861 -862 -868 0
-861 862 868 0
861 862 -868 0
861 -862 868 0
-862 -863 -865 0
-862 863 865 0
862 863 -865 0
862 -863 865 0
-863 -842 -864 0
-863 842 864 0
863 842 -864 0
863 -842 864 0
864 845 -848 0
864 -845 848 0
-864 -845 -848 0
-864 845 848 0
865 -866 867 0
865 866 -867 0
-865 866 867 0
-865 -866 -867 0
-866 1006 795 0
-866 997 790 0
-866 790 795 0
-866 1006 790 0
-866 997 795 0
866 -790 -795 0
866 -997 -1006 -795 0
866 -997 -1006 -790 0
-867 1009 804 0
-867 994 798 0
-867 798 804 0
-867 1009 798 0
-867 994 804 0
867 -798 -804 0
867 -994 -1009 -804 0
867 -994 -1009 -798 0
868 869 -870 0
868 -869 870 0
-868 -869 -870 0
-868 869 870 0
-869 827 830 0
-869 830 831 0
-869 827 831 0
869 -827 -831 0
869 -830 -831 0
869 -827 -830 0
870 837 -839 0
870 -837 839 0
-870 -837 -839 0
-870 837 839 0
-871 819 821 0
-871 821 822 0
-871 819 822 0
871 -819 -822 0
871 -821 -822 0
871 -819 -821 0
-872 818 825 0
-872 825 826 0
-872 818 826 0
872 -825 -826 0
872 -818 -825 0
872 -818 -826 0
-873 874 891 -908 -921 0
-873 -874 -891 -908 -921 0
-873 874 891 908 921 0
-873 -874 -891 908 921 0
873 874 -891 0
873 -874 891 0
873 908 -921 0
873 -908 921 0
874 875 -876 0
874 -875 876 0
-874 -875 -876 0
-874 875 876 0
-875 837 838 0
-875 835 837 0
-875 835 838 0
875 -835 -837 0
875 -837 -838 0
875 -835 -838 0
876 877 -878 0
876 -877 878 0
-876 -877 -878 0
-876 877 878 0
877 -998 -1007 0
-877 998 0
-877 1007 0
878 -879 880 0
878 879 -880 0
-878 879 880 0
-878 -879 -880 0
879 -997 -1008 0
-879 997 0
-879 1008 0
-880 881 890 0
-880 -881 -890 0
880 -881 890 0
880 881 -890 0
-881 882 883 0
-881 -882 -883 0
881 -882 883 0
881 882 -883 0
882 -996 -1009 0
-882 996 0
-882 1009 0
-883 884 889 0
-883 -884 -889 0
883 -884 889 0
883 884 -889 0
-884 885 886 0
-884 -885 -886 0
884 -885 886 0
884 885 -886 0
885 -995 -1010 0
-885 995 0
-885 1010 0
-886 887 888 0
-886 -887 -888 0
886 -887 888 0
886 887 -888 0
-887 848 850 0
-887 850 851 0
-887 848 851 0
887 -850 -851 0
887 -848 -850 0
887 -848 -851 0
-888 845 847 0
-888 847 852 0
-888 845 852 0
888 -847 -852 0
888 -845 -847 0
888 -845 -852 0
-889 842 844 0
-889 844 853 0
-889 842 853 0
889 -844 -853 0
889 -842 -844 0
889 -842 -853 0
-890 839 841 0
-890 841 854 0
-890 839 854 0
890 -841 -854 0
890 -839 -841 0
890 -839 -854 0
891 -892 893 0
891 892 -893 0
-891 892 893 0
-891 -892 -893 0
-892 856 859 0
-892 858 859 0
-892 858 856 0
892 -858 -859 0
892 -858 -856 0
892 -856 -859 0
-893 894 895 0
-893 -894 -895 0
893 -894 895 0
893 894 -895 0
894 -860 -872 0
-894 860 0
-894 872 0
-895 -896 -907 0
-895 896 907 0
895 896 -907 0
895 -896 907 0
-896 897 906 0
-896 -897 -906 0
896 -897 906 0
896 897 -906 0
-897 -898 -902 0
-897 898 902 0
897 898 -902 0
897 -898 902 0
-898 899 900 0
-898 -899 -900 0
898 -899 900 0
898 899 -900 0
899 -837 -839 0
-899 837 0
-899 839 0
-900 877 901 0
-900 -877 -901 0
900 -877 901 0
900 877 -901 0
-901 842 848 0
-901 845 848 0
-901 842 845 0
901 -842 -845 0
901 -845 -848 0
901 -842 -848 0
902 -903 904 0
902 903 -904 0
-902 903 904 0
-902 -903 -904 0
-903 863 866 0
-903 866 867 0
-903 863 867 0
903 -863 -867 0
903 -866 -867 0
903 -863 -866 0
-904 -879 -905 0
-904 879 905 0
904 879 -905 0
904 -879 905 0
905 882 -885 0
905 -882 885 0
-905 -882 -885 0
-905 882 885 0
-906 862 869 0
-906 869 870 0
-906 862 870 0
906 -869 -870 0
906 -862 -869 0
906 -862 -870 0
907 -861 -871 0
-907 861 0
-907 871 0
908 909 -910 0
908 -909 910 0
-908 -909 -910 0
-908 909 910 0
-909 877 878 0
-909 875 877 0
-909 875 878 0
909 -875 -877 0
909 -877 -878 0
909 -875 -878 0
910 911 -912 0
910 -911 912 0
-910 -911 -912 0
-910 911 912 0
911 -998 -1008 0
-911 998 0
-911 1008 0
912 -913 914 0
912 913 -914 0
-912 913 914 0
-912 -913 -914 0
913 -997 -1009 0
-913 997 0
-913 1009 0
-914 915 920 0
-914 -915 -920 0
914 -915 920 0
914 915 -920 0
-915 916 917 0
-915 -916 -917 0
915 -916 917 0
915 916 -917 0
916 -996 -1010 0
-916 996 0
-916 1010 0
-917 918 919 0
-917 -918 -919 0
917 -918 919 0
917 918 -919 0
-918 885 887 0
-918 887 888 0
-918 885 888 0
918 -887 -888 0
918 -885 -887 0
918 -885 -888 0
-919 882 884 0
-919 884 889 0
-919 882 889 0
919 -884 -889 0
919 -882 -884 0
919 -882 -889 0
-920 879 881 0
-920 881 890 0
-920 879 890 0
920 -881 -890 0
920 -879 -881 0
920 -879 -890 0
921 -922 923 0
921 922 -923 0
-921 922 923 0
-921 -922 -923 0
-922 894 892 0
-922 892 895 0
-922 894 895 0
922 -892 -895 0
922 -894 -892 0
922 -894 -895 0
-923 -924 -934 0
-923 924 934 0
923 924 -934 0
923 -924 934 0
-924 -925 -933 0
-924 925 933 0
924 925 -933 0
924 -925 933 0
-925 926 932 0
-925 -926 -932 0
925 -926 932 0
925 926 -932 0
-926 927 931 0
-926 -927 -931 0
926 -927 931 0
926 927 -931 0
-927 928 930 0
-927 -928 -930 0
927 -928 930 0
927 928 -930 0
-928 -911 -929 0
-928 911 929 0
928 911 -929 0
928 -911 929 0
929 913 -916 0
929 -913 916 0
-929 -913 -916 0
-929 913 916 0
-930 879 885 0
-930 882 885 0
-930 879 882 0
930 -879 -882 0
930 -882 -885 0
930 -879 -885 0
-931 877 901 0
-931 899 877 0
-931 899 901 0
931 -899 -877 0
931 -877 -901 0
931 -899 -901 0
-932 898 903 0
-932 903 904 0
-932 898 904 0
932 -898 -904 0
932 -903 -904 0
932 -898 -903 0
933 -897 -906 0
-933 897 0
-933 906 0
934 -896 -907 0
-934 896 0
-934 907 0
-935 -936 -945 958 0
-935 936 945 958 0
935 -958 0
935 -936 945 0
935 936 -945 0
936 937 -938 0
936 -937 938 0
-936 -937 -938 0
-936 937 938 0
-937 911 912 0
-937 909 911 0
-937 909 912 0
937 -909 -911 0
937 -911 -912 0
937 -909 -912 0
938 939 -940 0
938 -939 940 0
-938 -939 -940 0
-938 939 940 0
939 -998 -1009 0
-939 998 0
-939 1009 0
940 -941 942 0
940 941 -942 0
-940 941 942 0
-940 -941 -942 0
941 -997 -1010 0
-941 997 0
-941 1010 0
-942 943 944 0
-942 -943 -944 0
942 -943 944 0
942 943 -944 0
-943 916 918 0
-943 918 919 0
-943 916 919 0
943 -918 -919 0
943 -916 -918 0
943 -916 -919 0
-944 913 915 0
-944 915 920 0
-944 913 920 0
944 -915 -920 0
944 -913 -915 0
944 -913 -920 0
945 -946 947 0
945 946 -947 0
-945 946 947 0
-945 -946 -947 0
-946 922 924 0
-946 924 934 0
-946 922 934 0
946 -924 -934 0
946 -922 -924 0
946 -922 -934 0
-947 -948 -957 0
-947 948 957 0
947 948 -957 0
947 -948 957 0
-948 -949 -956 0
-948 949 956 0
948 949 -956 0
948 -949 956 0
-949 -950 -955 0
-949 950 955 0
949 950 -955 0
949 -950 955 0
-950 -951 -954 0
-950 951 954 0
950 951 -954 0
950 -951 954 0
-951 952 953 0
-951 -952 -953 0
951 -952 953 0
951 952 -953 0
952 939 -941 0
952 -939 941 0
-952 -939 -941 0
-952 939 941 0
-953 911 916 0
-953 913 916 0
-953 911 913 0
953 -911 -913 0
953 -913 -916 0
953 -911 -916 0
954 -928 -930 0
-954 928 0
-954 930 0
955 -927 -931 0
-955 927 0
-955 931 0
956 -926 -932 0
-956 926 0
-956 932 0
957 -925 -933 0
-957 925 0
-957 933 0
-958 959 964 977 978 0
-958 -959 -964 -977 -978 0
-958 959 964 -977 -978 0
-958 -959 -964 977 978 0
958 959 -964 0
958 -959 964 0
958 -977 978 0
958 977 -978 0
959 960 -961 0
959 -960 961 0
-959 -960 -961 0
-959 960 961 0
-960 939 940 0
-960 937 939 0
-960 937 940 0
960 -937 -939 0
960 -939 -940 0
960 -937 -940 0
961 -962 963 0
961 962 -963 0
-961 962 963 0
-961 -962 -963 0
962 -998 -1010 0
-962 998 0
-962 1010 0
-963 941 943 0
-963 943 944 0
-963 941 944 0
963 -943 -944 0
963 -941 -943 0
963 -941 -944 0
964 -965 966 0
964 965 -966 0
-964 965 966 0
-964 -965 -966 0
-965 946 948 0
-965 948 957 0
-965 946 957 0
965 -948 -957 0
965 -946 -948 0
965 -946 -957 0
-966 -967 -976 0
-966 967 976 0
966 967 -976 0
966 -967 976 0
-967 -968 -975 0
-967 968 975 0
967 968 -975 0
967 -968 975 0
-968 -969 -974 0
-968 969 974 0
968 969 -974 0
968 -969 974 0
-969 -970 -973 0
-969 970 973 0
969 970 -973 0
969 -970 973 0
-970 971 0
970 -971 0
971 972 -962 0
-971 -972 0
-971 962 0
972 -939 -941 0
-972 939 0
-972 941 0
973 -952 -953 0
-973 952 0
-973 953 0
974 -951 -954 0
-974 951 0
-974 954 0
975 -950 -955 0
-975 950 0
-975 955 0
976 -949 -956 0
-976 949 0
-976 956 0
-977 960 963 0
-977 960 962 0
-977 962 963 0
977 -962 -963 0
977 -960 -963 0
977 -960 -962 0
978 -979 980 0
978 979 -980 0
-978 979 980 0
-978 -979 -980 0
-979 965 967 0
-979 967 976 0
-979 965 976 0
979 -967 -976 0
979 -965 -967 0
979 -965 -976 0
-980 -981 -986 0
-980 981 986 0
980 981 -986 0
980 -981 986 0
-981 -982 -985 0
-981 982 985 0
981 982 -985 0
981 -982 985 0
-982 -983 -984 0
-982 983 984 0
982 983 -984 0
982 -983 984 0
983 -970 -973 0
-983 970 0
-983 973 0
984 -972 -962 0
-984 972 0
-984 962 0
985 -969 -974 0
-985 969 0
-985 974 0
986 -968 -975 0
-986 968 0
-986 975 0
-1011 0
2 0

