c Result of efficient AIG-to-CNF conversion using package CNF
p cnf 406 1699
-2 3 177 269 337 0
2 -337 0
2 -3 0
2 -269 0
2 -177 0
-3 4 33 91 0
3 -4 0
3 -33 0
3 -91 0
-4 5 0
4 -5 0
-5 -6 -25 0
-5 6 25 0
5 6 -25 0
5 -6 25 0
6 7 -8 0
6 -7 8 0
-6 -7 -8 0
-6 7 8 0
7 -393 -398 0
-7 393 0
-7 398 0
8 -9 10 0
8 9 -10 0
-8 9 10 0
-8 -9 -10 0
9 -392 -399 0
-9 392 0
-9 399 0
-10 -11 -20 0
-10 11 20 0
10 11 -20 0
10 -11 20 0
11 -12 -13 0
-11 12 0
-11 13 0
12 -392 -398 0
-12 392 0
-12 398 0
13 -14 15 0
13 14 -15 0
-13 14 15 0
-13 -14 -15 0
14 -391 -399 0
-14 391 0
-14 399 0
-15 -16 -19 0
-15 16 19 0
15 16 -19 0
15 -16 19 0
16 -17 -18 0
-16 17 0
-16 18 0
17 -391 -398 0
-17 391 0
-17 398 0
18 -390 -399 0
-18 390 0
-18 399 0
19 -390 -400 0
-19 390 0
-19 400 0
20 21 -22 0
20 -21 22 0
-20 -21 -22 0
-20 21 22 0
21 -391 -400 0
-21 391 0
-21 400 0
22 -23 24 0
22 23 -24 0
-22 23 24 0
-22 -23 -24 0
23 -390 -401 0
-23 390 0
-23 401 0
-24 16 19 0
-24 14 19 0
-24 16 14 0
24 -16 -14 0
24 -14 -19 0
24 -16 -19 0
25 -26 28 0
25 26 -28 0
-25 26 28 0
-25 -26 -28 0
-26 12 27 0
-26 16 12 0
-26 16 27 0
26 -16 -12 0
26 -12 -27 0
26 -16 -27 0
-27 -14 -19 0
-27 14 19 0
27 14 -19 0
27 -14 19 0
-28 29 30 0
-28 -29 -30 0
28 -29 30 0
28 29 -30 0
29 -14 -19 0
-29 14 0
-29 19 0
-30 -31 -32 0
-30 31 32 0
30 31 -32 0
30 -31 32 0
-31 -21 -23 0
-31 21 23 0
31 21 -23 0
31 -21 23 0
32 7 -9 0
32 -7 9 0
-32 -7 -9 0
-32 7 9 0
-33 34 49 -59 -78 0
-33 -34 -49 -59 -78 0
-33 34 49 59 78 0
-33 -34 -49 59 78 0
33 34 -49 0
33 -34 49 0
33 59 -78 0
33 -59 78 0
34 35 -36 0
34 -35 36 0
-34 -35 -36 0
-34 35 36 0
35 -394 -398 0
-35 394 0
-35 398 0
36 -37 38 0
36 37 -38 0
-36 37 38 0
-36 -37 -38 0
37 -393 -399 0
-37 393 0
-37 399 0
-38 39 40 0
-38 -39 -40 0
38 -39 40 0
38 39 -40 0
39 -7 -8 0
-39 7 0
-39 8 0
-40 41 42 0
-40 -41 -42 0
40 -41 42 0
40 41 -42 0
41 -392 -400 0
-41 392 0
-41 400 0
-42 43 48 0
-42 -43 -48 0
42 -43 48 0
42 43 -48 0
-43 -44 -45 0
-43 44 45 0
43 44 -45 0
43 -44 45 0
44 -391 -401 0
-44 391 0
-44 401 0
45 -46 47 0
45 46 -47 0
-45 46 47 0
-45 -46 -47 0
46 -390 -402 0
-46 390 0
-46 402 0
-47 23 24 0
-47 21 23 0
-47 21 24 0
47 -21 -23 0
47 -23 -24 0
47 -21 -24 0
-48 11 20 0
-48 9 20 0
-48 11 9 0
48 -11 -9 0
48 -9 -20 0
48 -11 -20 0
49 -50 51 0
49 50 -51 0
-49 50 51 0
-49 -50 -51 0
-50 29 26 0
-50 26 30 0
-50 29 30 0
50 -26 -30 0
50 -29 -26 0
50 -29 -30 0
-51 52 58 0
-51 -52 -58 0
51 -52 58 0
51 52 -58 0
-52 -53 -55 0
-52 53 55 0
52 53 -55 0
52 -53 55 0
-53 35 54 0
-53 -35 -54 0
53 -35 54 0
53 35 -54 0
-54 -37 -41 0
-54 37 41 0
54 37 -41 0
54 -37 41 0
55 56 -57 0
55 -56 57 0
-55 -56 -57 0
-55 56 57 0
56 -21 -23 0
-56 21 0
-56 23 0
57 44 -46 0
57 -44 46 0
-57 -44 -46 0
-57 44 46 0
-58 9 31 0
-58 7 9 0
-58 7 31 0
58 -7 -9 0
58 -9 -31 0
58 -7 -31 0
59 60 -61 0
59 -60 61 0
-59 -60 -61 0
-59 60 61 0
60 -395 -398 0
-60 395 0
-60 398 0
61 -62 63 0
61 62 -63 0
-61 62 63 0
-61 -62 -63 0
62 -394 -399 0
-62 394 0
-62 399 0
-63 64 65 0
-63 -64 -65 0
63 -64 65 0
63 64 -65 0
64 -35 -36 0
-64 35 0
-64 36 0
-65 66 67 0
-65 -66 -67 0
65 -66 67 0
65 66 -67 0
66 -393 -400 0
-66 393 0
-66 400 0
-67 68 77 0
-67 -68 -77 0
67 -68 77 0
67 68 -77 0
-68 69 70 0
-68 -69 -70 0
68 -69 70 0
68 69 -70 0
69 -392 -401 0
-69 392 0
-69 401 0
-70 71 76 0
-70 -71 -76 0
70 -71 76 0
70 71 -76 0
-71 -72 -73 0
-71 72 73 0
71 72 -73 0
71 -72 73 0
72 -391 -402 0
-72 391 0
-72 402 0
73 -74 75 0
73 74 -75 0
-73 74 75 0
-73 -74 -75 0
74 -390 -403 0
-74 390 0
-74 403 0
-75 46 47 0
-75 44 46 0
-75 44 47 0
75 -44 -46 0
75 -46 -47 0
75 -44 -47 0
-76 41 43 0
-76 43 48 0
-76 41 48 0
76 -43 -48 0
76 -41 -43 0
76 -41 -48 0
-77 37 40 0
-77 39 37 0
-77 39 40 0
77 -39 -37 0
77 -37 -40 0
77 -39 -40 0
78 79 -80 0
78 -79 80 0
-78 -79 -80 0
-78 79 80 0
-79 50 52 0
-79 52 58 0
-79 50 58 0
79 -50 -58 0
79 -52 -58 0
79 -50 -52 0
80 -81 90 0
80 81 -90 0
-80 81 90 0
-80 -81 -90 0
81 -82 87 0
81 82 -87 0
-81 82 87 0
-81 -82 -87 0
-82 -83 -85 0
-82 83 85 0
82 83 -85 0
82 -83 85 0
-83 -69 -84 0
-83 69 84 0
83 69 -84 0
83 -69 84 0
84 72 -74 0
84 -72 74 0
-84 -72 -74 0
-84 72 74 0
85 86 -60 0
85 -86 60 0
-85 -86 -60 0
-85 86 60 0
86 -44 -46 0
-86 44 0
-86 46 0
-87 -88 -89 0
-87 88 89 0
87 88 -89 0
87 -88 89 0
-88 35 41 0
-88 37 41 0
-88 35 37 0
88 -35 -37 0
88 -37 -41 0
88 -35 -41 0
89 62 -66 0
89 -62 66 0
-89 -62 -66 0
-89 62 66 0
-90 23 57 0
-90 21 53 0
-90 23 53 0
-90 53 57 0
-90 21 57 0
90 -53 -57 0
90 -21 -23 -57 0
90 -21 -23 -53 0
-91 92 115 -131 -158 0
-91 -92 -115 -131 -158 0
-91 92 115 131 158 0
-91 -92 -115 131 158 0
91 92 -115 0
91 -92 115 0
91 131 -158 0
91 -131 158 0
92 93 -94 0
92 -93 94 0
-92 -93 -94 0
-92 93 94 0
93 -396 -398 0
-93 396 0
-93 398 0
94 -95 96 0
94 95 -96 0
-94 95 96 0
-94 -95 -96 0
95 -395 -399 0
-95 395 0
-95 399 0
-96 97 98 0
-96 -97 -98 0
96 -97 98 0
96 97 -98 0
97 -60 -61 0
-97 60 0
-97 61 0
-98 99 100 0
-98 -99 -100 0
98 -99 100 0
98 99 -100 0
99 -394 -400 0
-99 394 0
-99 400 0
-100 101 114 0
-100 -101 -114 0
100 -101 114 0
100 101 -114 0
-101 102 103 0
-101 -102 -103 0
101 -102 103 0
101 102 -103 0
102 -393 -401 0
-102 393 0
-102 401 0
-103 104 113 0
-103 -104 -113 0
103 -104 113 0
103 104 -113 0
-104 105 106 0
-104 -105 -106 0
104 -105 106 0
104 105 -106 0
105 -392 -402 0
-105 392 0
-105 402 0
-106 107 112 0
-106 -107 -112 0
106 -107 112 0
106 107 -112 0
-107 -108 -109 0
-107 108 109 0
107 108 -109 0
107 -108 109 0
108 -391 -403 0
-108 391 0
-108 403 0
109 -110 111 0
109 110 -111 0
-109 110 111 0
-109 -110 -111 0
110 -390 -404 0
-110 390 0
-110 404 0
-111 74 75 0
-111 72 74 0
-111 72 75 0
111 -72 -74 0
111 -74 -75 0
111 -72 -75 0
-112 69 71 0
-112 71 76 0
-112 69 76 0
112 -71 -76 0
112 -69 -71 0
112 -69 -76 0
-113 66 68 0
-113 68 77 0
-113 66 77 0
113 -68 -77 0
113 -66 -68 0
113 -66 -77 0
-114 62 65 0
-114 64 62 0
-114 64 65 0
114 -64 -62 0
114 -62 -65 0
114 -64 -65 0
115 -116 117 0
115 116 -117 0
-115 116 117 0
-115 -116 -117 0
-116 79 90 0
-116 79 81 0
-116 81 90 0
116 -81 -90 0
116 -79 -90 0
116 -79 -81 0
-117 118 130 0
-117 -118 -130 0
117 -118 130 0
117 118 -130 0
118 -119 125 0
118 119 -125 0
-118 119 125 0
-118 -119 -125 0
-119 -120 -122 0
-119 120 122 0
119 120 -122 0
119 -120 122 0
-120 -99 -121 0
-120 99 121 0
120 99 -121 0
120 -99 121 0
121 102 -105 0
121 -102 105 0
-121 -102 -105 0
-121 102 105 0
122 -123 124 0
122 123 -124 0
-122 123 124 0
-122 -123 -124 0
123 -62 -66 0
-123 62 0
-123 66 0
-124 69 74 0
-124 72 74 0
-124 69 72 0
124 -69 -72 0
124 -72 -74 0
124 -69 -74 0
-125 -126 -127 0
-125 126 127 0
125 126 -127 0
125 -126 127 0
-126 60 83 0
-126 86 60 0
-126 86 83 0
126 -86 -60 0
126 -60 -83 0
126 -86 -83 0
127 128 -129 0
127 -128 129 0
-127 -128 -129 0
-127 128 129 0
128 108 -110 0
128 -108 110 0
-128 -108 -110 0
-128 108 110 0
129 93 -95 0
129 -93 95 0
-129 -93 -95 0
-129 93 95 0
-130 82 88 0
-130 88 89 0
-130 82 89 0
130 -88 -89 0
130 -82 -88 0
130 -82 -89 0
131 132 -133 0
131 -132 133 0
-131 -132 -133 0
-131 132 133 0
132 -397 -398 0
-132 397 0
-132 398 0
133 134 -135 0
133 -134 135 0
-133 -134 -135 0
-133 134 135 0
134 -396 -399 0
-134 396 0
-134 399 0
135 136 -137 0
135 -136 137 0
-135 -136 -137 0
-135 136 137 0
136 -93 -94 0
-136 93 0
-136 94 0
137 -138 139 0
137 138 -139 0
-137 138 139 0
-137 -138 -139 0
138 -395 -400 0
-138 395 0
-138 400 0
-139 140 157 0
-139 -140 -157 0
139 -140 157 0
139 140 -157 0
-140 141 142 0
-140 -141 -142 0
140 -141 142 0
140 141 -142 0
141 -394 -401 0
-141 394 0
-141 401 0
-142 143 156 0
-142 -143 -156 0
142 -143 156 0
142 143 -156 0
-143 144 145 0
-143 -144 -145 0
143 -144 145 0
143 144 -145 0
144 -393 -402 0
-144 393 0
-144 402 0
-145 146 155 0
-145 -146 -155 0
145 -146 155 0
145 146 -155 0
-146 147 148 0
-146 -147 -148 0
146 -147 148 0
146 147 -148 0
147 -392 -403 0
-147 392 0
-147 403 0
-148 149 154 0
-148 -149 -154 0
148 -149 154 0
148 149 -154 0
-149 -150 -151 0
-149 150 151 0
149 150 -151 0
149 -150 151 0
150 -391 -404 0
-150 391 0
-150 404 0
151 -152 153 0
151 152 -153 0
-151 152 153 0
-151 -152 -153 0
152 -390 -405 0
-152 390 0
-152 405 0
-153 110 111 0
-153 108 110 0
-153 108 111 0
153 -108 -110 0
153 -110 -111 0
153 -108 -111 0
-154 105 107 0
-154 107 112 0
-154 105 112 0
154 -107 -112 0
154 -105 -107 0
154 -105 -112 0
-155 102 104 0
-155 104 113 0
-155 102 113 0
155 -104 -113 0
155 -102 -104 0
155 -102 -113 0
-156 99 101 0
-156 101 114 0
-156 99 114 0
156 -101 -114 0
156 -99 -101 0
156 -99 -114 0
-157 95 98 0
-157 97 95 0
-157 97 98 0
157 -97 -95 0
157 -95 -98 0
157 -97 -98 0
158 159 -160 0
158 -159 160 0
-158 -159 -160 0
-158 159 160 0
-159 116 130 0
-159 116 118 0
-159 118 130 0
159 -118 -130 0
159 -116 -130 0
159 -116 -118 0
160 -161 176 0
160 161 -176 0
-160 161 176 0
-160 -161 -176 0
161 -162 168 0
161 162 -168 0
-161 162 168 0
-161 -162 -168 0
-162 -163 -165 0
-162 163 165 0
162 163 -165 0
162 -163 165 0
-163 -132 -164 0
-163 132 164 0
163 132 -164 0
163 -132 164 0
164 134 -138 0
164 -134 138 0
-164 -134 -138 0
-164 134 138 0
165 -166 167 0
165 166 -167 0
-165 166 167 0
-165 -166 -167 0
-166 398 128 0
-166 396 95 0
-166 95 128 0
-166 398 95 0
-166 396 128 0
166 -95 -128 0
166 -396 -398 -128 0
166 -396 -398 -95 0
-167 99 105 0
-167 102 105 0
-167 99 102 0
167 -99 -102 0
167 -102 -105 0
167 -99 -105 0
-168 -169 -170 0
-168 169 170 0
168 169 -170 0
168 -169 170 0
-169 123 120 0
-169 120 124 0
-169 123 124 0
169 -120 -124 0
169 -123 -120 0
169 -123 -124 0
170 -171 172 0
170 171 -172 0
-170 171 172 0
-170 -171 -172 0
171 141 -144 0
171 -141 144 0
-171 -141 -144 0
-171 141 144 0
-172 173 174 0
-172 -173 -174 0
172 -173 174 0
172 173 -174 0
173 -108 -110 0
-173 108 0
-173 110 0
-174 -147 -175 0
-174 147 175 0
174 147 -175 0
174 -147 175 0
175 150 -152 0
175 -150 152 0
-175 -150 -152 0
-175 150 152 0
-176 119 126 0
-176 126 127 0
-176 119 127 0
176 -126 -127 0
176 -119 -126 0
176 -119 -127 0
-177 178 205 -225 -250 0
-177 -178 -205 -225 -250 0
-177 178 205 225 250 0
-177 -178 -205 225 250 0
177 178 -205 0
177 -178 205 0
177 225 -250 0
177 -225 250 0
178 -179 180 0
178 179 -180 0
-178 179 180 0
-178 -179 -180 0
179 -397 -399 0
-179 397 0
-179 399 0
-180 181 182 0
-180 -181 -182 0
180 -181 182 0
180 181 -182 0
181 -396 -400 0
-181 396 0
-181 400 0
-182 183 184 0
-182 -183 -184 0
182 -183 184 0
182 183 -184 0
183 -132 -133 0
-183 132 0
-183 133 0
-184 185 186 0
-184 -185 -186 0
184 -185 186 0
184 185 -186 0
185 -395 -401 0
-185 395 0
-185 401 0
-186 187 204 0
-186 -187 -204 0
186 -187 204 0
186 187 -204 0
-187 188 189 0
-187 -188 -189 0
187 -188 189 0
187 188 -189 0
188 -394 -402 0
-188 394 0
-188 402 0
-189 190 203 0
-189 -190 -203 0
189 -190 203 0
189 190 -203 0
-190 191 192 0
-190 -191 -192 0
190 -191 192 0
190 191 -192 0
191 -393 -403 0
-191 393 0
-191 403 0
-192 193 202 0
-192 -193 -202 0
192 -193 202 0
192 193 -202 0
-193 194 195 0
-193 -194 -195 0
193 -194 195 0
193 194 -195 0
194 -392 -404 0
-194 392 0
-194 404 0
-195 196 201 0
-195 -196 -201 0
195 -196 201 0
195 196 -201 0
-196 197 198 0
-196 -197 -198 0
196 -197 198 0
196 197 -198 0
197 -391 -405 0
-197 391 0
-197 405 0
-198 199 200 0
-198 -199 -200 0
198 -199 200 0
198 199 -200 0
-199 152 153 0
-199 150 152 0
-199 150 153 0
199 -150 -152 0
199 -152 -153 0
199 -150 -153 0
-200 147 149 0
-200 149 154 0
-200 147 154 0
200 -149 -154 0
200 -147 -149 0
200 -147 -154 0
-201 144 146 0
-201 146 155 0
-201 144 155 0
201 -146 -155 0
201 -144 -146 0
201 -144 -155 0
-202 141 143 0
-202 143 156 0
-202 141 156 0
202 -143 -156 0
202 -141 -143 0
202 -141 -156 0
-203 138 140 0
-203 140 157 0
-203 138 157 0
203 -140 -157 0
203 -138 -140 0
203 -138 -157 0
-204 136 137 0
-204 134 137 0
-204 136 134 0
204 -136 -134 0
204 -134 -137 0
204 -136 -137 0
205 206 -207 0
205 -206 207 0
-205 -206 -207 0
-205 206 207 0
-206 159 176 0
-206 159 161 0
-206 161 176 0
206 -161 -176 0
206 -159 -176 0
206 -159 -161 0
207 -208 224 0
207 208 -224 0
-207 208 224 0
-207 -208 -224 0
208 -209 216 0
208 209 -216 0
-208 209 216 0
-208 -209 -216 0
-209 -210 -213 0
-209 210 213 0
209 210 -213 0
209 -210 213 0
-210 -211 -212 0
-210 211 212 0
210 211 -212 0
210 -211 212 0
-211 147 152 0
-211 150 152 0
-211 147 150 0
211 -147 -150 0
211 -150 -152 0
211 -147 -152 0
212 179 -181 0
212 -179 181 0
-212 -179 -181 0
-212 179 181 0
213 -214 215 0
213 214 -215 0
-213 214 215 0
-213 -214 -215 0
-214 171 174 0
-214 173 171 0
-214 173 174 0
214 -173 -171 0
214 -171 -174 0
214 -173 -174 0
-215 132 138 0
-215 134 138 0
-215 132 134 0
215 -132 -134 0
215 -134 -138 0
215 -132 -138 0
-216 -217 -218 0
-216 217 218 0
216 217 -218 0
216 -217 218 0
-217 163 166 0
-217 166 167 0
-217 163 167 0
217 -163 -167 0
217 -166 -167 0
217 -163 -166 0
218 -219 220 0
218 219 -220 0
-218 219 220 0
-218 -219 -220 0
219 185 -188 0
219 -185 188 0
-219 -185 -188 0
-219 185 188 0
-220 221 222 0
-220 -221 -222 0
220 -221 222 0
220 221 -222 0
221 -141 -144 0
-221 141 0
-221 144 0
-222 -191 -223 0
-222 191 223 0
222 191 -223 0
222 -191 223 0
223 194 -197 0
223 -194 197 0
-223 -194 -197 0
-223 194 197 0
-224 162 169 0
-224 169 170 0
-224 162 170 0
224 -169 -170 0
224 -162 -169 0
224 -162 -170 0
225 226 -227 0
225 -226 227 0
-225 -226 -227 0
-225 226 227 0
226 -179 -180 0
-226 179 0
-226 180 0
227 228 -229 0
227 -228 229 0
-227 -228 -229 0
-227 228 229 0
228 -397 -400 0
-228 397 0
-228 400 0
229 -230 231 0
229 230 -231 0
-229 230 231 0
-229 -230 -231 0
230 -396 -401 0
-230 396 0
-230 401 0
-231 232 249 0
-231 -232 -249 0
231 -232 249 0
231 232 -249 0
-232 233 234 0
-232 -233 -234 0
232 -233 234 0
232 233 -234 0
233 -395 -402 0
-233 395 0
-233 402 0
-234 235 248 0
-234 -235 -248 0
234 -235 248 0
234 235 -248 0
-235 236 237 0
-235 -236 -237 0
235 -236 237 0
235 236 -237 0
236 -394 -403 0
-236 394 0
-236 403 0
-237 238 247 0
-237 -238 -247 0
237 -238 247 0
237 238 -247 0
-238 239 240 0
-238 -239 -240 0
238 -239 240 0
238 239 -240 0
239 -393 -404 0
-239 393 0
-239 404 0
-240 241 246 0
-240 -241 -246 0
240 -241 246 0
240 241 -246 0
-241 242 243 0
-241 -242 -243 0
241 -242 243 0
241 242 -243 0
242 -392 -405 0
-242 392 0
-242 405 0
-243 244 245 0
-243 -244 -245 0
243 -244 245 0
243 244 -245 0
-244 197 199 0
-244 199 200 0
-244 197 200 0
244 -199 -200 0
244 -197 -199 0
244 -197 -200 0
-245 194 196 0
-245 196 201 0
-245 194 201 0
245 -196 -201 0
245 -194 -196 0
245 -194 -201 0
-246 191 193 0
-246 193 202 0
-246 191 202 0
246 -193 -202 0
246 -191 -193 0
246 -191 -202 0
-247 188 190 0
-247 190 203 0
-247 188 203 0
247 -190 -203 0
247 -188 -190 0
247 -188 -203 0
-248 185 187 0
-248 187 204 0
-248 185 204 0
248 -187 -204 0
248 -185 -187 0
248 -185 -204 0
-249 181 184 0
-249 183 181 0
-249 183 184 0
249 -183 -181 0
249 -181 -184 0
249 -183 -184 0
250 251 -252 0
250 -251 252 0
-250 -251 -252 0
-250 251 252 0
-251 206 224 0
-251 206 208 0
-251 208 224 0
251 -208 -224 0
251 -206 -224 0
251 -206 -208 0
252 -253 268 0
252 253 -268 0
-252 253 268 0
-252 -253 -268 0
253 -254 260 0
253 254 -260 0
-253 254 260 0
-253 -254 -260 0
-254 -255 -257 0
-254 255 257 0
254 255 -257 0
254 -255 257 0
-255 -228 -256 0
-255 228 256 0
255 228 -256 0
255 -228 256 0
256 230 -233 0
256 -230 233 0
-256 -230 -233 0
-256 230 233 0
257 -258 259 0
257 258 -259 0
-257 258 259 0
-257 -258 -259 0
-258 219 222 0
-258 221 219 0
-258 221 222 0
258 -221 -219 0
258 -219 -222 0
258 -221 -222 0
-259 181 211 0
-259 179 181 0
-259 179 211 0
259 -179 -181 0
259 -181 -211 0
259 -179 -211 0
-260 -261 -262 0
-260 261 262 0
260 261 -262 0
260 -261 262 0
-261 210 214 0
-261 214 215 0
-261 210 215 0
261 -210 -215 0
261 -214 -215 0
261 -210 -214 0
262 263 -265 0
262 -263 265 0
-262 -263 -265 0
-262 263 265 0
-263 -236 -264 0
-263 236 264 0
263 236 -264 0
263 -236 264 0
264 239 -242 0
264 -239 242 0
-264 -239 -242 0
-264 239 242 0
265 -266 267 0
265 266 -267 0
-265 266 267 0
-265 -266 -267 0
266 -185 -188 0
-266 185 0
-266 188 0
-267 191 197 0
-267 194 197 0
-267 191 194 0
267 -191 -194 0
267 -194 -197 0
267 -191 -197 0
-268 209 217 0
-268 217 218 0
-268 209 218 0
268 -217 -218 0
268 -209 -217 0
268 -209 -218 0
-269 270 291 -307 -324 0
-269 -270 -291 -307 -324 0
-269 270 291 307 324 0
-269 -270 -291 307 324 0
269 270 -291 0
269 -270 291 0
269 307 -324 0
269 -307 324 0
270 271 -272 0
270 -271 272 0
-270 -271 -272 0
-270 271 272 0
-271 400 229 0
-271 397 226 0
-271 226 229 0
-271 400 226 0
-271 397 229 0
271 -226 -229 0
271 -397 -400 -229 0
271 -397 -400 -226 0
272 273 -274 0
272 -273 274 0
-272 -273 -274 0
-272 273 274 0
273 -397 -401 0
-273 397 0
-273 401 0
274 -275 276 0
274 275 -276 0
-274 275 276 0
-274 -275 -276 0
275 -396 -402 0
-275 396 0
-275 402 0
-276 277 290 0
-276 -277 -290 0
276 -277 290 0
276 277 -290 0
-277 278 279 0
-277 -278 -279 0
277 -278 279 0
277 278 -279 0
278 -395 -403 0
-278 395 0
-278 403 0
-279 280 289 0
-279 -280 -289 0
279 -280 289 0
279 280 -289 0
-280 281 282 0
-280 -281 -282 0
280 -281 282 0
280 281 -282 0
281 -394 -404 0
-281 394 0
-281 404 0
-282 283 288 0
-282 -283 -288 0
282 -283 288 0
282 283 -288 0
-283 284 285 0
-283 -284 -285 0
283 -284 285 0
283 284 -285 0
284 -393 -405 0
-284 393 0
-284 405 0
-285 286 287 0
-285 -286 -287 0
285 -286 287 0
285 286 -287 0
-286 242 244 0
-286 244 245 0
-286 242 245 0
286 -244 -245 0
286 -242 -244 0
286 -242 -245 0
-287 239 241 0
-287 241 246 0
-287 239 246 0
287 -241 -246 0
287 -239 -241 0
287 -239 -246 0
-288 236 238 0
-288 238 247 0
-288 236 247 0
288 -238 -247 0
288 -236 -238 0
288 -236 -247 0
-289 233 235 0
-289 235 248 0
-289 233 248 0
289 -235 -248 0
289 -233 -235 0
289 -233 -248 0
-290 230 232 0
-290 232 249 0
-290 230 249 0
290 -232 -249 0
290 -230 -232 0
290 -230 -249 0
291 292 -293 0
291 -292 293 0
-291 -292 -293 0
-291 292 293 0
-292 251 268 0
-292 251 253 0
-292 253 268 0
292 -253 -268 0
292 -251 -268 0
292 -251 -253 0
293 -294 306 0
293 294 -306 0
-293 294 306 0
-293 -294 -306 0
294 -295 301 0
294 295 -301 0
-294 295 301 0
-294 -295 -301 0
-295 -296 -298 0
-295 296 298 0
295 296 -298 0
295 -296 298 0
-296 -278 -297 0
-296 278 297 0
296 278 -297 0
296 -278 297 0
297 281 -284 0
297 -281 284 0
-297 -281 -284 0
-297 281 284 0
298 -299 300 0
298 299 -300 0
-298 299 300 0
-298 -299 -300 0
-299 266 263 0
-299 263 267 0
-299 266 267 0
299 -263 -267 0
299 -266 -263 0
299 -266 -267 0
-300 401 233 0
-300 396 228 0
-300 228 233 0
-300 401 228 0
-300 396 233 0
300 -228 -233 0
300 -396 -401 -233 0
300 -396 -401 -228 0
-301 -302 -303 0
-301 302 303 0
301 302 -303 0
301 -302 303 0
-302 255 258 0
-302 258 259 0
-302 255 259 0
302 -255 -259 0
302 -258 -259 0
302 -255 -258 0
303 304 -305 0
303 -304 305 0
-303 -304 -305 0
-303 304 305 0
-304 404 242 0
-304 393 236 0
-304 236 242 0
-304 404 236 0
-304 393 242 0
304 -236 -242 0
304 -393 -404 -242 0
304 -393 -404 -236 0
305 273 -275 0
305 -273 275 0
-305 -273 -275 0
-305 273 275 0
-306 254 261 0
-306 261 262 0
-306 254 262 0
306 -261 -262 0
306 -254 -261 0
306 -254 -262 0
307 308 -309 0
307 -308 309 0
-307 -308 -309 0
-307 308 309 0
-308 273 274 0
-308 271 273 0
-308 271 274 0
308 -271 -273 0
308 -273 -274 0
308 -271 -274 0
309 310 -311 0
309 -310 311 0
-309 -310 -311 0
-309 310 311 0
310 -397 -402 0
-310 397 0
-310 402 0
311 -312 313 0
311 312 -313 0
-311 312 313 0
-311 -312 -313 0
312 -396 -403 0
-312 396 0
-312 403 0
-313 314 323 0
-313 -314 -323 0
313 -314 323 0
313 314 -323 0
-314 315 316 0
-314 -315 -316 0
314 -315 316 0
314 315 -316 0
315 -395 -404 0
-315 395 0
-315 404 0
-316 317 322 0
-316 -317 -322 0
316 -317 322 0
316 317 -322 0
-317 318 319 0
-317 -318 -319 0
317 -318 319 0
317 318 -319 0
318 -394 -405 0
-318 394 0
-318 405 0
-319 320 321 0
-319 -320 -321 0
319 -320 321 0
319 320 -321 0
-320 284 286 0
-320 286 287 0
-320 284 287 0
320 -286 -287 0
320 -284 -286 0
320 -284 -287 0
-321 281 283 0
-321 283 288 0
-321 281 288 0
321 -283 -288 0
321 -281 -283 0
321 -281 -288 0
-322 278 280 0
-322 280 289 0
-322 278 289 0
322 -280 -289 0
322 -278 -280 0
322 -278 -289 0
-323 275 277 0
-323 277 290 0
-323 275 290 0
323 -277 -290 0
323 -275 -277 0
323 -275 -290 0
324 -325 326 0
324 325 -326 0
-324 325 326 0
-324 -325 -326 0
-325 292 306 0
-325 292 294 0
-325 294 306 0
325 -294 -306 0
325 -292 -306 0
325 -292 -294 0
-326 327 336 0
-326 -327 -336 0
326 -327 336 0
326 327 -336 0
327 -328 332 0
327 328 -332 0
-327 328 332 0
-327 -328 -332 0
-328 -329 -330 0
-328 329 330 0
328 329 -330 0
328 -329 330 0
-329 275 304 0
-329 273 275 0
-329 273 304 0
329 -273 -275 0
329 -275 -304 0
329 -273 -304 0
330 -310 331 0
330 310 -331 0
-330 310 331 0
-330 -310 -331 0
-331 278 284 0
-331 281 284 0
-331 278 281 0
331 -278 -281 0
331 -281 -284 0
331 -278 -284 0
-332 -333 -334 0
-332 333 334 0
332 333 -334 0
332 -333 334 0
-333 296 299 0
-333 299 300 0
-333 296 300 0
333 -296 -300 0
333 -299 -300 0
333 -296 -299 0
334 312 -335 0
334 -312 335 0
-334 -312 -335 0
-334 312 335 0
335 315 -318 0
335 -315 318 0
-335 -315 -318 0
-335 315 318 0
-336 295 302 0
-336 302 303 0
-336 295 303 0
336 -302 -303 0
336 -295 -302 0
336 -295 -303 0
-337 338 378 388 389 0
-337 338 378 -388 -389 0
337 -378 0
337 -388 389 0
337 -338 0
337 388 -389 0
-338 339 352 -362 -371 0
-338 -339 -352 -362 -371 0
-338 339 352 362 371 0
-338 -339 -352 362 371 0
338 339 -352 0
338 -339 352 0
338 362 -371 0
338 -362 371 0
339 340 -341 0
339 -340 341 0
-339 -340 -341 0
-339 340 341 0
-340 310 311 0
-340 308 310 0
-340 308 311 0
340 -308 -310 0
340 -310 -311 0
340 -308 -311 0
341 342 -343 0
341 -342 343 0
-341 -342 -343 0
-341 342 343 0
342 -397 -403 0
-342 397 0
-342 403 0
343 -344 345 0
343 344 -345 0
-343 344 345 0
-343 -344 -345 0
344 -396 -404 0
-344 396 0
-344 404 0
-345 346 351 0
-345 -346 -351 0
345 -346 351 0
345 346 -351 0
-346 347 348 0
-346 -347 -348 0
346 -347 348 0
346 347 -348 0
347 -395 -405 0
-347 395 0
-347 405 0
-348 349 350 0
-348 -349 -350 0
348 -349 350 0
348 349 -350 0
-349 318 320 0
-349 320 321 0
-349 318 321 0
349 -320 -321 0
349 -318 -320 0
349 -318 -321 0
-350 315 317 0
-350 317 322 0
-350 315 322 0
350 -317 -322 0
350 -315 -317 0
350 -315 -322 0
-351 312 314 0
-351 314 323 0
-351 312 323 0
351 -314 -323 0
351 -312 -314 0
351 -312 -323 0
352 -353 354 0
352 353 -354 0
-352 353 354 0
-352 -353 -354 0
-353 325 336 0
-353 325 327 0
-353 327 336 0
353 -327 -336 0
353 -325 -336 0
353 -325 -327 0
-354 355 361 0
-354 -355 -361 0
354 -355 361 0
354 355 -361 0
355 -356 358 0
355 356 -358 0
-355 356 358 0
-355 -356 -358 0
-356 -342 -357 0
-356 342 357 0
356 342 -357 0
356 -342 357 0
357 344 -347 0
357 -344 347 0
-357 -344 -347 0
-357 344 347 0
-358 359 360 0
-358 -359 -360 0
358 -359 360 0
358 359 -360 0
-359 310 329 0
-359 329 331 0
-359 310 331 0
359 -329 -331 0
359 -310 -329 0
359 -310 -331 0
-360 312 318 0
-360 315 318 0
-360 312 315 0
360 -312 -315 0
360 -315 -318 0
360 -312 -318 0
-361 328 333 0
-361 333 334 0
-361 328 334 0
361 -333 -334 0
361 -328 -333 0
361 -328 -334 0
362 363 -364 0
362 -363 364 0
-362 -363 -364 0
-362 363 364 0
-363 342 343 0
-363 340 342 0
-363 340 343 0
363 -340 -342 0
363 -342 -343 0
363 -340 -343 0
364 365 -366 0
364 -365 366 0
-364 -365 -366 0
-364 365 366 0
365 -397 -404 0
-365 397 0
-365 404 0
366 -367 368 0
366 367 -368 0
-366 367 368 0
-366 -367 -368 0
367 -396 -405 0
-367 396 0
-367 405 0
-368 369 370 0
-368 -369 -370 0
368 -369 370 0
368 369 -370 0
-369 347 349 0
-369 349 350 0
-369 347 350 0
369 -349 -350 0
369 -347 -349 0
369 -347 -350 0
-370 344 346 0
-370 346 351 0
-370 344 351 0
370 -346 -351 0
370 -344 -346 0
370 -344 -351 0
371 -372 373 0
371 372 -373 0
-371 372 373 0
-371 -372 -373 0
-372 353 361 0
-372 353 355 0
-372 355 361 0
372 -355 -361 0
372 -353 -361 0
372 -353 -355 0
-373 374 377 0
-373 -374 -377 0
373 -374 377 0
373 374 -377 0
374 375 -376 0
374 -375 376 0
-374 -375 -376 0
-374 375 376 0
-375 342 347 0
-375 344 347 0
-375 342 344 0
375 -342 -344 0
375 -344 -347 0
375 -342 -347 0
376 365 -367 0
376 -365 367 0
-376 -365 -367 0
-376 365 367 0
-377 356 359 0
-377 359 360 0
-377 356 360 0
377 -356 -360 0
377 -359 -360 0
377 -356 -359 0
-378 -379 -384 0
-378 379 384 0
378 379 -384 0
378 -379 384 0
379 380 -381 0
379 -380 381 0
-379 -380 -381 0
-379 380 381 0
-380 365 366 0
-380 363 365 0
-380 363 366 0
380 -363 -365 0
380 -365 -366 0
380 -363 -366 0
381 -382 383 0
381 382 -383 0
-381 382 383 0
-381 -382 -383 0
382 -397 -405 0
-382 397 0
-382 405 0
-383 367 369 0
-383 369 370 0
-383 367 370 0
383 -369 -370 0
383 -367 -369 0
383 -367 -370 0
384 -385 386 0
384 385 -386 0
-384 385 386 0
-384 -385 -386 0
-385 372 377 0
-385 372 374 0
-385 374 377 0
385 -374 -377 0
385 -372 -377 0
385 -372 -374 0
-386 382 387 0
-386 -382 -387 0
386 -382 387 0
386 382 -387 0
-387 367 375 0
-387 365 367 0
-387 365 375 0
387 -365 -367 0
387 -367 -375 0
387 -365 -375 0
-388 380 383 0
-388 380 382 0
-388 382 383 0
388 -382 -383 0
388 -380 -383 0
388 -380 -382 0
-389 382 385 0
-389 385 387 0
-389 382 387 0
389 -385 -387 0
389 -382 -385 0
389 -382 -387 0
-406 0
2 0

