c Result of efficient AIG-to-CNF conversion using package CNF
p cnf 64 190
-2 3 12 23 30 0
2 -30 0
2 -3 0
2 -23 0
2 -12 0
-3 4 7 0
-3 -4 -7 0
3 -4 7 0
3 4 -7 0
-4 57 5 0
-4 48 57 0
-4 48 5 0
4 -48 -57 0
4 -57 -5 0
4 -48 -5 0
-5 47 6 0
-5 56 6 0
-5 47 56 0
5 -47 -56 0
5 -56 -6 0
5 -47 -6 0
6 -46 -55 0
-6 46 0
-6 55 0
-7 8 9 0
7 -8 0
7 -9 0
8 -48 -57 0
-8 48 0
-8 57 0
9 -10 -11 0
-9 10 0
-9 11 0
10 48 -57 0
10 -48 57 0
-10 -48 -57 0
-10 48 57 0
-11 47 6 0
-11 56 6 0
-11 47 56 0
11 -47 -56 0
11 -56 -6 0
11 -47 -6 0
-12 -13 -14 18 19 0
-12 13 14 18 19 0
-12 -13 -14 -18 -19 0
-12 13 14 -18 -19 0
12 -13 14 0
12 13 -14 0
12 -18 19 0
12 18 -19 0
-13 58 4 0
-13 49 58 0
-13 49 4 0
13 -49 -58 0
13 -58 -4 0
13 -49 -4 0
-14 10 16 0
-14 11 16 0
-14 15 16 0
14 -16 0
14 -10 -11 -15 0
15 49 -58 0
15 -49 58 0
-15 -49 -58 0
-15 49 58 0
-16 17 15 0
-16 8 17 0
16 -17 0
16 -8 -15 0
17 -49 -58 0
-17 49 0
-17 58 0
-18 59 13 0
-18 50 59 0
-18 50 13 0
18 -50 -59 0
18 -59 -13 0
18 -50 -13 0
-19 20 21 0
19 -20 0
19 -21 0
20 -50 -59 0
-20 50 0
-20 59 0
21 -22 -14 0
-21 22 0
-21 14 0
22 50 -59 0
22 -50 59 0
-22 -50 -59 0
-22 50 59 0
-23 24 25 0
-23 -24 -25 0
23 -24 25 0
23 24 -25 0
-24 60 18 0
-24 51 60 0
-24 51 18 0
24 -51 -60 0
24 -60 -18 0
24 -51 -18 0
-25 14 26 0
-25 26 29 0
25 -26 0
25 -14 -29 0
-26 27 28 0
-26 20 27 0
26 -27 0
26 -20 -28 0
27 -51 -60 0
-27 51 0
-27 60 0
28 51 -60 0
28 -51 60 0
-28 -51 -60 0
-28 51 60 0
29 -22 -28 0
-29 22 0
-29 28 0
-30 -31 -32 -36 -39 0
-30 31 32 -36 -39 0
-30 -31 -32 36 39 0
-30 31 32 36 39 0
30 -31 32 0
30 31 -32 0
30 36 -39 0
30 -36 39 0
-31 61 24 0
-31 52 61 0
-31 52 24 0
31 -52 -61 0
31 -61 -24 0
31 -52 -24 0
-32 33 34 0
32 -33 0
32 -34 0
33 -52 -61 0
-33 52 0
-33 61 0
34 -35 -25 0
-34 35 0
-34 25 0
35 52 -61 0
35 -52 61 0
-35 -52 -61 0
-35 52 61 0
36 -37 38 0
36 37 -38 0
-36 37 38 0
-36 -37 -38 0
37 54 -63 0
37 -54 63 0
-37 -54 -63 0
-37 54 63 0
-38 62 31 0
-38 53 62 0
-38 53 31 0
38 -53 -62 0
38 -62 -31 0
38 -53 -31 0
39 -37 40 0
39 37 -40 0
-39 37 40 0
-39 -37 -40 0
-40 29 43 0
-40 41 43 0
-40 14 43 0
40 -43 0
40 -14 -29 -41 0
41 -35 -42 0
-41 35 0
-41 42 0
42 53 -62 0
42 -53 62 0
-42 -53 -62 0
-42 53 62 0
-43 33 44 45 0
-43 44 42 45 0
43 -45 0
43 -44 0
43 -33 -42 0
44 -53 -62 0
-44 53 0
-44 62 0
45 -26 -41 0
-45 26 0
-45 41 0
-64 0
2 0

