c Result of efficient AIG-to-CNF conversion using package CNF
p cnf 235 876
-2 3 85 159 191 0
2 -191 0
2 -3 0
2 -159 0
2 -85 0
-3 4 -16 -23 29 0
-3 4 16 23 29 0
3 -29 0
3 16 -23 0
3 -4 0
3 -16 23 0
-4 -5 -6 9 14 0
-4 5 6 -9 -14 0
-4 -5 -6 -9 -14 0
-4 5 6 9 14 0
4 -5 6 0
4 5 -6 0
4 -9 14 0
4 9 -14 0
5 -225 -230 0
-5 225 0
-5 230 0
-6 7 0
6 -7 0
-7 8 0
7 -8 0
-8 5 0
8 -5 0
-9 10 0
9 -10 0
-10 11 0
10 -11 0
-11 12 0
11 -12 0
-12 225 13 0
-12 231 13 0
-12 -225 -231 -13 0
12 225 -13 0
12 -225 -231 13 0
12 231 -13 0
13 -226 -230 0
-13 226 0
-13 230 0
14 13 -15 0
14 -13 15 0
-14 -13 -15 0
-14 13 15 0
15 -225 -231 0
-15 225 0
-15 231 0
-16 17 0
16 -17 0
-17 18 0
17 -18 0
-18 225 19 0
-18 -225 -232 -19 0
-18 232 19 0
18 225 -19 0
18 232 -19 0
18 -225 -232 19 0
-19 231 21 0
-19 -231 -20 -22 0
-19 -231 20 22 0
19 231 -21 0
19 -231 -20 22 0
19 -231 20 -22 0
20 -225 -13 0
-20 225 0
-20 13 0
21 -227 -230 0
-21 227 0
-21 230 0
22 226 -21 0
22 -226 21 0
-22 -226 -21 0
-22 226 21 0
23 24 -25 0
23 -24 25 0
-23 -24 -25 0
-23 24 25 0
24 -225 -231 -13 0
-24 225 0
-24 231 0
-24 13 0
25 21 -26 0
25 -21 26 0
-25 -21 -26 0
-25 21 26 0
26 27 -28 0
26 -27 28 0
-26 -27 -28 0
-26 27 28 0
27 -225 -232 0
-27 225 0
-27 232 0
28 -226 -231 0
-28 226 0
-28 231 0
-29 30 39 51 65 0
-29 -30 -39 -51 -65 0
-29 30 39 -51 -65 0
-29 -30 -39 51 65 0
29 30 -39 0
29 -30 39 0
29 -51 65 0
29 51 -65 0
-30 31 0
30 -31 0
-31 225 32 0
-31 -225 -233 -32 0
-31 233 32 0
31 225 -32 0
31 233 -32 0
31 -225 -233 32 0
-32 232 34 0
-32 -232 -33 -38 0
-32 -232 33 38 0
32 232 -34 0
32 -232 -33 38 0
32 -232 33 -38 0
33 -225 -19 0
-33 225 0
-33 19 0
-34 231 35 0
-34 -231 36 37 0
-34 -231 -36 -37 0
34 231 -35 0
34 -231 36 -37 0
34 -231 -36 37 0
35 -228 -230 0
-35 228 0
-35 230 0
36 227 -35 0
36 -227 35 0
-36 -227 -35 0
-36 227 35 0
-37 230 0
-37 226 0
-37 225 227 0
37 -225 -226 -230 0
37 -226 -227 -230 0
38 -226 34 0
38 226 -34 0
-38 226 34 0
-38 -226 -34 0
39 40 -41 0
39 -40 41 0
-39 -40 -41 0
-39 40 41 0
40 -24 -25 0
-40 24 0
-40 25 0
41 42 -43 0
41 -42 43 0
-41 -42 -43 0
-41 42 43 0
42 -21 -26 0
-42 21 0
-42 26 0
43 35 -44 0
43 -35 44 0
-43 -35 -44 0
-43 35 44 0
44 45 -46 0
44 -45 46 0
-44 -45 -46 0
-44 45 46 0
45 -225 -226 -231 -232 0
-45 232 0
-45 225 0
-45 231 0
-45 226 0
46 47 -50 0
46 -47 50 0
-46 -47 -50 0
-46 47 50 0
47 48 -49 0
47 -48 49 0
-47 -48 -49 0
-47 48 49 0
48 -225 -233 0
-48 225 0
-48 233 0
49 -226 -232 0
-49 226 0
-49 232 0
50 -227 -231 0
-50 227 0
-50 231 0
-51 225 52 0
-51 -225 -234 -52 0
-51 234 52 0
51 225 -52 0
51 234 -52 0
51 -225 -234 52 0
-52 233 54 0
-52 -233 -53 -64 0
-52 -233 53 64 0
52 233 -54 0
52 -233 -53 64 0
52 -233 53 -64 0
53 -225 -32 0
-53 225 0
-53 32 0
-54 232 55 0
-54 -232 60 61 0
-54 -232 -60 -61 0
54 232 -55 0
54 -232 60 -61 0
54 -232 -60 61 0
-55 231 56 0
-55 -231 57 58 0
-55 -231 -57 -58 0
55 231 -56 0
55 -231 57 -58 0
55 -231 -57 58 0
56 -229 -230 0
-56 229 0
-56 230 0
57 228 -56 0
57 -228 56 0
-57 -228 -56 0
-57 228 56 0
-58 22 59 0
-58 20 59 0
-58 36 59 0
58 -59 0
58 -20 -22 -36 0
-59 230 0
-59 227 0
-59 226 228 0
59 -226 -227 -230 0
59 -227 -228 -230 0
60 -227 55 0
60 227 -55 0
-60 227 55 0
-60 -227 -55 0
-61 62 63 0
61 -62 0
61 -63 0
62 -226 -34 0
-62 226 0
-62 34 0
63 -33 -38 0
-63 33 0
-63 38 0
64 -226 54 0
64 226 -54 0
-64 226 54 0
-64 -226 -54 0
65 -66 82 0
65 66 -82 0
-65 66 82 0
-65 -66 -82 0
66 -67 79 0
66 67 -79 0
-66 67 79 0
-66 -67 -79 0
67 56 -68 0
67 -56 68 0
-67 -56 -68 0
-67 56 68 0
68 69 -70 0
68 -69 70 0
-68 -69 -70 0
-68 69 70 0
69 -227 -231 -47 0
-69 227 0
-69 231 0
-69 47 0
70 71 -78 0
70 -71 78 0
-70 -71 -78 0
-70 71 78 0
71 72 -73 0
71 -72 73 0
-71 -72 -73 0
-71 72 73 0
72 -225 -226 -232 -233 0
-72 233 0
-72 225 0
-72 232 0
-72 226 0
73 74 -77 0
73 -74 77 0
-73 -74 -77 0
-73 74 77 0
74 75 -76 0
74 -75 76 0
-74 -75 -76 0
-74 75 76 0
75 -225 -234 0
-75 225 0
-75 234 0
76 -226 -233 0
-76 226 0
-76 233 0
77 -227 -232 0
-77 227 0
-77 232 0
78 -228 -231 0
-78 228 0
-78 231 0
-79 80 81 0
79 -80 0
79 -81 0
80 -45 -46 0
-80 45 0
-80 46 0
81 -35 -44 0
-81 35 0
-81 44 0
-82 83 84 0
82 -83 0
82 -84 0
83 -42 -43 0
-83 42 0
-83 43 0
84 -40 -41 0
-84 40 0
-84 41 0
-85 86 102 125 139 0
-85 -86 -102 -125 -139 0
-85 86 102 -125 -139 0
-85 -86 -102 125 139 0
85 86 -102 0
85 -86 102 0
85 -125 139 0
85 125 -139 0
-86 234 88 0
-86 226 87 88 0
-86 -226 -87 88 0
-86 226 -234 -87 -88 0
-86 -226 -234 87 -88 0
86 234 -88 0
86 -226 -87 -88 0
86 226 87 -88 0
86 226 -234 -87 88 0
86 -226 -234 87 88 0
87 -225 -52 0
-87 225 0
-87 52 0
-88 233 89 0
-88 -233 98 99 0
-88 -233 -98 -99 0
88 233 -89 0
88 -233 98 -99 0
88 -233 -98 99 0
-89 232 90 0
-89 -232 94 95 0
-89 -232 -94 -95 0
89 232 -90 0
89 -232 94 -95 0
89 -232 -94 95 0
90 229 -231 -91 0
90 -229 -231 91 0
-90 231 0
-90 -229 -91 0
-90 229 91 0
-91 92 93 0
91 -92 0
91 -93 0
92 -228 -56 0
-92 228 0
-92 56 0
93 -57 -58 0
-93 57 0
-93 58 0
94 228 -90 0
94 -228 90 0
-94 -228 -90 0
-94 228 90 0
-95 96 97 0
95 -96 0
95 -97 0
96 -227 -55 0
-96 227 0
-96 55 0
97 -60 -61 0
-97 60 0
-97 61 0
98 -227 89 0
98 227 -89 0
-98 227 89 0
-98 -227 -89 0
-99 100 101 0
99 -100 0
99 -101 0
100 -226 -54 0
-100 226 0
-100 54 0
101 -53 -64 0
-101 53 0
-101 64 0
102 -103 122 0
102 103 -122 0
-102 103 122 0
-102 -103 -122 0
103 -104 119 0
103 104 -119 0
-103 104 119 0
-103 -104 -119 0
104 -105 116 0
104 105 -116 0
-104 105 116 0
-104 -105 -116 0
105 106 -115 0
105 -106 115 0
-105 -106 -115 0
-105 106 115 0
106 -107 112 0
106 107 -112 0
-106 107 112 0
-106 -107 -112 0
107 108 -111 0
107 -108 111 0
-107 -108 -111 0
-107 108 111 0
108 109 -110 0
108 -109 110 0
-108 -109 -110 0
-108 109 110 0
109 -226 -234 0
-109 226 0
-109 234 0
110 -227 -233 0
-110 227 0
-110 233 0
111 -228 -232 0
-111 228 0
-111 232 0
-112 113 114 0
112 -113 0
112 -114 0
113 -225 -226 -233 -234 0
-113 234 0
-113 225 0
-113 233 0
-113 226 0
114 -227 -232 -74 0
-114 227 0
-114 232 0
-114 74 0
115 -229 -231 0
-115 229 0
-115 231 0
-116 117 118 0
116 -117 0
116 -118 0
117 -72 -73 0
-117 72 0
-117 73 0
118 -228 -231 -71 0
-118 228 0
-118 231 0
-118 71 0
-119 120 121 0
119 -120 0
119 -121 0
120 -69 -70 0
-120 69 0
-120 70 0
121 -56 -68 0
-121 56 0
-121 68 0
-122 123 124 0
122 -123 0
122 -124 0
123 -67 -79 0
-123 67 0
-123 79 0
124 -66 -82 0
-124 66 0
-124 82 0
-125 234 126 0
-125 -227 126 -135 0
-125 227 126 135 0
-125 -227 -234 -126 135 0
-125 227 -234 -126 -135 0
125 234 -126 0
125 227 -234 126 -135 0
125 227 -126 135 0
125 -227 -126 -135 0
125 -227 -234 126 135 0
-126 233 127 0
-126 -228 127 -132 0
-126 228 127 132 0
-126 -228 -233 -127 132 0
-126 228 -233 -127 -132 0
126 233 -127 0
126 228 -233 127 -132 0
126 228 -127 132 0
126 -228 -127 -132 0
126 -228 -233 127 132 0
-127 232 128 0
-127 229 -232 -128 -130 0
-127 229 128 130 0
-127 -229 128 -130 0
-127 -229 -232 -128 130 0
127 232 -128 0
127 -229 -128 -130 0
127 229 -128 130 0
127 -229 -232 128 130 0
127 229 -232 128 -130 0
128 -231 -129 0
-128 231 0
-128 129 0
-129 228 58 0
-129 230 58 0
-129 229 0
-129 228 230 0
129 -228 -229 -58 0
129 -229 -230 -58 0
129 -228 -229 -230 0
-130 228 96 131 0
-130 228 90 131 0
-130 96 90 131 0
130 -228 -96 0
130 -96 -90 0
130 -131 0
130 -228 -90 0
131 -60 -61 -94 0
-131 60 0
-131 61 0
-131 94 0
-132 53 133 0
-132 133 134 0
132 -133 0
132 -53 -134 0
-133 100 89 0
-133 227 100 0
-133 227 89 0
133 -227 -100 0
133 -100 -89 0
133 -227 -89 0
134 -64 -98 0
-134 64 0
-134 98 0
-135 136 137 0
135 -136 0
135 -137 0
136 -226 -88 0
-136 226 0
-136 88 0
137 -87 -138 0
-137 87 0
-137 138 0
138 -226 88 0
138 226 -88 0
-138 226 88 0
-138 -226 -88 0
139 -140 155 0
139 140 -155 0
-139 140 155 0
-139 -140 -155 0
140 141 -142 0
140 -141 142 0
-140 -141 -142 0
-140 141 142 0
141 -105 -116 0
-141 105 0
-141 116 0
142 -143 152 0
142 143 -152 0
-142 143 152 0
-142 -143 -152 0
143 -144 149 0
143 144 -149 0
-143 144 149 0
-143 -144 -149 0
144 145 -148 0
144 -145 148 0
-144 -145 -148 0
-144 145 148 0
145 146 -147 0
145 -146 147 0
-145 -146 -147 0
-145 146 147 0
146 -227 -234 0
-146 227 0
-146 234 0
147 -228 -233 0
-147 228 0
-147 233 0
148 -229 -232 0
-148 229 0
-148 232 0
-149 150 151 0
149 -150 0
149 -151 0
150 -226 -227 -233 -234 0
-150 234 0
-150 226 0
-150 233 0
-150 227 0
151 -228 -232 -108 0
-151 228 0
-151 232 0
-151 108 0
-152 153 154 0
152 -153 0
152 -154 0
153 -107 -112 0
-153 107 0
-153 112 0
154 -229 -231 -106 0
-154 229 0
-154 231 0
-154 106 0
-155 82 156 0
-155 156 158 0
155 -156 0
155 -82 -158 0
-156 157 103 0
-156 123 157 0
156 -157 0
156 -123 -103 0
157 -104 -119 0
-157 104 0
-157 119 0
158 -66 -103 0
-158 66 0
-158 103 0
-159 -160 -176 0
-159 160 176 0
159 160 -176 0
159 -160 176 0
-160 234 161 0
-160 -234 171 172 0
-160 -234 -171 -172 0
160 234 -161 0
160 -234 171 -172 0
160 -234 -171 172 0
-161 233 162 0
-161 -233 166 167 0
-161 -233 -166 -167 0
161 233 -162 0
161 -233 166 -167 0
161 -233 -166 167 0
162 -232 -163 0
162 -232 -164 0
-162 232 0
-162 163 164 0
163 -229 -128 0
-163 229 0
-163 128 0
164 -165 -130 0
-164 165 0
-164 130 0
165 229 -128 0
165 -229 128 0
-165 -229 -128 0
-165 229 128 0
166 229 -162 0
166 -229 162 0
-166 -229 -162 0
-166 229 162 0
-167 168 169 0
167 -168 0
167 -169 0
168 -228 -127 0
-168 228 0
-168 127 0
169 -170 -132 0
-169 170 0
-169 132 0
170 -228 127 0
170 228 -127 0
-170 228 127 0
-170 -228 -127 0
171 -228 161 0
171 228 -161 0
-171 228 161 0
-171 -228 -161 0
-172 173 174 0
172 -173 0
172 -174 0
173 -227 -126 0
-173 227 0
-173 126 0
174 -175 -135 0
-174 175 0
-174 135 0
175 -227 126 0
175 227 -126 0
-175 227 126 0
-175 -227 -126 0
176 -177 188 0
176 177 -188 0
-176 177 188 0
-176 -177 -188 0
177 178 -179 0
177 -178 179 0
-177 -178 -179 0
-177 178 179 0
178 -143 -152 0
-178 143 0
-178 152 0
179 180 -181 0
179 -180 181 0
-179 -180 -181 0
-179 180 181 0
180 -144 -149 0
-180 144 0
-180 149 0
181 -182 185 0
181 182 -185 0
-181 182 185 0
-181 -182 -185 0
182 183 -184 0
182 -183 184 0
-182 -183 -184 0
-182 183 184 0
183 -228 -234 0
-183 228 0
-183 234 0
184 -229 -233 0
-184 229 0
-184 233 0
-185 186 187 0
185 -186 0
185 -187 0
186 -227 -228 -233 -234 0
-186 234 0
-186 227 0
-186 233 0
-186 228 0
187 -229 -232 -145 0
-187 229 0
-187 232 0
-187 145 0
-188 189 190 0
188 -189 0
188 -190 0
189 -141 -142 0
-189 141 0
-189 142 0
190 -140 -155 0
-190 140 0
-190 155 0
-191 -192 -202 -213 -217 0
-191 192 202 -213 -217 0
-191 -192 -202 213 217 0
-191 192 202 213 217 0
191 213 -217 0
191 -213 217 0
191 192 -202 0
191 -192 202 0
-192 234 193 0
-192 229 -234 -193 -199 0
-192 229 193 199 0
-192 -229 193 -199 0
-192 -229 -234 -193 199 0
192 234 -193 0
192 -229 -193 -199 0
192 229 -193 199 0
192 -229 -234 193 199 0
192 229 -234 193 -199 0
193 -233 -194 0
193 -233 -53 -198 0
-193 233 0
-193 53 194 0
-193 194 198 0
-194 133 195 196 0
-194 195 196 197 0
194 -196 0
194 -195 0
194 -133 -197 0
195 -229 -162 0
-195 229 0
-195 162 0
196 -168 -166 0
-196 168 0
-196 166 0
197 -170 -166 0
-197 170 0
-197 166 0
198 -134 -197 0
-198 134 0
-198 197 0
-199 175 200 0
-199 135 200 0
-199 171 200 0
199 -200 0
199 -175 -135 -171 0
-200 201 171 0
-200 173 201 0
200 -201 0
200 -173 -171 0
201 -228 -161 0
-201 228 0
-201 161 0
202 -203 208 0
202 203 -208 0
-202 203 208 0
-202 -203 -208 0
203 204 -205 0
203 -204 205 0
-203 -204 -205 0
-203 204 205 0
204 -180 -181 0
-204 180 0
-204 181 0
205 206 -207 0
205 -206 207 0
-205 -206 -207 0
-205 206 207 0
206 -182 -185 0
-206 182 0
-206 185 0
207 228 -229 -234 0
207 -229 233 -234 0
-207 234 0
-207 229 0
-207 -228 -233 0
-208 158 210 0
-208 209 210 0
-208 82 210 0
208 -210 0
208 -82 -158 -209 0
209 -140 -177 0
-209 140 0
-209 177 0
-210 189 211 212 0
-210 211 177 212 0
210 -212 0
210 -211 0
210 -189 -177 0
211 -178 -179 0
-211 178 0
-211 179 0
212 -156 -209 0
-212 156 0
-212 209 0
213 -234 -214 0
213 -234 -215 0
-213 234 0
-213 214 215 0
214 -229 -193 0
-214 229 0
-214 193 0
215 -216 -199 0
-215 216 0
-215 199 0
216 229 -193 0
216 -229 193 0
-216 -229 -193 0
-216 229 193 0
217 -218 222 0
217 218 -222 0
-217 218 222 0
-217 -218 -222 0
218 -219 0
-218 219 0
-219 220 221 0
219 -220 0
219 -221 0
220 -228 -229 -233 -234 0
-220 234 0
-220 228 0
-220 233 0
-220 229 0
221 -206 -207 0
-221 206 0
-221 207 0
-222 223 224 0
222 -223 0
222 -224 0
223 -204 -205 0
-223 204 0
-223 205 0
224 -203 -208 0
-224 203 0
-224 208 0
-235 0
2 0

