c Result of efficient AIG-to-CNF conversion using package CNF
p cnf 702 2930
-2 3 58 306 568 0
2 -568 0
2 -3 0
2 -306 0
2 -58 0
-3 4 0
3 -4 0
-4 5 24 -33 -48 0
-4 -5 -24 -33 -48 0
-4 5 24 33 48 0
-4 -5 -24 33 48 0
4 5 -24 0
4 -5 24 0
4 33 -48 0
4 -33 48 0
5 6 -7 0
5 -6 7 0
-5 -6 -7 0
-5 6 7 0
6 -685 -692 0
-6 685 0
-6 692 0
7 -8 9 0
7 8 -9 0
-7 8 9 0
-7 -8 -9 0
8 -684 -693 0
-8 684 0
-8 693 0
-9 -10 -19 0
-9 10 19 0
9 10 -19 0
9 -10 19 0
10 -11 -12 0
-10 11 0
-10 12 0
11 -684 -692 0
-11 684 0
-11 692 0
12 -13 14 0
12 13 -14 0
-12 13 14 0
-12 -13 -14 0
13 -683 -693 0
-13 683 0
-13 693 0
-14 -15 -18 0
-14 15 18 0
14 15 -18 0
14 -15 18 0
15 -16 -17 0
-15 16 0
-15 17 0
16 -683 -692 0
-16 683 0
-16 692 0
17 -682 -693 0
-17 682 0
-17 693 0
18 -682 -694 0
-18 682 0
-18 694 0
19 20 -21 0
19 -20 21 0
-19 -20 -21 0
-19 20 21 0
20 -683 -694 0
-20 683 0
-20 694 0
21 -22 23 0
21 22 -23 0
-21 22 23 0
-21 -22 -23 0
22 -682 -695 0
-22 682 0
-22 695 0
-23 15 18 0
-23 13 18 0
-23 15 13 0
23 -15 -13 0
23 -13 -18 0
23 -15 -18 0
24 25 -30 0
24 -25 30 0
-24 -25 -30 0
-24 25 30 0
-25 26 28 0
-25 -26 -28 0
25 -26 28 0
25 26 -28 0
-26 -8 -27 0
-26 8 27 0
26 8 -27 0
26 -8 27 0
27 20 -22 0
27 -20 22 0
-27 -20 -22 0
-27 20 22 0
-28 6 29 0
-28 -6 -29 0
28 -6 29 0
28 6 -29 0
-29 693 18 0
-29 683 11 0
-29 11 18 0
-29 693 11 0
-29 683 18 0
29 -11 -18 0
29 -683 -693 -18 0
29 -683 -693 -11 0
30 -15 -31 0
-30 15 0
-30 31 0
-31 -11 -32 0
-31 11 32 0
31 11 -32 0
31 -11 32 0
32 13 -18 0
32 -13 18 0
-32 -13 -18 0
-32 13 18 0
33 34 -35 0
33 -34 35 0
-33 -34 -35 0
-33 34 35 0
34 -686 -692 0
-34 686 0
-34 692 0
35 -36 37 0
35 36 -37 0
-35 36 37 0
-35 -36 -37 0
36 -685 -693 0
-36 685 0
-36 693 0
-37 38 39 0
-37 -38 -39 0
37 -38 39 0
37 38 -39 0
38 -6 -7 0
-38 6 0
-38 7 0
-39 40 41 0
-39 -40 -41 0
39 -40 41 0
39 40 -41 0
40 -684 -694 0
-40 684 0
-40 694 0
-41 42 47 0
-41 -42 -47 0
41 -42 47 0
41 42 -47 0
-42 -43 -44 0
-42 43 44 0
42 43 -44 0
42 -43 44 0
43 -683 -695 0
-43 683 0
-43 695 0
44 -45 46 0
44 45 -46 0
-44 45 46 0
-44 -45 -46 0
45 -682 -696 0
-45 682 0
-45 696 0
-46 22 23 0
-46 20 22 0
-46 20 23 0
46 -20 -22 0
46 -22 -23 0
46 -20 -23 0
-47 10 19 0
-47 8 19 0
-47 10 8 0
47 -10 -8 0
47 -8 -19 0
47 -10 -19 0
48 -49 50 0
48 49 -50 0
-48 49 50 0
-48 -49 -50 0
49 -25 -30 0
-49 25 0
-49 30 0
-50 51 57 0
-50 -51 -57 0
50 -51 57 0
50 51 -57 0
-51 -52 -53 0
-51 52 53 0
51 52 -53 0
51 -52 53 0
-52 -34 -36 0
-52 34 36 0
52 34 -36 0
52 -34 36 0
53 -54 56 0
53 54 -56 0
-53 54 56 0
-53 -54 -56 0
54 -40 55 0
54 40 -55 0
-54 40 55 0
-54 -40 -55 0
-55 -43 -45 0
-55 43 45 0
55 43 -45 0
55 -43 45 0
-56 8 22 0
-56 20 22 0
-56 8 20 0
56 -8 -20 0
56 -20 -22 0
56 -8 -22 0
-57 6 26 0
-57 26 29 0
-57 6 29 0
57 -26 -29 0
57 -6 -26 0
57 -6 -29 0
-58 59 135 162 185 0
-58 59 -135 -162 185 0
58 -185 0
58 -135 162 0
58 -59 0
58 135 -162 0
-59 60 79 -94 -117 0
-59 -60 -79 -94 -117 0
-59 60 79 94 117 0
-59 -60 -79 94 117 0
59 60 -79 0
59 -60 79 0
59 94 -117 0
59 -94 117 0
60 61 -62 0
60 -61 62 0
-60 -61 -62 0
-60 61 62 0
61 -687 -692 0
-61 687 0
-61 692 0
62 -63 64 0
62 63 -64 0
-62 63 64 0
-62 -63 -64 0
63 -686 -693 0
-63 686 0
-63 693 0
-64 65 66 0
-64 -65 -66 0
64 -65 66 0
64 65 -66 0
65 -34 -35 0
-65 34 0
-65 35 0
-66 67 68 0
-66 -67 -68 0
66 -67 68 0
66 67 -68 0
67 -685 -694 0
-67 685 0
-67 694 0
-68 69 78 0
-68 -69 -78 0
68 -69 78 0
68 69 -78 0
-69 70 71 0
-69 -70 -71 0
69 -70 71 0
69 70 -71 0
70 -684 -695 0
-70 684 0
-70 695 0
-71 72 77 0
-71 -72 -77 0
71 -72 77 0
71 72 -77 0
-72 -73 -74 0
-72 73 74 0
72 73 -74 0
72 -73 74 0
73 -683 -696 0
-73 683 0
-73 696 0
74 -75 76 0
74 75 -76 0
-74 75 76 0
-74 -75 -76 0
75 -682 -697 0
-75 682 0
-75 697 0
-76 45 46 0
-76 43 45 0
-76 43 46 0
76 -43 -45 0
76 -45 -46 0
76 -43 -46 0
-77 40 42 0
-77 42 47 0
-77 40 47 0
77 -42 -47 0
77 -40 -42 0
77 -40 -47 0
-78 36 39 0
-78 38 36 0
-78 38 39 0
78 -38 -36 0
78 -36 -39 0
78 -38 -39 0
79 -80 81 0
79 80 -81 0
-79 80 81 0
-79 -80 -81 0
80 -49 -50 0
-80 49 0
-80 50 0
-81 -82 -93 0
-81 82 93 0
81 82 -93 0
81 -82 93 0
-82 83 89 0
-82 -83 -89 0
82 -83 89 0
82 83 -89 0
-83 -84 -86 0
-83 84 86 0
83 84 -86 0
83 -84 86 0
-84 -70 -85 0
-84 70 85 0
84 70 -85 0
84 -70 85 0
85 73 -75 0
85 -73 75 0
-85 -73 -75 0
-85 73 75 0
86 -87 88 0
86 87 -88 0
-86 87 88 0
-86 -87 -88 0
87 -34 -36 0
-87 34 0
-87 36 0
-88 696 43 0
-88 682 40 0
-88 40 43 0
-88 696 40 0
-88 682 43 0
88 -40 -43 0
88 -682 -696 -43 0
88 -682 -696 -40 0
-89 90 91 0
-89 -90 -91 0
89 -90 91 0
89 90 -91 0
-90 52 56 0
-90 52 54 0
-90 54 56 0
90 -54 -56 0
90 -52 -56 0
90 -52 -54 0
-91 -61 -92 0
-91 61 92 0
91 61 -92 0
91 -61 92 0
92 63 -67 0
92 -63 67 0
-92 -63 -67 0
-92 63 67 0
93 -51 -57 0
-93 51 0
-93 57 0
94 95 -96 0
94 -95 96 0
-94 -95 -96 0
-94 95 96 0
95 -688 -692 0
-95 688 0
-95 692 0
96 -97 98 0
96 97 -98 0
-96 97 98 0
-96 -97 -98 0
97 -687 -693 0
-97 687 0
-97 693 0
-98 99 100 0
-98 -99 -100 0
98 -99 100 0
98 99 -100 0
99 -61 -62 0
-99 61 0
-99 62 0
-100 101 102 0
-100 -101 -102 0
100 -101 102 0
100 101 -102 0
101 -686 -694 0
-101 686 0
-101 694 0
-102 103 116 0
-102 -103 -116 0
102 -103 116 0
102 103 -116 0
-103 104 105 0
-103 -104 -105 0
103 -104 105 0
103 104 -105 0
104 -685 -695 0
-104 685 0
-104 695 0
-105 106 115 0
-105 -106 -115 0
105 -106 115 0
105 106 -115 0
-106 107 108 0
-106 -107 -108 0
106 -107 108 0
106 107 -108 0
107 -684 -696 0
-107 684 0
-107 696 0
-108 109 114 0
-108 -109 -114 0
108 -109 114 0
108 109 -114 0
-109 -110 -111 0
-109 110 111 0
109 110 -111 0
109 -110 111 0
110 -683 -697 0
-110 683 0
-110 697 0
111 -112 113 0
111 112 -113 0
-111 112 113 0
-111 -112 -113 0
112 -682 -698 0
-112 682 0
-112 698 0
-113 75 76 0
-113 73 75 0
-113 73 76 0
113 -73 -75 0
113 -75 -76 0
113 -73 -76 0
-114 70 72 0
-114 72 77 0
-114 70 77 0
114 -72 -77 0
114 -70 -72 0
114 -70 -77 0
-115 67 69 0
-115 69 78 0
-115 67 78 0
115 -69 -78 0
115 -67 -69 0
115 -67 -78 0
-116 63 66 0
-116 65 63 0
-116 65 66 0
116 -65 -63 0
116 -63 -66 0
116 -65 -66 0
117 -118 119 0
117 118 -119 0
-117 118 119 0
-117 -118 -119 0
118 -80 -81 0
-118 80 0
-118 81 0
-119 -120 -134 0
-119 120 134 0
119 120 -134 0
119 -120 134 0
-120 121 133 0
-120 -121 -133 0
120 -121 133 0
120 121 -133 0
-121 -122 -127 0
-121 122 127 0
121 122 -127 0
121 -122 127 0
-122 -123 -125 0
-122 123 125 0
122 123 -125 0
122 -123 125 0
-123 -97 -124 0
-123 97 124 0
123 97 -124 0
123 -97 124 0
124 101 -104 0
124 -101 104 0
-124 -101 -104 0
-124 101 104 0
125 -107 126 0
125 107 -126 0
-125 107 126 0
-125 -107 -126 0
-126 -110 -112 0
-126 110 112 0
126 110 -112 0
126 -110 112 0
127 -128 132 0
127 128 -132 0
-127 128 132 0
-127 -128 -132 0
-128 129 130 0
-128 -129 -130 0
128 -129 130 0
128 129 -130 0
-129 692 67 0
-129 687 63 0
-129 63 67 0
-129 692 63 0
-129 687 67 0
129 -63 -67 0
129 -687 -692 -67 0
129 -687 -692 -63 0
-130 95 131 0
-130 -95 -131 0
130 -95 131 0
130 95 -131 0
-131 697 73 0
-131 682 70 0
-131 70 73 0
-131 697 70 0
-131 682 73 0
131 -70 -73 0
131 -682 -697 -73 0
131 -682 -697 -70 0
-132 84 88 0
-132 84 87 0
-132 87 88 0
132 -87 -88 0
132 -84 -88 0
132 -84 -87 0
-133 83 90 0
-133 90 91 0
-133 83 91 0
133 -83 -91 0
133 -90 -91 0
133 -83 -90 0
134 -82 -93 0
-134 82 0
-134 93 0
135 136 -137 0
135 -136 137 0
-135 -136 -137 0
-135 136 137 0
136 -689 -692 0
-136 689 0
-136 692 0
137 -138 139 0
137 138 -139 0
-137 138 139 0
-137 -138 -139 0
138 -688 -693 0
-138 688 0
-138 693 0
-139 140 141 0
-139 -140 -141 0
139 -140 141 0
139 140 -141 0
140 -95 -96 0
-140 95 0
-140 96 0
-141 142 143 0
-141 -142 -143 0
141 -142 143 0
141 142 -143 0
142 -687 -694 0
-142 687 0
-142 694 0
-143 144 161 0
-143 -144 -161 0
143 -144 161 0
143 144 -161 0
-144 145 146 0
-144 -145 -146 0
144 -145 146 0
144 145 -146 0
145 -686 -695 0
-145 686 0
-145 695 0
-146 147 160 0
-146 -147 -160 0
146 -147 160 0
146 147 -160 0
-147 148 149 0
-147 -148 -149 0
147 -148 149 0
147 148 -149 0
148 -685 -696 0
-148 685 0
-148 696 0
-149 150 159 0
-149 -150 -159 0
149 -150 159 0
149 150 -159 0
-150 151 152 0
-150 -151 -152 0
150 -151 152 0
150 151 -152 0
151 -684 -697 0
-151 684 0
-151 697 0
-152 153 158 0
-152 -153 -158 0
152 -153 158 0
152 153 -158 0
-153 -154 -155 0
-153 154 155 0
153 154 -155 0
153 -154 155 0
154 -683 -698 0
-154 683 0
-154 698 0
155 -156 157 0
155 156 -157 0
-155 156 157 0
-155 -156 -157 0
156 -682 -699 0
-156 682 0
-156 699 0
-157 112 113 0
-157 110 112 0
-157 110 113 0
157 -110 -112 0
157 -112 -113 0
157 -110 -113 0
-158 107 109 0
-158 109 114 0
-158 107 114 0
158 -109 -114 0
158 -107 -109 0
158 -107 -114 0
-159 104 106 0
-159 106 115 0
-159 104 115 0
159 -106 -115 0
159 -104 -106 0
159 -104 -115 0
-160 101 103 0
-160 103 116 0
-160 101 116 0
160 -103 -116 0
160 -101 -103 0
160 -101 -116 0
-161 97 100 0
-161 99 97 0
-161 99 100 0
161 -99 -97 0
161 -97 -100 0
161 -99 -100 0
162 -163 164 0
162 163 -164 0
-162 163 164 0
-162 -163 -164 0
163 -118 -119 0
-163 118 0
-163 119 0
-164 -165 -184 0
-164 165 184 0
164 165 -184 0
164 -165 184 0
-165 -166 -183 0
-165 166 183 0
165 166 -183 0
165 -166 183 0
-166 -167 -177 0
-166 167 177 0
166 167 -177 0
166 -167 177 0
-167 -168 -174 0
-167 168 174 0
167 168 -174 0
167 -168 174 0
-168 -169 -171 0
-168 169 171 0
168 169 -171 0
168 -169 171 0
-169 -151 -170 0
-169 151 170 0
169 151 -170 0
169 -151 170 0
170 154 -156 0
170 -154 156 0
-170 -154 -156 0
-170 154 156 0
171 -172 173 0
171 172 -173 0
-171 172 173 0
-171 -172 -173 0
-172 97 104 0
-172 101 104 0
-172 97 101 0
172 -97 -101 0
172 -101 -104 0
172 -97 -104 0
-173 107 112 0
-173 110 112 0
-173 107 110 0
173 -107 -110 0
173 -110 -112 0
173 -107 -112 0
174 -175 176 0
174 175 -176 0
-174 175 176 0
-174 -175 -176 0
175 -123 -125 0
-175 123 0
-175 125 0
-176 95 129 0
-176 129 131 0
-176 95 131 0
176 -129 -131 0
176 -95 -129 0
176 -95 -131 0
177 178 -179 0
177 -178 179 0
-177 -178 -179 0
-177 178 179 0
-178 122 128 0
-178 128 132 0
-178 122 132 0
178 -122 -132 0
178 -128 -132 0
178 -122 -128 0
179 -180 181 0
179 180 -181 0
-179 180 181 0
-179 -180 -181 0
180 136 -138 0
180 -136 138 0
-180 -136 -138 0
-180 136 138 0
-181 -142 -182 0
-181 142 182 0
181 142 -182 0
181 -142 182 0
182 145 -148 0
182 -145 148 0
-182 -145 -148 0
-182 145 148 0
183 -121 -133 0
-183 121 0
-183 133 0
184 -120 -134 0
-184 120 0
-184 134 0
-185 186 217 -244 -279 0
-185 -186 -217 -244 -279 0
-185 186 217 244 279 0
-185 -186 -217 244 279 0
185 186 -217 0
185 -186 217 0
185 244 -279 0
185 -244 279 0
186 187 -188 0
186 -187 188 0
-186 -187 -188 0
-186 187 188 0
187 -690 -692 0
-187 690 0
-187 692 0
188 -189 190 0
188 189 -190 0
-188 189 190 0
-188 -189 -190 0
189 -689 -693 0
-189 689 0
-189 693 0
-190 191 192 0
-190 -191 -192 0
190 -191 192 0
190 191 -192 0
191 -136 -137 0
-191 136 0
-191 137 0
-192 193 194 0
-192 -193 -194 0
192 -193 194 0
192 193 -194 0
193 -688 -694 0
-193 688 0
-193 694 0
-194 195 216 0
-194 -195 -216 0
194 -195 216 0
194 195 -216 0
-195 196 197 0
-195 -196 -197 0
195 -196 197 0
195 196 -197 0
196 -687 -695 0
-196 687 0
-196 695 0
-197 198 215 0
-197 -198 -215 0
197 -198 215 0
197 198 -215 0
-198 199 200 0
-198 -199 -200 0
198 -199 200 0
198 199 -200 0
199 -686 -696 0
-199 686 0
-199 696 0
-200 201 214 0
-200 -201 -214 0
200 -201 214 0
200 201 -214 0
-201 202 203 0
-201 -202 -203 0
201 -202 203 0
201 202 -203 0
202 -685 -697 0
-202 685 0
-202 697 0
-203 204 213 0
-203 -204 -213 0
203 -204 213 0
203 204 -213 0
-204 205 206 0
-204 -205 -206 0
204 -205 206 0
204 205 -206 0
205 -684 -698 0
-205 684 0
-205 698 0
-206 207 212 0
-206 -207 -212 0
206 -207 212 0
206 207 -212 0
-207 -208 -209 0
-207 208 209 0
207 208 -209 0
207 -208 209 0
208 -683 -699 0
-208 683 0
-208 699 0
209 -210 211 0
209 210 -211 0
-209 210 211 0
-209 -210 -211 0
210 -682 -700 0
-210 682 0
-210 700 0
-211 156 157 0
-211 154 156 0
-211 154 157 0
211 -154 -156 0
211 -156 -157 0
211 -154 -157 0
-212 151 153 0
-212 153 158 0
-212 151 158 0
212 -153 -158 0
212 -151 -153 0
212 -151 -158 0
-213 148 150 0
-213 150 159 0
-213 148 159 0
213 -150 -159 0
213 -148 -150 0
213 -148 -159 0
-214 145 147 0
-214 147 160 0
-214 145 160 0
214 -147 -160 0
214 -145 -147 0
214 -145 -160 0
-215 142 144 0
-215 144 161 0
-215 142 161 0
215 -144 -161 0
215 -142 -144 0
215 -142 -161 0
-216 138 141 0
-216 140 138 0
-216 140 141 0
216 -140 -138 0
216 -138 -141 0
216 -140 -141 0
217 -218 220 0
217 218 -220 0
-217 218 220 0
-217 -218 -220 0
-218 219 0
218 -219 0
-219 165 0
-219 163 184 0
219 -163 -165 0
219 -165 -184 0
-220 -221 -243 0
-220 221 243 0
220 221 -243 0
220 -221 243 0
-221 222 242 0
-221 -222 -242 0
221 -222 242 0
221 222 -242 0
-222 -223 -232 0
-222 223 232 0
222 223 -232 0
222 -223 232 0
-223 -224 -229 0
-223 224 229 0
223 224 -229 0
223 -224 229 0
-224 225 226 0
-224 -225 -226 0
224 -225 226 0
224 225 -226 0
225 -136 -138 0
-225 136 0
-225 138 0
-226 227 228 0
-226 -227 -228 0
226 -227 228 0
226 227 -228 0
-227 142 148 0
-227 145 148 0
-227 142 145 0
227 -142 -145 0
227 -145 -148 0
227 -142 -148 0
-228 699 154 0
-228 682 151 0
-228 151 154 0
-228 699 151 0
-228 682 154 0
228 -151 -154 0
228 -682 -699 -154 0
228 -682 -699 -151 0
229 -230 231 0
229 230 -231 0
-229 230 231 0
-229 -230 -231 0
230 -180 -181 0
-230 180 0
-230 181 0
-231 169 172 0
-231 172 173 0
-231 169 173 0
231 -169 -173 0
231 -172 -173 0
231 -169 -172 0
232 233 -234 0
232 -233 234 0
-232 -233 -234 0
-232 233 234 0
-233 168 176 0
-233 168 175 0
-233 175 176 0
233 -175 -176 0
233 -168 -176 0
233 -168 -175 0
234 235 -237 0
234 -235 237 0
-234 -235 -237 0
-234 235 237 0
-235 -187 -236 0
-235 187 236 0
235 187 -236 0
235 -187 236 0
236 189 -193 0
236 -189 193 0
-236 -189 -193 0
-236 189 193 0
237 -238 240 0
237 238 -240 0
-237 238 240 0
-237 -238 -240 0
-238 -196 -239 0
-238 196 239 0
238 196 -239 0
238 -196 239 0
239 199 -202 0
239 -199 202 0
-239 -199 -202 0
-239 199 202 0
-240 -205 -241 0
-240 205 241 0
240 205 -241 0
240 -205 241 0
241 208 -210 0
241 -208 210 0
-241 -208 -210 0
-241 208 210 0
-242 167 178 0
-242 178 179 0
-242 167 179 0
242 -178 -179 0
242 -167 -178 0
242 -167 -179 0
243 -166 -183 0
-243 166 0
-243 183 0
244 245 -246 0
244 -245 246 0
-244 -245 -246 0
-244 245 246 0
245 -691 -692 0
-245 691 0
-245 692 0
246 247 -248 0
246 -247 248 0
-246 -247 -248 0
-246 247 248 0
247 -690 -693 0
-247 690 0
-247 693 0
248 249 -250 0
248 -249 250 0
-248 -249 -250 0
-248 249 250 0
249 -187 -188 0
-249 187 0
-249 188 0
250 -251 252 0
250 251 -252 0
-250 251 252 0
-250 -251 -252 0
251 -689 -694 0
-251 689 0
-251 694 0
-252 253 278 0
-252 -253 -278 0
252 -253 278 0
252 253 -278 0
-253 254 255 0
-253 -254 -255 0
253 -254 255 0
253 254 -255 0
254 -688 -695 0
-254 688 0
-254 695 0
-255 256 277 0
-255 -256 -277 0
255 -256 277 0
255 256 -277 0
-256 257 258 0
-256 -257 -258 0
256 -257 258 0
256 257 -258 0
257 -687 -696 0
-257 687 0
-257 696 0
-258 259 276 0
-258 -259 -276 0
258 -259 276 0
258 259 -276 0
-259 260 261 0
-259 -260 -261 0
259 -260 261 0
259 260 -261 0
260 -686 -697 0
-260 686 0
-260 697 0
-261 262 275 0
-261 -262 -275 0
261 -262 275 0
261 262 -275 0
-262 263 264 0
-262 -263 -264 0
262 -263 264 0
262 263 -264 0
263 -685 -698 0
-263 685 0
-263 698 0
-264 265 274 0
-264 -265 -274 0
264 -265 274 0
264 265 -274 0
-265 266 267 0
-265 -266 -267 0
265 -266 267 0
265 266 -267 0
266 -684 -699 0
-266 684 0
-266 699 0
-267 268 273 0
-267 -268 -273 0
267 -268 273 0
267 268 -273 0
-268 -269 -270 0
-268 269 270 0
268 269 -270 0
268 -269 270 0
269 -683 -700 0
-269 683 0
-269 700 0
270 -271 272 0
270 271 -272 0
-270 271 272 0
-270 -271 -272 0
271 -682 -701 0
-271 682 0
-271 701 0
-272 210 211 0
-272 208 210 0
-272 208 211 0
272 -208 -210 0
272 -210 -211 0
272 -208 -211 0
-273 205 207 0
-273 207 212 0
-273 205 212 0
273 -207 -212 0
273 -205 -207 0
273 -205 -212 0
-274 202 204 0
-274 204 213 0
-274 202 213 0
274 -204 -213 0
274 -202 -204 0
274 -202 -213 0
-275 199 201 0
-275 201 214 0
-275 199 214 0
275 -201 -214 0
275 -199 -201 0
275 -199 -214 0
-276 196 198 0
-276 198 215 0
-276 196 215 0
276 -198 -215 0
276 -196 -198 0
276 -196 -215 0
-277 193 195 0
-277 195 216 0
-277 193 216 0
277 -195 -216 0
277 -193 -195 0
277 -193 -216 0
-278 189 192 0
-278 191 189 0
-278 191 192 0
278 -191 -189 0
278 -189 -192 0
278 -191 -192 0
279 -280 281 0
279 280 -281 0
-279 280 281 0
-279 -280 -281 0
-280 218 221 0
-280 221 243 0
-280 218 243 0
280 -221 -243 0
280 -218 -221 0
280 -218 -243 0
-281 -282 -305 0
-281 282 305 0
281 282 -305 0
281 -282 305 0
282 -283 304 0
282 283 -304 0
-282 283 304 0
-282 -283 -304 0
-283 -284 -296 0
-283 284 296 0
283 284 -296 0
283 -284 296 0
284 285 -292 0
284 -285 292 0
-284 -285 -292 0
-284 285 292 0
-285 -286 -288 0
-285 286 288 0
285 286 -288 0
285 -286 288 0
-286 -257 -287 0
-286 257 287 0
286 257 -287 0
286 -257 287 0
287 260 -263 0
287 -260 263 0
-287 -260 -263 0
-287 260 263 0
288 -289 291 0
288 289 -291 0
-288 289 291 0
-288 -289 -291 0
-289 -266 -290 0
-289 266 290 0
289 266 -290 0
289 -266 290 0
290 269 -271 0
290 -269 271 0
-290 -269 -271 0
-290 269 271 0
-291 187 193 0
-291 189 193 0
-291 187 189 0
291 -187 -189 0
291 -189 -193 0
291 -187 -193 0
292 -293 294 0
292 293 -294 0
-292 293 294 0
-292 -293 -294 0
-293 196 202 0
-293 199 202 0
-293 196 199 0
293 -196 -199 0
293 -199 -202 0
293 -196 -202 0
-294 245 295 0
-294 -245 -295 0
294 -245 295 0
294 245 -295 0
-295 205 210 0
-295 208 210 0
-295 205 208 0
295 -205 -208 0
295 -208 -210 0
295 -205 -210 0
296 -297 303 0
296 297 -303 0
-296 297 303 0
-296 -297 -303 0
297 -298 299 0
297 298 -299 0
-297 298 299 0
-297 -298 -299 0
-298 235 238 0
-298 238 240 0
-298 235 240 0
298 -235 -240 0
298 -238 -240 0
298 -235 -238 0
-299 -300 -301 0
-299 300 301 0
299 300 -301 0
299 -300 301 0
-300 225 227 0
-300 227 228 0
-300 225 228 0
300 -227 -228 0
300 -225 -227 0
300 -225 -228 0
301 247 -302 0
301 -247 302 0
-301 -247 -302 0
-301 247 302 0
302 251 -254 0
302 -251 254 0
-302 -251 -254 0
-302 251 254 0
-303 230 224 0
-303 224 231 0
-303 230 231 0
303 -224 -231 0
303 -230 -224 0
303 -230 -231 0
-304 223 233 0
-304 233 234 0
-304 223 234 0
304 -233 -234 0
304 -223 -233 0
304 -223 -234 0
305 -222 -242 0
-305 222 0
-305 242 0
-306 307 429 458 482 0
-306 307 -429 -458 482 0
306 -482 0
306 -429 458 0
306 -307 0
306 429 -458 0
-307 308 343 -371 -404 0
-307 -308 -343 -371 -404 0
-307 308 343 371 404 0
-307 -308 -343 371 404 0
307 308 -343 0
307 -308 343 0
307 371 -404 0
307 -371 404 0
308 -309 310 0
308 309 -310 0
-308 309 310 0
-308 -309 -310 0
309 -691 -693 0
-309 691 0
-309 693 0
-310 311 312 0
-310 -311 -312 0
310 -311 312 0
310 311 -312 0
311 -690 -694 0
-311 690 0
-311 694 0
-312 313 314 0
-312 -313 -314 0
312 -313 314 0
312 313 -314 0
313 -245 -246 0
-313 245 0
-313 246 0
-314 315 316 0
-314 -315 -316 0
314 -315 316 0
314 315 -316 0
315 -689 -695 0
-315 689 0
-315 695 0
-316 317 342 0
-316 -317 -342 0
316 -317 342 0
316 317 -342 0
-317 318 319 0
-317 -318 -319 0
317 -318 319 0
317 318 -319 0
318 -688 -696 0
-318 688 0
-318 696 0
-319 320 341 0
-319 -320 -341 0
319 -320 341 0
319 320 -341 0
-320 321 322 0
-320 -321 -322 0
320 -321 322 0
320 321 -322 0
321 -687 -697 0
-321 687 0
-321 697 0
-322 323 340 0
-322 -323 -340 0
322 -323 340 0
322 323 -340 0
-323 324 325 0
-323 -324 -325 0
323 -324 325 0
323 324 -325 0
324 -686 -698 0
-324 686 0
-324 698 0
-325 326 339 0
-325 -326 -339 0
325 -326 339 0
325 326 -339 0
-326 327 328 0
-326 -327 -328 0
326 -327 328 0
326 327 -328 0
327 -685 -699 0
-327 685 0
-327 699 0
-328 329 338 0
-328 -329 -338 0
328 -329 338 0
328 329 -338 0
-329 330 331 0
-329 -330 -331 0
329 -330 331 0
329 330 -331 0
330 -684 -700 0
-330 684 0
-330 700 0
-331 332 337 0
-331 -332 -337 0
331 -332 337 0
331 332 -337 0
-332 333 334 0
-332 -333 -334 0
332 -333 334 0
332 333 -334 0
333 -683 -701 0
-333 683 0
-333 701 0
-334 335 336 0
-334 -335 -336 0
334 -335 336 0
334 335 -336 0
-335 271 272 0
-335 269 271 0
-335 269 272 0
335 -269 -271 0
335 -271 -272 0
335 -269 -272 0
-336 266 268 0
-336 268 273 0
-336 266 273 0
336 -268 -273 0
336 -266 -268 0
336 -266 -273 0
-337 263 265 0
-337 265 274 0
-337 263 274 0
337 -265 -274 0
337 -263 -265 0
337 -263 -274 0
-338 260 262 0
-338 262 275 0
-338 260 275 0
338 -262 -275 0
338 -260 -262 0
338 -260 -275 0
-339 257 259 0
-339 259 276 0
-339 257 276 0
339 -259 -276 0
339 -257 -259 0
339 -257 -276 0
-340 254 256 0
-340 256 277 0
-340 254 277 0
340 -256 -277 0
340 -254 -256 0
340 -254 -277 0
-341 251 253 0
-341 253 278 0
-341 251 278 0
341 -253 -278 0
341 -251 -253 0
341 -251 -278 0
-342 249 250 0
-342 247 250 0
-342 249 247 0
342 -249 -247 0
342 -247 -250 0
342 -249 -250 0
343 -344 345 0
343 344 -345 0
-343 344 345 0
-343 -344 -345 0
-344 282 305 0
-344 280 282 0
-344 280 305 0
344 -280 -282 0
344 -282 -305 0
344 -280 -305 0
-345 -346 -347 0
-345 346 347 0
345 346 -347 0
345 -346 347 0
346 -283 -304 0
-346 283 0
-346 304 0
347 -348 360 0
347 348 -360 0
-347 348 360 0
-347 -348 -360 0
-348 349 350 0
-348 -349 -350 0
348 -349 350 0
348 349 -350 0
349 -285 -292 0
-349 285 0
-349 292 0
-350 -351 -352 0
-350 351 352 0
350 351 -352 0
350 -351 352 0
-351 298 300 0
-351 300 301 0
-351 298 301 0
351 -300 -301 0
351 -298 -300 0
351 -298 -301 0
352 353 -355 0
352 -353 355 0
-352 -353 -355 0
-352 353 355 0
-353 -309 -354 0
-353 309 354 0
353 309 -354 0
353 -309 354 0
354 311 -315 0
354 -311 315 0
-354 -311 -315 0
-354 311 315 0
355 -356 358 0
355 356 -358 0
-355 356 358 0
-355 -356 -358 0
-356 -318 -357 0
-356 318 357 0
356 318 -357 0
356 -318 357 0
357 321 -324 0
357 -321 324 0
-357 -321 -324 0
-357 321 324 0
-358 -327 -359 0
-358 327 359 0
358 327 -359 0
358 -327 359 0
359 330 -333 0
359 -330 333 0
-359 -330 -333 0
-359 330 333 0
-360 -361 -362 0
-360 361 362 0
360 361 -362 0
360 -361 362 0
-361 297 303 0
-361 284 297 0
-361 284 303 0
361 -284 -297 0
361 -297 -303 0
361 -284 -303 0
362 -363 368 0
362 363 -368 0
-362 363 368 0
-362 -363 -368 0
-363 -364 -365 0
-363 364 365 0
363 364 -365 0
363 -364 365 0
-364 694 254 0
-364 689 247 0
-364 247 254 0
-364 694 247 0
-364 689 254 0
364 -247 -254 0
364 -689 -694 -254 0
364 -689 -694 -247 0
365 -366 367 0
365 366 -367 0
-365 366 367 0
-365 -366 -367 0
-366 257 263 0
-366 260 263 0
-366 257 260 0
366 -257 -260 0
366 -260 -263 0
366 -257 -263 0
-367 266 271 0
-367 269 271 0
-367 266 269 0
367 -266 -269 0
367 -269 -271 0
367 -266 -271 0
-368 369 370 0
-368 -369 -370 0
368 -369 370 0
368 369 -370 0
-369 286 289 0
-369 289 291 0
-369 286 291 0
369 -286 -291 0
369 -289 -291 0
369 -286 -289 0
-370 245 293 0
-370 293 295 0
-370 245 295 0
370 -293 -295 0
370 -245 -293 0
370 -245 -295 0
371 372 -373 0
371 -372 373 0
-371 -372 -373 0
-371 372 373 0
372 -309 -310 0
-372 309 0
-372 310 0
373 374 -375 0
373 -374 375 0
-373 -374 -375 0
-373 374 375 0
374 -691 -694 0
-374 691 0
-374 694 0
375 -376 377 0
375 376 -377 0
-375 376 377 0
-375 -376 -377 0
376 -690 -695 0
-376 690 0
-376 695 0
-377 378 403 0
-377 -378 -403 0
377 -378 403 0
377 378 -403 0
-378 379 380 0
-378 -379 -380 0
378 -379 380 0
378 379 -380 0
379 -689 -696 0
-379 689 0
-379 696 0
-380 381 402 0
-380 -381 -402 0
380 -381 402 0
380 381 -402 0
-381 382 383 0
-381 -382 -383 0
381 -382 383 0
381 382 -383 0
382 -688 -697 0
-382 688 0
-382 697 0
-383 384 401 0
-383 -384 -401 0
383 -384 401 0
383 384 -401 0
-384 385 386 0
-384 -385 -386 0
384 -385 386 0
384 385 -386 0
385 -687 -698 0
-385 687 0
-385 698 0
-386 387 400 0
-386 -387 -400 0
386 -387 400 0
386 387 -400 0
-387 388 389 0
-387 -388 -389 0
387 -388 389 0
387 388 -389 0
388 -686 -699 0
-388 686 0
-388 699 0
-389 390 399 0
-389 -390 -399 0
389 -390 399 0
389 390 -399 0
-390 391 392 0
-390 -391 -392 0
390 -391 392 0
390 391 -392 0
391 -685 -700 0
-391 685 0
-391 700 0
-392 393 398 0
-392 -393 -398 0
392 -393 398 0
392 393 -398 0
-393 394 395 0
-393 -394 -395 0
393 -394 395 0
393 394 -395 0
394 -684 -701 0
-394 684 0
-394 701 0
-395 396 397 0
-395 -396 -397 0
395 -396 397 0
395 396 -397 0
-396 333 335 0
-396 335 336 0
-396 333 336 0
396 -335 -336 0
396 -333 -335 0
396 -333 -336 0
-397 330 332 0
-397 332 337 0
-397 330 337 0
397 -332 -337 0
397 -330 -332 0
397 -330 -337 0
-398 327 329 0
-398 329 338 0
-398 327 338 0
398 -329 -338 0
398 -327 -329 0
398 -327 -338 0
-399 324 326 0
-399 326 339 0
-399 324 339 0
399 -326 -339 0
399 -324 -326 0
399 -324 -339 0
-400 321 323 0
-400 323 340 0
-400 321 340 0
400 -323 -340 0
400 -321 -323 0
400 -321 -340 0
-401 318 320 0
-401 320 341 0
-401 318 341 0
401 -320 -341 0
401 -318 -320 0
401 -318 -341 0
-402 315 317 0
-402 317 342 0
-402 315 342 0
402 -317 -342 0
402 -315 -317 0
402 -315 -342 0
-403 311 314 0
-403 313 311 0
-403 313 314 0
403 -313 -311 0
403 -311 -314 0
403 -313 -314 0
404 -405 406 0
404 405 -406 0
-404 405 406 0
-404 -405 -406 0
-405 344 347 0
-405 346 347 0
-405 346 344 0
405 -346 -347 0
405 -346 -344 0
405 -344 -347 0
-406 407 428 0
-406 -407 -428 0
406 -407 428 0
406 407 -428 0
407 -408 427 0
407 408 -427 0
-407 408 427 0
-407 -408 -427 0
-408 -409 -418 0
-408 409 418 0
408 409 -418 0
408 -409 418 0
-409 -410 -415 0
-409 410 415 0
409 410 -415 0
409 -410 415 0
-410 -411 -412 0
-410 411 412 0
410 411 -412 0
410 -411 412 0
-411 309 315 0
-411 311 315 0
-411 309 311 0
411 -309 -311 0
411 -311 -315 0
411 -309 -315 0
412 -413 414 0
412 413 -414 0
-412 413 414 0
-412 -413 -414 0
-413 318 324 0
-413 321 324 0
-413 318 321 0
413 -318 -321 0
413 -321 -324 0
413 -318 -324 0
-414 327 333 0
-414 330 333 0
-414 327 330 0
414 -327 -330 0
414 -330 -333 0
414 -327 -333 0
415 -416 417 0
415 416 -417 0
-415 416 417 0
-415 -416 -417 0
-416 353 356 0
-416 356 358 0
-416 353 358 0
416 -353 -358 0
416 -356 -358 0
416 -353 -356 0
-417 364 366 0
-417 366 367 0
-417 364 367 0
417 -364 -367 0
417 -366 -367 0
417 -364 -366 0
418 419 -420 0
418 -419 420 0
-418 -419 -420 0
-418 419 420 0
-419 363 369 0
-419 369 370 0
-419 363 370 0
419 -363 -370 0
419 -369 -370 0
419 -363 -369 0
420 421 -422 0
420 -421 422 0
-420 -421 -422 0
-420 421 422 0
421 374 -376 0
421 -374 376 0
-421 -374 -376 0
-421 374 376 0
422 -423 425 0
422 423 -425 0
-422 423 425 0
-422 -423 -425 0
-423 -379 -424 0
-423 379 424 0
423 379 -424 0
423 -379 424 0
424 382 -385 0
424 -382 385 0
-424 -382 -385 0
-424 382 385 0
-425 -388 -426 0
-425 388 426 0
425 388 -426 0
425 -388 426 0
426 391 -394 0
426 -391 394 0
-426 -391 -394 0
-426 391 394 0
-427 351 352 0
-427 349 352 0
-427 349 351 0
427 -349 -352 0
427 -349 -351 0
427 -351 -352 0
-428 348 361 0
-428 361 362 0
-428 348 362 0
428 -361 -362 0
428 -348 -361 0
428 -348 -362 0
429 430 -431 0
429 -430 431 0
-429 -430 -431 0
-429 430 431 0
-430 372 375 0
-430 374 375 0
-430 372 374 0
430 -372 -374 0
430 -374 -375 0
430 -372 -375 0
431 432 -433 0
431 -432 433 0
-431 -432 -433 0
-431 432 433 0
432 -691 -695 0
-432 691 0
-432 695 0
433 -434 435 0
433 434 -435 0
-433 434 435 0
-433 -434 -435 0
434 -690 -696 0
-434 690 0
-434 696 0
-435 436 457 0
-435 -436 -457 0
435 -436 457 0
435 436 -457 0
-436 437 438 0
-436 -437 -438 0
436 -437 438 0
436 437 -438 0
437 -689 -697 0
-437 689 0
-437 697 0
-438 439 456 0
-438 -439 -456 0
438 -439 456 0
438 439 -456 0
-439 440 441 0
-439 -440 -441 0
439 -440 441 0
439 440 -441 0
440 -688 -698 0
-440 688 0
-440 698 0
-441 442 455 0
-441 -442 -455 0
441 -442 455 0
441 442 -455 0
-442 443 444 0
-442 -443 -444 0
442 -443 444 0
442 443 -444 0
443 -687 -699 0
-443 687 0
-443 699 0
-444 445 454 0
-444 -445 -454 0
444 -445 454 0
444 445 -454 0
-445 446 447 0
-445 -446 -447 0
445 -446 447 0
445 446 -447 0
446 -686 -700 0
-446 686 0
-446 700 0
-447 448 453 0
-447 -448 -453 0
447 -448 453 0
447 448 -453 0
-448 449 450 0
-448 -449 -450 0
448 -449 450 0
448 449 -450 0
449 -685 -701 0
-449 685 0
-449 701 0
-450 451 452 0
-450 -451 -452 0
450 -451 452 0
450 451 -452 0
-451 394 396 0
-451 396 397 0
-451 394 397 0
451 -396 -397 0
451 -394 -396 0
451 -394 -397 0
-452 391 393 0
-452 393 398 0
-452 391 398 0
452 -393 -398 0
452 -391 -393 0
452 -391 -398 0
-453 388 390 0
-453 390 399 0
-453 388 399 0
453 -390 -399 0
453 -388 -390 0
453 -388 -399 0
-454 385 387 0
-454 387 400 0
-454 385 400 0
454 -387 -400 0
454 -385 -387 0
454 -385 -400 0
-455 382 384 0
-455 384 401 0
-455 382 401 0
455 -384 -401 0
455 -382 -384 0
455 -382 -401 0
-456 379 381 0
-456 381 402 0
-456 379 402 0
456 -381 -402 0
456 -379 -381 0
456 -379 -402 0
-457 376 378 0
-457 378 403 0
-457 376 403 0
457 -378 -403 0
457 -376 -378 0
457 -376 -403 0
458 -459 460 0
458 459 -460 0
-458 459 460 0
-458 -459 -460 0
-459 405 428 0
-459 405 407 0
-459 407 428 0
459 -407 -428 0
459 -405 -428 0
459 -405 -407 0
-460 -461 -462 0
-460 461 462 0
460 461 -462 0
460 -461 462 0
461 -408 -427 0
-461 408 0
-461 427 0
462 -463 481 0
462 463 -481 0
-462 463 481 0
-462 -463 -481 0
-463 -464 -472 0
-463 464 472 0
463 464 -472 0
463 -464 472 0
-464 -465 -469 0
-464 465 469 0
464 465 -469 0
464 -465 469 0
-465 -466 -467 0
-465 466 467 0
465 466 -467 0
465 -466 467 0
-466 379 385 0
-466 382 385 0
-466 379 382 0
466 -379 -382 0
466 -382 -385 0
466 -379 -385 0
467 -432 468 0
467 432 -468 0
-467 432 468 0
-467 -432 -468 0
-468 388 394 0
-468 391 394 0
-468 388 391 0
468 -388 -391 0
468 -391 -394 0
468 -388 -394 0
469 -470 471 0
469 470 -471 0
-469 470 471 0
-469 -470 -471 0
-470 421 423 0
-470 423 425 0
-470 421 425 0
470 -423 -425 0
470 -421 -423 0
470 -421 -425 0
-471 411 413 0
-471 413 414 0
-471 411 414 0
471 -411 -414 0
471 -413 -414 0
471 -411 -413 0
472 473 -474 0
472 -473 474 0
-472 -473 -474 0
-472 473 474 0
-473 410 416 0
-473 416 417 0
-473 410 417 0
473 -410 -417 0
473 -416 -417 0
473 -410 -416 0
474 -475 477 0
474 475 -477 0
-474 475 477 0
-474 -475 -477 0
-475 -434 -476 0
-475 434 476 0
475 434 -476 0
475 -434 476 0
476 437 -440 0
476 -437 440 0
-476 -437 -440 0
-476 437 440 0
-477 478 479 0
-477 -478 -479 0
477 -478 479 0
477 478 -479 0
478 -374 -376 0
-478 374 0
-478 376 0
-479 -443 -480 0
-479 443 480 0
479 443 -480 0
479 -443 480 0
480 446 -449 0
480 -446 449 0
-480 -446 -449 0
-480 446 449 0
-481 409 419 0
-481 419 420 0
-481 409 420 0
481 -419 -420 0
481 -409 -419 0
481 -409 -420 0
-482 483 508 -529 -550 0
-482 -483 -508 -529 -550 0
-482 483 508 529 550 0
-482 -483 -508 529 550 0
482 483 -508 0
482 -483 508 0
482 529 -550 0
482 -529 550 0
483 484 -485 0
483 -484 485 0
-483 -484 -485 0
-483 484 485 0
-484 432 433 0
-484 430 432 0
-484 430 433 0
484 -430 -432 0
484 -432 -433 0
484 -430 -433 0
485 486 -487 0
485 -486 487 0
-485 -486 -487 0
-485 486 487 0
486 -691 -696 0
-486 691 0
-486 696 0
487 -488 489 0
487 488 -489 0
-487 488 489 0
-487 -488 -489 0
488 -690 -697 0
-488 690 0
-488 697 0
-489 490 507 0
-489 -490 -507 0
489 -490 507 0
489 490 -507 0
-490 491 492 0
-490 -491 -492 0
490 -491 492 0
490 491 -492 0
491 -689 -698 0
-491 689 0
-491 698 0
-492 493 506 0
-492 -493 -506 0
492 -493 506 0
492 493 -506 0
-493 494 495 0
-493 -494 -495 0
493 -494 495 0
493 494 -495 0
494 -688 -699 0
-494 688 0
-494 699 0
-495 496 505 0
-495 -496 -505 0
495 -496 505 0
495 496 -505 0
-496 497 498 0
-496 -497 -498 0
496 -497 498 0
496 497 -498 0
497 -687 -700 0
-497 687 0
-497 700 0
-498 499 504 0
-498 -499 -504 0
498 -499 504 0
498 499 -504 0
-499 500 501 0
-499 -500 -501 0
499 -500 501 0
499 500 -501 0
500 -686 -701 0
-500 686 0
-500 701 0
-501 502 503 0
-501 -502 -503 0
501 -502 503 0
501 502 -503 0
-502 449 451 0
-502 451 452 0
-502 449 452 0
502 -451 -452 0
502 -449 -451 0
502 -449 -452 0
-503 446 448 0
-503 448 453 0
-503 446 453 0
503 -448 -453 0
503 -446 -448 0
503 -446 -453 0
-504 443 445 0
-504 445 454 0
-504 443 454 0
504 -445 -454 0
504 -443 -445 0
504 -443 -454 0
-505 440 442 0
-505 442 455 0
-505 440 455 0
505 -442 -455 0
505 -440 -442 0
505 -440 -455 0
-506 437 439 0
-506 439 456 0
-506 437 456 0
506 -439 -456 0
506 -437 -439 0
506 -437 -456 0
-507 434 436 0
-507 436 457 0
-507 434 457 0
507 -436 -457 0
507 -434 -436 0
507 -434 -457 0
508 -509 510 0
508 509 -510 0
-508 509 510 0
-508 -509 -510 0
-509 459 462 0
-509 461 462 0
-509 461 459 0
509 -461 -462 0
509 -461 -459 0
509 -459 -462 0
-510 -511 -512 0
-510 511 512 0
510 511 -512 0
510 -511 512 0
511 -463 -481 0
-511 463 0
-511 481 0
512 -513 528 0
512 513 -528 0
-512 513 528 0
-512 -513 -528 0
-513 -514 -520 0
-513 514 520 0
513 514 -520 0
513 -514 520 0
-514 -515 -516 0
-514 515 516 0
514 515 -516 0
514 -515 516 0
-515 478 475 0
-515 475 479 0
-515 478 479 0
515 -475 -479 0
515 -478 -475 0
515 -478 -479 0
516 -517 518 0
516 517 -518 0
-516 517 518 0
-516 -517 -518 0
-517 432 466 0
-517 466 468 0
-517 432 468 0
517 -466 -468 0
517 -432 -466 0
517 -432 -468 0
-518 -486 -519 0
-518 486 519 0
518 486 -519 0
518 -486 519 0
519 488 -491 0
519 -488 491 0
-519 -488 -491 0
-519 488 491 0
520 521 -522 0
520 -521 522 0
-520 -521 -522 0
-520 521 522 0
-521 465 470 0
-521 470 471 0
-521 465 471 0
521 -465 -471 0
521 -470 -471 0
521 -465 -470 0
522 -523 525 0
522 523 -525 0
-522 523 525 0
-522 -523 -525 0
-523 -494 -524 0
-523 494 524 0
523 494 -524 0
523 -494 524 0
524 497 -500 0
524 -497 500 0
-524 -497 -500 0
-524 497 500 0
-525 526 527 0
-525 -526 -527 0
525 -526 527 0
525 526 -527 0
-526 434 440 0
-526 437 440 0
-526 434 437 0
526 -434 -437 0
526 -437 -440 0
526 -434 -440 0
-527 443 449 0
-527 446 449 0
-527 443 446 0
527 -443 -446 0
527 -446 -449 0
527 -443 -449 0
-528 464 473 0
-528 473 474 0
-528 464 474 0
528 -473 -474 0
528 -464 -473 0
528 -464 -474 0
529 530 -531 0
529 -530 531 0
-529 -530 -531 0
-529 530 531 0
-530 486 487 0
-530 484 486 0
-530 484 487 0
530 -484 -486 0
530 -486 -487 0
530 -484 -487 0
531 532 -533 0
531 -532 533 0
-531 -532 -533 0
-531 532 533 0
532 -691 -697 0
-532 691 0
-532 697 0
533 -534 535 0
533 534 -535 0
-533 534 535 0
-533 -534 -535 0
534 -690 -698 0
-534 690 0
-534 698 0
-535 536 549 0
-535 -536 -549 0
535 -536 549 0
535 536 -549 0
-536 537 538 0
-536 -537 -538 0
536 -537 538 0
536 537 -538 0
537 -689 -699 0
-537 689 0
-537 699 0
-538 539 548 0
-538 -539 -548 0
538 -539 548 0
538 539 -548 0
-539 540 541 0
-539 -540 -541 0
539 -540 541 0
539 540 -541 0
540 -688 -700 0
-540 688 0
-540 700 0
-541 542 547 0
-541 -542 -547 0
541 -542 547 0
541 542 -547 0
-542 543 544 0
-542 -543 -544 0
542 -543 544 0
542 543 -544 0
543 -687 -701 0
-543 687 0
-543 701 0
-544 545 546 0
-544 -545 -546 0
544 -545 546 0
544 545 -546 0
-545 500 502 0
-545 502 503 0
-545 500 503 0
545 -502 -503 0
545 -500 -502 0
545 -500 -503 0
-546 497 499 0
-546 499 504 0
-546 497 504 0
546 -499 -504 0
546 -497 -499 0
546 -497 -504 0
-547 494 496 0
-547 496 505 0
-547 494 505 0
547 -496 -505 0
547 -494 -496 0
547 -494 -505 0
-548 491 493 0
-548 493 506 0
-548 491 506 0
548 -493 -506 0
548 -491 -493 0
548 -491 -506 0
-549 488 490 0
-549 490 507 0
-549 488 507 0
549 -490 -507 0
549 -488 -490 0
549 -488 -507 0
550 -551 552 0
550 551 -552 0
-550 551 552 0
-550 -551 -552 0
-551 509 512 0
-551 511 512 0
-551 511 509 0
551 -511 -512 0
551 -511 -509 0
551 -509 -512 0
-552 -553 -554 0
-552 553 554 0
552 553 -554 0
552 -553 554 0
553 -513 -528 0
-553 513 0
-553 528 0
554 -555 567 0
554 555 -567 0
-554 555 567 0
-554 -555 -567 0
-555 556 566 0
-555 -556 -566 0
555 -556 566 0
555 556 -566 0
-556 -557 -563 0
-556 557 563 0
556 557 -563 0
556 -557 563 0
-557 -558 -560 0
-557 558 560 0
557 558 -560 0
557 -558 560 0
-558 -537 -559 0
-558 537 559 0
558 537 -559 0
558 -537 559 0
559 540 -543 0
559 -540 543 0
-559 -540 -543 0
-559 540 543 0
560 -561 562 0
560 561 -562 0
-560 561 562 0
-560 -561 -562 0
-561 697 491 0
-561 690 486 0
-561 486 491 0
-561 697 486 0
-561 690 491 0
561 -486 -491 0
561 -690 -697 -491 0
561 -690 -697 -486 0
-562 700 500 0
-562 687 494 0
-562 494 500 0
-562 700 494 0
-562 687 500 0
562 -494 -500 0
562 -687 -700 -500 0
562 -687 -700 -494 0
563 564 -565 0
563 -564 565 0
-563 -564 -565 0
-563 564 565 0
-564 523 526 0
-564 526 527 0
-564 523 527 0
564 -523 -527 0
564 -526 -527 0
564 -523 -526 0
565 532 -534 0
565 -532 534 0
-565 -532 -534 0
-565 532 534 0
-566 515 517 0
-566 517 518 0
-566 515 518 0
566 -515 -518 0
566 -517 -518 0
566 -515 -517 0
-567 514 521 0
-567 521 522 0
-567 514 522 0
567 -521 -522 0
567 -514 -521 0
567 -514 -522 0
-568 569 631 640 653 0
-568 569 -631 -640 653 0
568 -653 0
568 -631 640 0
568 -569 0
568 631 -640 0
-569 570 587 -604 -617 0
-569 -570 -587 -604 -617 0
-569 570 587 604 617 0
-569 -570 -587 604 617 0
569 570 -587 0
569 -570 587 0
569 604 -617 0
569 -604 617 0
570 571 -572 0
570 -571 572 0
-570 -571 -572 0
-570 571 572 0
-571 532 533 0
-571 530 532 0
-571 530 533 0
571 -530 -532 0
571 -532 -533 0
571 -530 -533 0
572 573 -574 0
572 -573 574 0
-572 -573 -574 0
-572 573 574 0
573 -691 -698 0
-573 691 0
-573 698 0
574 -575 576 0
574 575 -576 0
-574 575 576 0
-574 -575 -576 0
575 -690 -699 0
-575 690 0
-575 699 0
-576 577 586 0
-576 -577 -586 0
576 -577 586 0
576 577 -586 0
-577 578 579 0
-577 -578 -579 0
577 -578 579 0
577 578 -579 0
578 -689 -700 0
-578 689 0
-578 700 0
-579 580 585 0
-579 -580 -585 0
579 -580 585 0
579 580 -585 0
-580 581 582 0
-580 -581 -582 0
580 -581 582 0
580 581 -582 0
581 -688 -701 0
-581 688 0
-581 701 0
-582 583 584 0
-582 -583 -584 0
582 -583 584 0
582 583 -584 0
-583 543 545 0
-583 545 546 0
-583 543 546 0
583 -545 -546 0
583 -543 -545 0
583 -543 -546 0
-584 540 542 0
-584 542 547 0
-584 540 547 0
584 -542 -547 0
584 -540 -542 0
584 -540 -547 0
-585 537 539 0
-585 539 548 0
-585 537 548 0
585 -539 -548 0
585 -537 -539 0
585 -537 -548 0
-586 534 536 0
-586 536 549 0
-586 534 549 0
586 -536 -549 0
586 -534 -536 0
586 -534 -549 0
587 -588 589 0
587 588 -589 0
-587 588 589 0
-587 -588 -589 0
-588 551 554 0
-588 553 554 0
-588 553 551 0
588 -553 -554 0
588 -553 -551 0
588 -551 -554 0
-589 590 591 0
-589 -590 -591 0
589 -590 591 0
589 590 -591 0
590 -555 -567 0
-590 555 0
-590 567 0
-591 -592 -603 0
-591 592 603 0
591 592 -603 0
591 -592 603 0
-592 593 602 0
-592 -593 -602 0
592 -593 602 0
592 593 -602 0
-593 -594 -598 0
-593 594 598 0
593 594 -598 0
593 -594 598 0
-594 595 596 0
-594 -595 -596 0
594 -595 596 0
594 595 -596 0
595 -532 -534 0
-595 532 0
-595 534 0
-596 573 597 0
-596 -573 -597 0
596 -573 597 0
596 573 -597 0
-597 537 543 0
-597 540 543 0
-597 537 540 0
597 -537 -540 0
597 -540 -543 0
597 -537 -543 0
598 -599 600 0
598 599 -600 0
-598 599 600 0
-598 -599 -600 0
-599 558 561 0
-599 561 562 0
-599 558 562 0
599 -558 -562 0
599 -561 -562 0
599 -558 -561 0
-600 -575 -601 0
-600 575 601 0
600 575 -601 0
600 -575 601 0
601 578 -581 0
601 -578 581 0
-601 -578 -581 0
-601 578 581 0
-602 557 564 0
-602 564 565 0
-602 557 565 0
602 -564 -565 0
602 -557 -564 0
602 -557 -565 0
603 -556 -566 0
-603 556 0
-603 566 0
604 605 -606 0
604 -605 606 0
-604 -605 -606 0
-604 605 606 0
-605 573 574 0
-605 571 573 0
-605 571 574 0
605 -571 -573 0
605 -573 -574 0
605 -571 -574 0
606 607 -608 0
606 -607 608 0
-606 -607 -608 0
-606 607 608 0
607 -691 -699 0
-607 691 0
-607 699 0
608 -609 610 0
608 609 -610 0
-608 609 610 0
-608 -609 -610 0
609 -690 -700 0
-609 690 0
-609 700 0
-610 611 616 0
-610 -611 -616 0
610 -611 616 0
610 611 -616 0
-611 612 613 0
-611 -612 -613 0
611 -612 613 0
611 612 -613 0
612 -689 -701 0
-612 689 0
-612 701 0
-613 614 615 0
-613 -614 -615 0
613 -614 615 0
613 614 -615 0
-614 581 583 0
-614 583 584 0
-614 581 584 0
614 -583 -584 0
614 -581 -583 0
614 -581 -584 0
-615 578 580 0
-615 580 585 0
-615 578 585 0
615 -580 -585 0
615 -578 -580 0
615 -578 -585 0
-616 575 577 0
-616 577 586 0
-616 575 586 0
616 -577 -586 0
616 -575 -577 0
616 -575 -586 0
617 -618 619 0
617 618 -619 0
-617 618 619 0
-617 -618 -619 0
-618 590 588 0
-618 588 591 0
-618 590 591 0
618 -588 -591 0
618 -590 -588 0
618 -590 -591 0
-619 -620 -630 0
-619 620 630 0
619 620 -630 0
619 -620 630 0
-620 -621 -629 0
-620 621 629 0
620 621 -629 0
620 -621 629 0
-621 622 628 0
-621 -622 -628 0
621 -622 628 0
621 622 -628 0
-622 623 627 0
-622 -623 -627 0
622 -623 627 0
622 623 -627 0
-623 624 626 0
-623 -624 -626 0
623 -624 626 0
623 624 -626 0
-624 -607 -625 0
-624 607 625 0
624 607 -625 0
624 -607 625 0
625 609 -612 0
625 -609 612 0
-625 -609 -612 0
-625 609 612 0
-626 700 581 0
-626 689 575 0
-626 575 581 0
-626 700 575 0
-626 689 581 0
626 -575 -581 0
626 -689 -700 -581 0
626 -689 -700 -575 0
-627 573 597 0
-627 595 573 0
-627 595 597 0
627 -595 -573 0
627 -573 -597 0
627 -595 -597 0
-628 594 599 0
-628 599 600 0
-628 594 600 0
628 -594 -600 0
628 -599 -600 0
628 -594 -599 0
629 -593 -602 0
-629 593 0
-629 602 0
630 -592 -603 0
-630 592 0
-630 603 0
631 632 -633 0
631 -632 633 0
-631 -632 -633 0
-631 632 633 0
-632 607 608 0
-632 605 607 0
-632 605 608 0
632 -605 -607 0
632 -607 -608 0
632 -605 -608 0
633 634 -635 0
633 -634 635 0
-633 -634 -635 0
-633 634 635 0
634 -691 -700 0
-634 691 0
-634 700 0
635 -636 637 0
635 636 -637 0
-635 636 637 0
-635 -636 -637 0
636 -690 -701 0
-636 690 0
-636 701 0
-637 638 639 0
-637 -638 -639 0
637 -638 639 0
637 638 -639 0
-638 612 614 0
-638 614 615 0
-638 612 615 0
638 -614 -615 0
638 -612 -614 0
638 -612 -615 0
-639 609 611 0
-639 611 616 0
-639 609 616 0
639 -611 -616 0
639 -609 -611 0
639 -609 -616 0
640 -641 642 0
640 641 -642 0
-640 641 642 0
-640 -641 -642 0
-641 618 620 0
-641 620 630 0
-641 618 630 0
641 -620 -630 0
641 -618 -620 0
641 -618 -630 0
-642 -643 -652 0
-642 643 652 0
642 643 -652 0
642 -643 652 0
-643 -644 -651 0
-643 644 651 0
643 644 -651 0
643 -644 651 0
-644 -645 -650 0
-644 645 650 0
644 645 -650 0
644 -645 650 0
-645 -646 -649 0
-645 646 649 0
645 646 -649 0
645 -646 649 0
-646 647 648 0
-646 -647 -648 0
646 -647 648 0
646 647 -648 0
647 634 -636 0
647 -634 636 0
-647 -634 -636 0
-647 634 636 0
-648 607 612 0
-648 609 612 0
-648 607 609 0
648 -607 -609 0
648 -609 -612 0
648 -607 -612 0
649 -624 -626 0
-649 624 0
-649 626 0
650 -623 -627 0
-650 623 0
-650 627 0
651 -622 -628 0
-651 622 0
-651 628 0
652 -621 -629 0
-652 621 0
-652 629 0
-653 654 659 672 673 0
-653 -654 -659 -672 -673 0
-653 654 659 -672 -673 0
-653 -654 -659 672 673 0
653 654 -659 0
653 -654 659 0
653 -672 673 0
653 672 -673 0
654 655 -656 0
654 -655 656 0
-654 -655 -656 0
-654 655 656 0
-655 634 635 0
-655 632 634 0
-655 632 635 0
655 -632 -634 0
655 -634 -635 0
655 -632 -635 0
656 -657 658 0
656 657 -658 0
-656 657 658 0
-656 -657 -658 0
657 -691 -701 0
-657 691 0
-657 701 0
-658 636 638 0
-658 638 639 0
-658 636 639 0
658 -638 -639 0
658 -636 -638 0
658 -636 -639 0
659 -660 661 0
659 660 -661 0
-659 660 661 0
-659 -660 -661 0
-660 641 643 0
-660 643 652 0
-660 641 652 0
660 -643 -652 0
660 -641 -643 0
660 -641 -652 0
-661 -662 -671 0
-661 662 671 0
661 662 -671 0
661 -662 671 0
-662 -663 -670 0
-662 663 670 0
662 663 -670 0
662 -663 670 0
-663 -664 -669 0
-663 664 669 0
663 664 -669 0
663 -664 669 0
-664 -665 -668 0
-664 665 668 0
664 665 -668 0
664 -665 668 0
-665 666 0
665 -666 0
666 667 -657 0
-666 -667 0
-666 657 0
667 -634 -636 0
-667 634 0
-667 636 0
668 -647 -648 0
-668 647 0
-668 648 0
669 -646 -649 0
-669 646 0
-669 649 0
670 -645 -650 0
-670 645 0
-670 650 0
671 -644 -651 0
-671 644 0
-671 651 0
-672 655 658 0
-672 655 657 0
-672 657 658 0
672 -657 -658 0
672 -655 -658 0
672 -655 -657 0
673 -674 675 0
673 674 -675 0
-673 674 675 0
-673 -674 -675 0
-674 660 662 0
-674 662 671 0
-674 660 671 0
674 -662 -671 0
674 -660 -662 0
674 -660 -671 0
-675 -676 -681 0
-675 676 681 0
675 676 -681 0
675 -676 681 0
-676 -677 -680 0
-676 677 680 0
676 677 -680 0
676 -677 680 0
-677 -678 -679 0
-677 678 679 0
677 678 -679 0
677 -678 679 0
678 -665 -668 0
-678 665 0
-678 668 0
679 -667 -657 0
-679 667 0
-679 657 0
680 -664 -669 0
-680 664 0
-680 669 0
681 -663 -670 0
-681 663 0
-681 670 0
-702 0
2 0

