c Result of efficient AIG-to-CNF conversion using package CNF
p cnf 30 80
-2 3 0
2 -3 0
-3 -4 -7 -12 -15 0
-3 4 7 -12 -15 0
-3 -4 -7 12 15 0
-3 4 7 12 15 0
3 -4 7 0
3 4 -7 0
3 12 -15 0
3 -12 15 0
-4 27 5 0
-4 22 27 0
-4 22 5 0
4 -22 -27 0
4 -27 -5 0
4 -22 -5 0
-5 21 6 0
-5 26 6 0
-5 21 26 0
5 -21 -26 0
5 -26 -6 0
5 -21 -6 0
6 -20 -25 0
-6 20 0
-6 25 0
-7 8 9 0
7 -8 0
7 -9 0
8 -22 -27 0
-8 22 0
-8 27 0
9 -10 -11 0
-9 10 0
-9 11 0
10 22 -27 0
10 -22 27 0
-10 -22 -27 0
-10 22 27 0
-11 21 6 0
-11 26 6 0
-11 21 26 0
11 -21 -26 0
11 -26 -6 0
11 -21 -6 0
12 -13 14 0
12 13 -14 0
-12 13 14 0
-12 -13 -14 0
13 24 -29 0
13 -24 29 0
-13 -24 -29 0
-13 24 29 0
-14 28 4 0
-14 23 28 0
-14 23 4 0
14 -23 -28 0
14 -28 -4 0
14 -23 -4 0
15 -13 16 0
15 13 -16 0
-15 13 16 0
-15 -13 -16 0
-16 10 18 0
-16 11 18 0
-16 17 18 0
16 -18 0
16 -10 -11 -17 0
17 23 -28 0
17 -23 28 0
-17 -23 -28 0
-17 23 28 0
-18 19 17 0
-18 8 19 0
18 -19 0
18 -8 -17 0
19 -23 -28 0
-19 23 0
-19 28 0
-30 0
2 0

