c Result of efficient AIG-to-CNF conversion using package CNF
p cnf 70 198
2 42 -56 0
2 -42 56 0
-2 -42 -56 0
-2 42 56 0
3 4 -5 0
3 -4 5 0
-3 -4 -5 0
-3 4 5 0
4 -42 -56 0
-4 42 0
-4 56 0
5 43 -57 0
5 -43 57 0
-5 -43 -57 0
-5 43 57 0
6 -7 8 0
6 7 -8 0
-6 7 8 0
-6 -7 -8 0
7 44 -58 0
7 -44 58 0
-7 -44 -58 0
-7 44 58 0
-8 43 4 0
-8 57 4 0
-8 43 57 0
8 -43 -57 0
8 -57 -4 0
8 -43 -4 0
9 -10 11 0
9 10 -11 0
-9 10 11 0
-9 -10 -11 0
10 45 -59 0
10 -45 59 0
-10 -45 -59 0
-10 45 59 0
-11 58 8 0
-11 44 58 0
-11 44 8 0
11 -44 -58 0
11 -58 -8 0
11 -44 -8 0
12 -13 14 0
12 13 -14 0
-12 13 14 0
-12 -13 -14 0
13 46 -60 0
13 -46 60 0
-13 -46 -60 0
-13 46 60 0
-14 59 11 0
-14 45 59 0
-14 45 11 0
14 -45 -59 0
14 -59 -11 0
14 -45 -11 0
15 -16 17 0
15 16 -17 0
-15 16 17 0
-15 -16 -17 0
16 47 -61 0
16 -47 61 0
-16 -47 -61 0
-16 47 61 0
-17 60 14 0
-17 46 60 0
-17 46 14 0
17 -46 -60 0
17 -60 -14 0
17 -46 -14 0
18 -19 20 0
18 19 -20 0
-18 19 20 0
-18 -19 -20 0
19 48 -62 0
19 -48 62 0
-19 -48 -62 0
-19 48 62 0
-20 61 17 0
-20 47 61 0
-20 47 17 0
20 -47 -61 0
20 -61 -17 0
20 -47 -17 0
21 -22 23 0
21 22 -23 0
-21 22 23 0
-21 -22 -23 0
22 49 -63 0
22 -49 63 0
-22 -49 -63 0
-22 49 63 0
-23 62 20 0
-23 48 62 0
-23 48 20 0
23 -48 -62 0
23 -62 -20 0
23 -48 -20 0
24 -25 26 0
24 25 -26 0
-24 25 26 0
-24 -25 -26 0
25 50 -64 0
25 -50 64 0
-25 -50 -64 0
-25 50 64 0
-26 63 23 0
-26 49 63 0
-26 49 23 0
26 -49 -63 0
26 -63 -23 0
26 -49 -23 0
27 -28 29 0
27 28 -29 0
-27 28 29 0
-27 -28 -29 0
28 51 -65 0
28 -51 65 0
-28 -51 -65 0
-28 51 65 0
-29 64 26 0
-29 50 64 0
-29 50 26 0
29 -50 -64 0
29 -64 -26 0
29 -50 -26 0
30 -31 32 0
30 31 -32 0
-30 31 32 0
-30 -31 -32 0
31 52 -66 0
31 -52 66 0
-31 -52 -66 0
-31 52 66 0
-32 65 29 0
-32 51 65 0
-32 51 29 0
32 -51 -65 0
32 -65 -29 0
32 -51 -29 0
33 -34 35 0
33 34 -35 0
-33 34 35 0
-33 -34 -35 0
34 53 -67 0
34 -53 67 0
-34 -53 -67 0
-34 53 67 0
-35 66 32 0
-35 52 66 0
-35 52 32 0
35 -52 -66 0
35 -66 -32 0
35 -52 -32 0
36 -37 38 0
36 37 -38 0
-36 37 38 0
-36 -37 -38 0
37 54 -68 0
37 -54 68 0
-37 -54 -68 0
-37 54 68 0
-38 67 35 0
-38 53 67 0
-38 53 35 0
38 -53 -67 0
38 -67 -35 0
38 -53 -35 0
39 -40 41 0
39 40 -41 0
-39 40 41 0
-39 -40 -41 0
40 55 -69 0
40 -55 69 0
-40 -55 -69 0
-40 55 69 0
-41 68 38 0
-41 54 68 0
-41 54 38 0
41 -54 -68 0
41 -68 -38 0
41 -54 -38 0
-70 0
2 0
3 0
6 0
9 0
12 0
15 0
18 0
21 0
24 0
27 0
30 0
33 0
36 0
39 0

