c Result of efficient AIG-to-CNF conversion using package CNF
p cnf 520 2199
-2 3 32 230 419 0
2 -419 0
2 -3 0
2 -230 0
2 -32 0
-3 4 0
3 -4 0
-4 -5 -24 0
-4 5 24 0
4 5 -24 0
4 -5 24 0
5 6 -7 0
5 -6 7 0
-5 -6 -7 0
-5 6 7 0
6 -505 -511 0
-6 505 0
-6 511 0
7 -8 9 0
7 8 -9 0
-7 8 9 0
-7 -8 -9 0
8 -504 -512 0
-8 504 0
-8 512 0
-9 -10 -19 0
-9 10 19 0
9 10 -19 0
9 -10 19 0
10 -11 -12 0
-10 11 0
-10 12 0
11 -504 -511 0
-11 504 0
-11 511 0
12 -13 14 0
12 13 -14 0
-12 13 14 0
-12 -13 -14 0
13 -503 -512 0
-13 503 0
-13 512 0
-14 -15 -18 0
-14 15 18 0
14 15 -18 0
14 -15 18 0
15 -16 -17 0
-15 16 0
-15 17 0
16 -503 -511 0
-16 503 0
-16 511 0
17 -502 -512 0
-17 502 0
-17 512 0
18 -502 -513 0
-18 502 0
-18 513 0
19 20 -21 0
19 -20 21 0
-19 -20 -21 0
-19 20 21 0
20 -503 -513 0
-20 503 0
-20 513 0
21 -22 23 0
21 22 -23 0
-21 22 23 0
-21 -22 -23 0
22 -502 -514 0
-22 502 0
-22 514 0
-23 15 18 0
-23 13 18 0
-23 15 13 0
23 -15 -13 0
23 -13 -18 0
23 -15 -18 0
24 -25 27 0
24 25 -27 0
-24 25 27 0
-24 -25 -27 0
-25 11 26 0
-25 15 11 0
-25 15 26 0
25 -15 -11 0
25 -11 -26 0
25 -15 -26 0
-26 -13 -18 0
-26 13 18 0
26 13 -18 0
26 -13 18 0
-27 28 29 0
-27 -28 -29 0
27 -28 29 0
27 28 -29 0
28 -13 -18 0
-28 13 0
-28 18 0
-29 -30 -31 0
-29 30 31 0
29 30 -31 0
29 -30 31 0
-30 -20 -22 0
-30 20 22 0
30 20 -22 0
30 -20 22 0
31 6 -8 0
31 -6 8 0
-31 -6 -8 0
-31 6 8 0
-32 33 91 114 130 0
-32 33 -91 -114 130 0
32 -130 0
32 -91 114 0
32 -33 0
32 91 -114 0
-33 34 49 -59 -78 0
-33 -34 -49 -59 -78 0
-33 34 49 59 78 0
-33 -34 -49 59 78 0
33 34 -49 0
33 -34 49 0
33 59 -78 0
33 -59 78 0
34 35 -36 0
34 -35 36 0
-34 -35 -36 0
-34 35 36 0
35 -506 -511 0
-35 506 0
-35 511 0
36 -37 38 0
36 37 -38 0
-36 37 38 0
-36 -37 -38 0
37 -505 -512 0
-37 505 0
-37 512 0
-38 39 40 0
-38 -39 -40 0
38 -39 40 0
38 39 -40 0
39 -6 -7 0
-39 6 0
-39 7 0
-40 41 42 0
-40 -41 -42 0
40 -41 42 0
40 41 -42 0
41 -504 -513 0
-41 504 0
-41 513 0
-42 43 48 0
-42 -43 -48 0
42 -43 48 0
42 43 -48 0
-43 -44 -45 0
-43 44 45 0
43 44 -45 0
43 -44 45 0
44 -503 -514 0
-44 503 0
-44 514 0
45 -46 47 0
45 46 -47 0
-45 46 47 0
-45 -46 -47 0
46 -502 -515 0
-46 502 0
-46 515 0
-47 22 23 0
-47 20 22 0
-47 20 23 0
47 -20 -22 0
47 -22 -23 0
47 -20 -23 0
-48 10 19 0
-48 8 19 0
-48 10 8 0
48 -10 -8 0
48 -8 -19 0
48 -10 -19 0
49 -50 51 0
49 50 -51 0
-49 50 51 0
-49 -50 -51 0
-50 28 25 0
-50 25 29 0
-50 28 29 0
50 -25 -29 0
50 -28 -25 0
50 -28 -29 0
-51 52 58 0
-51 -52 -58 0
51 -52 58 0
51 52 -58 0
-52 -53 -55 0
-52 53 55 0
52 53 -55 0
52 -53 55 0
-53 35 54 0
-53 -35 -54 0
53 -35 54 0
53 35 -54 0
-54 -37 -41 0
-54 37 41 0
54 37 -41 0
54 -37 41 0
55 56 -57 0
55 -56 57 0
-55 -56 -57 0
-55 56 57 0
56 -20 -22 0
-56 20 0
-56 22 0
57 44 -46 0
57 -44 46 0
-57 -44 -46 0
-57 44 46 0
-58 8 30 0
-58 6 8 0
-58 6 30 0
58 -6 -8 0
58 -8 -30 0
58 -6 -30 0
59 60 -61 0
59 -60 61 0
-59 -60 -61 0
-59 60 61 0
60 -507 -511 0
-60 507 0
-60 511 0
61 -62 63 0
61 62 -63 0
-61 62 63 0
-61 -62 -63 0
62 -506 -512 0
-62 506 0
-62 512 0
-63 64 65 0
-63 -64 -65 0
63 -64 65 0
63 64 -65 0
64 -35 -36 0
-64 35 0
-64 36 0
-65 66 67 0
-65 -66 -67 0
65 -66 67 0
65 66 -67 0
66 -505 -513 0
-66 505 0
-66 513 0
-67 68 77 0
-67 -68 -77 0
67 -68 77 0
67 68 -77 0
-68 69 70 0
-68 -69 -70 0
68 -69 70 0
68 69 -70 0
69 -504 -514 0
-69 504 0
-69 514 0
-70 71 76 0
-70 -71 -76 0
70 -71 76 0
70 71 -76 0
-71 -72 -73 0
-71 72 73 0
71 72 -73 0
71 -72 73 0
72 -503 -515 0
-72 503 0
-72 515 0
73 -74 75 0
73 74 -75 0
-73 74 75 0
-73 -74 -75 0
74 -502 -516 0
-74 502 0
-74 516 0
-75 46 47 0
-75 44 46 0
-75 44 47 0
75 -44 -46 0
75 -46 -47 0
75 -44 -47 0
-76 41 43 0
-76 43 48 0
-76 41 48 0
76 -43 -48 0
76 -41 -43 0
76 -41 -48 0
-77 37 40 0
-77 39 37 0
-77 39 40 0
77 -39 -37 0
77 -37 -40 0
77 -39 -40 0
78 79 -80 0
78 -79 80 0
-78 -79 -80 0
-78 79 80 0
-79 50 52 0
-79 52 58 0
-79 50 58 0
79 -50 -58 0
79 -52 -58 0
79 -50 -52 0
80 -81 90 0
80 81 -90 0
-80 81 90 0
-80 -81 -90 0
81 -82 87 0
81 82 -87 0
-81 82 87 0
-81 -82 -87 0
-82 -83 -85 0
-82 83 85 0
82 83 -85 0
82 -83 85 0
-83 -69 -84 0
-83 69 84 0
83 69 -84 0
83 -69 84 0
84 72 -74 0
84 -72 74 0
-84 -72 -74 0
-84 72 74 0
85 86 -60 0
85 -86 60 0
-85 -86 -60 0
-85 86 60 0
86 -44 -46 0
-86 44 0
-86 46 0
-87 -88 -89 0
-87 88 89 0
87 88 -89 0
87 -88 89 0
-88 511 41 0
-88 506 37 0
-88 37 41 0
-88 511 37 0
-88 506 41 0
88 -37 -41 0
88 -506 -511 -41 0
88 -506 -511 -37 0
89 62 -66 0
89 -62 66 0
-89 -62 -66 0
-89 62 66 0
-90 22 57 0
-90 20 53 0
-90 22 53 0
-90 53 57 0
-90 20 57 0
90 -53 -57 0
90 -20 -22 -57 0
90 -20 -22 -53 0
91 92 -93 0
91 -92 93 0
-91 -92 -93 0
-91 92 93 0
92 -508 -511 0
-92 508 0
-92 511 0
93 -94 95 0
93 94 -95 0
-93 94 95 0
-93 -94 -95 0
94 -507 -512 0
-94 507 0
-94 512 0
-95 96 97 0
-95 -96 -97 0
95 -96 97 0
95 96 -97 0
96 -60 -61 0
-96 60 0
-96 61 0
-97 98 99 0
-97 -98 -99 0
97 -98 99 0
97 98 -99 0
98 -506 -513 0
-98 506 0
-98 513 0
-99 100 113 0
-99 -100 -113 0
99 -100 113 0
99 100 -113 0
-100 101 102 0
-100 -101 -102 0
100 -101 102 0
100 101 -102 0
101 -505 -514 0
-101 505 0
-101 514 0
-102 103 112 0
-102 -103 -112 0
102 -103 112 0
102 103 -112 0
-103 104 105 0
-103 -104 -105 0
103 -104 105 0
103 104 -105 0
104 -504 -515 0
-104 504 0
-104 515 0
-105 106 111 0
-105 -106 -111 0
105 -106 111 0
105 106 -111 0
-106 -107 -108 0
-106 107 108 0
106 107 -108 0
106 -107 108 0
107 -503 -516 0
-107 503 0
-107 516 0
108 -109 110 0
108 109 -110 0
-108 109 110 0
-108 -109 -110 0
109 -502 -517 0
-109 502 0
-109 517 0
-110 74 75 0
-110 72 74 0
-110 72 75 0
110 -72 -74 0
110 -74 -75 0
110 -72 -75 0
-111 69 71 0
-111 71 76 0
-111 69 76 0
111 -71 -76 0
111 -69 -71 0
111 -69 -76 0
-112 66 68 0
-112 68 77 0
-112 66 77 0
112 -68 -77 0
112 -66 -68 0
112 -66 -77 0
-113 62 65 0
-113 64 62 0
-113 64 65 0
113 -64 -62 0
113 -62 -65 0
113 -64 -65 0
114 -115 116 0
114 115 -116 0
-114 115 116 0
-114 -115 -116 0
-115 79 90 0
-115 79 81 0
-115 81 90 0
115 -81 -90 0
115 -79 -90 0
115 -79 -81 0
-116 117 129 0
-116 -117 -129 0
116 -117 129 0
116 117 -129 0
117 -118 124 0
117 118 -124 0
-117 118 124 0
-117 -118 -124 0
-118 -119 -121 0
-118 119 121 0
118 119 -121 0
118 -119 121 0
-119 -98 -120 0
-119 98 120 0
119 98 -120 0
119 -98 120 0
120 101 -104 0
120 -101 104 0
-120 -101 -104 0
-120 101 104 0
121 -122 123 0
121 122 -123 0
-121 122 123 0
-121 -122 -123 0
122 -62 -66 0
-122 62 0
-122 66 0
-123 516 72 0
-123 502 69 0
-123 69 72 0
-123 516 69 0
-123 502 72 0
123 -69 -72 0
123 -502 -516 -72 0
123 -502 -516 -69 0
-124 -125 -126 0
-124 125 126 0
124 125 -126 0
124 -125 126 0
-125 60 83 0
-125 86 60 0
-125 86 83 0
125 -86 -60 0
125 -60 -83 0
125 -86 -83 0
126 127 -128 0
126 -127 128 0
-126 -127 -128 0
-126 127 128 0
127 107 -109 0
127 -107 109 0
-127 -107 -109 0
-127 107 109 0
128 92 -94 0
128 -92 94 0
-128 -92 -94 0
-128 92 94 0
-129 82 88 0
-129 88 89 0
-129 82 89 0
129 -88 -89 0
129 -82 -88 0
129 -82 -89 0
-130 131 159 -177 -208 0
-130 -131 -159 -177 -208 0
-130 131 159 177 208 0
-130 -131 -159 177 208 0
130 131 -159 0
130 -131 159 0
130 177 -208 0
130 -177 208 0
131 132 -133 0
131 -132 133 0
-131 -132 -133 0
-131 132 133 0
132 -509 -511 0
-132 509 0
-132 511 0
133 -134 135 0
133 134 -135 0
-133 134 135 0
-133 -134 -135 0
134 -508 -512 0
-134 508 0
-134 512 0
-135 136 137 0
-135 -136 -137 0
135 -136 137 0
135 136 -137 0
136 -92 -93 0
-136 92 0
-136 93 0
-137 138 139 0
-137 -138 -139 0
137 -138 139 0
137 138 -139 0
138 -507 -513 0
-138 507 0
-138 513 0
-139 140 158 0
-139 -140 -158 0
139 -140 158 0
139 140 -158 0
-140 141 142 0
-140 -141 -142 0
140 -141 142 0
140 141 -142 0
141 -506 -514 0
-141 506 0
-141 514 0
-142 143 157 0
-142 -143 -157 0
142 -143 157 0
142 143 -157 0
-143 144 145 0
-143 -144 -145 0
143 -144 145 0
143 144 -145 0
144 -505 -515 0
-144 505 0
-144 515 0
-145 146 156 0
-145 -146 -156 0
145 -146 156 0
145 146 -156 0
-146 147 148 0
-146 -147 -148 0
146 -147 148 0
146 147 -148 0
147 -504 -516 0
-147 504 0
-147 516 0
-148 149 155 0
-148 -149 -155 0
148 -149 155 0
148 149 -155 0
-149 -150 -151 0
-149 150 151 0
149 150 -151 0
149 -150 151 0
150 -503 -517 0
-150 503 0
-150 517 0
151 -152 153 0
151 152 -153 0
-151 152 153 0
-151 -152 -153 0
152 -502 -518 0
-152 502 0
-152 518 0
-153 110 154 0
-153 107 109 154 0
153 -154 0
153 -109 -110 0
153 -107 -110 0
154 -107 -109 0
-154 107 0
-154 109 0
-155 104 106 0
-155 106 111 0
-155 104 111 0
155 -106 -111 0
155 -104 -106 0
155 -104 -111 0
-156 101 103 0
-156 103 112 0
-156 101 112 0
156 -103 -112 0
156 -101 -103 0
156 -101 -112 0
-157 98 100 0
-157 100 113 0
-157 98 113 0
157 -100 -113 0
157 -98 -100 0
157 -98 -113 0
-158 94 97 0
-158 96 94 0
-158 96 97 0
158 -96 -94 0
158 -94 -97 0
158 -96 -97 0
159 160 -161 0
159 -160 161 0
-159 -160 -161 0
-159 160 161 0
-160 115 129 0
-160 115 117 0
-160 117 129 0
160 -117 -129 0
160 -115 -129 0
160 -115 -117 0
161 -162 176 0
161 162 -176 0
-161 162 176 0
-161 -162 -176 0
162 -163 169 0
162 163 -169 0
-162 163 169 0
-162 -163 -169 0
-163 -164 -166 0
-163 164 166 0
163 164 -166 0
163 -164 166 0
-164 -132 -165 0
-164 132 165 0
164 132 -165 0
164 -132 165 0
165 134 -138 0
165 -134 138 0
-165 -134 -138 0
-165 134 138 0
166 -167 168 0
166 167 -168 0
-166 167 168 0
-166 -167 -168 0
-167 511 127 0
-167 508 94 0
-167 94 127 0
-167 511 94 0
-167 508 127 0
167 -94 -127 0
167 -508 -511 -127 0
167 -508 -511 -94 0
-168 98 104 0
-168 101 104 0
-168 98 101 0
168 -98 -101 0
168 -101 -104 0
168 -98 -104 0
-169 -170 -171 0
-169 170 171 0
169 170 -171 0
169 -170 171 0
-170 122 119 0
-170 119 123 0
-170 122 123 0
170 -119 -123 0
170 -122 -119 0
170 -122 -123 0
171 -172 173 0
171 172 -173 0
-171 172 173 0
-171 -172 -173 0
172 141 -144 0
172 -141 144 0
-172 -141 -144 0
-172 141 144 0
-173 154 174 0
-173 -154 -174 0
173 -154 174 0
173 154 -174 0
-174 -147 -175 0
-174 147 175 0
174 147 -175 0
174 -147 175 0
175 150 -152 0
175 -150 152 0
-175 -150 -152 0
-175 150 152 0
-176 118 125 0
-176 125 126 0
-176 118 126 0
176 -125 -126 0
176 -118 -125 0
176 -118 -126 0
177 178 -179 0
177 -178 179 0
-177 -178 -179 0
-177 178 179 0
178 -510 -511 0
-178 510 0
-178 511 0
179 180 -181 0
179 -180 181 0
-179 -180 -181 0
-179 180 181 0
180 -509 -512 0
-180 509 0
-180 512 0
181 182 -183 0
181 -182 183 0
-181 -182 -183 0
-181 182 183 0
182 -132 -133 0
-182 132 0
-182 133 0
183 -184 185 0
183 184 -185 0
-183 184 185 0
-183 -184 -185 0
184 -508 -513 0
-184 508 0
-184 513 0
-185 186 207 0
-185 -186 -207 0
185 -186 207 0
185 186 -207 0
-186 187 188 0
-186 -187 -188 0
186 -187 188 0
186 187 -188 0
187 -507 -514 0
-187 507 0
-187 514 0
-188 189 206 0
-188 -189 -206 0
188 -189 206 0
188 189 -206 0
-189 190 191 0
-189 -190 -191 0
189 -190 191 0
189 190 -191 0
190 -506 -515 0
-190 506 0
-190 515 0
-191 192 205 0
-191 -192 -205 0
191 -192 205 0
191 192 -205 0
-192 193 194 0
-192 -193 -194 0
192 -193 194 0
192 193 -194 0
193 -505 -516 0
-193 505 0
-193 516 0
-194 195 204 0
-194 -195 -204 0
194 -195 204 0
194 195 -204 0
-195 196 197 0
-195 -196 -197 0
195 -196 197 0
195 196 -197 0
196 -504 -517 0
-196 504 0
-196 517 0
-197 198 203 0
-197 -198 -203 0
197 -198 203 0
197 198 -203 0
-198 -199 -200 0
-198 199 200 0
198 199 -200 0
198 -199 200 0
199 -503 -518 0
-199 503 0
-199 518 0
200 -201 202 0
200 201 -202 0
-200 201 202 0
-200 -201 -202 0
201 -502 -519 0
-201 502 0
-201 519 0
-202 152 153 0
-202 150 152 0
-202 150 153 0
202 -150 -152 0
202 -152 -153 0
202 -150 -153 0
-203 147 149 0
-203 149 155 0
-203 147 155 0
203 -149 -155 0
203 -147 -149 0
203 -147 -155 0
-204 144 146 0
-204 146 156 0
-204 144 156 0
204 -146 -156 0
204 -144 -146 0
204 -144 -156 0
-205 141 143 0
-205 143 157 0
-205 141 157 0
205 -143 -157 0
205 -141 -143 0
205 -141 -157 0
-206 138 140 0
-206 140 158 0
-206 138 158 0
206 -140 -158 0
206 -138 -140 0
206 -138 -158 0
-207 134 137 0
-207 136 134 0
-207 136 137 0
207 -136 -134 0
207 -134 -137 0
207 -136 -137 0
208 209 -210 0
208 -209 210 0
-208 -209 -210 0
-208 209 210 0
-209 160 176 0
-209 160 162 0
-209 162 176 0
209 -162 -176 0
209 -160 -176 0
209 -160 -162 0
210 -211 229 0
210 211 -229 0
-210 211 229 0
-210 -211 -229 0
211 -212 220 0
211 212 -220 0
-211 212 220 0
-211 -212 -220 0
-212 -213 -217 0
-212 213 217 0
212 213 -217 0
212 -213 217 0
-213 214 215 0
-213 -214 -215 0
213 -214 215 0
213 214 -215 0
214 -141 -144 0
-214 141 0
-214 144 0
-215 178 216 0
-215 -178 -216 0
215 -178 216 0
215 178 -216 0
-216 518 150 0
-216 502 147 0
-216 147 150 0
-216 518 147 0
-216 502 150 0
216 -147 -150 0
216 -502 -518 -150 0
216 -502 -518 -147 0
217 -218 219 0
217 218 -219 0
-217 218 219 0
-217 -218 -219 0
-218 172 174 0
-218 154 172 0
-218 154 174 0
218 -154 -172 0
218 -172 -174 0
218 -154 -174 0
-219 132 138 0
-219 134 138 0
-219 132 134 0
219 -132 -134 0
219 -134 -138 0
219 -132 -138 0
-220 -221 -222 0
-220 221 222 0
220 221 -222 0
220 -221 222 0
-221 164 167 0
-221 167 168 0
-221 164 168 0
221 -164 -168 0
221 -167 -168 0
221 -164 -167 0
222 223 -224 0
222 -223 224 0
-222 -223 -224 0
-222 223 224 0
223 180 -184 0
223 -180 184 0
-223 -180 -184 0
-223 180 184 0
224 -225 227 0
224 225 -227 0
-224 225 227 0
-224 -225 -227 0
-225 -187 -226 0
-225 187 226 0
225 187 -226 0
225 -187 226 0
226 190 -193 0
226 -190 193 0
-226 -190 -193 0
-226 190 193 0
-227 -196 -228 0
-227 196 228 0
227 196 -228 0
227 -196 228 0
228 199 -201 0
228 -199 201 0
-228 -199 -201 0
-228 199 201 0
-229 163 170 0
-229 170 171 0
-229 163 171 0
229 -170 -171 0
229 -163 -170 0
229 -163 -171 0
-230 231 337 362 381 0
-230 231 -337 -362 381 0
230 -381 0
230 -337 362 0
230 -231 0
230 337 -362 0
-231 232 263 -286 -315 0
-231 -232 -263 -286 -315 0
-231 232 263 286 315 0
-231 -232 -263 286 315 0
231 232 -263 0
231 -232 263 0
231 286 -315 0
231 -286 315 0
232 -233 234 0
232 233 -234 0
-232 233 234 0
-232 -233 -234 0
233 -510 -512 0
-233 510 0
-233 512 0
-234 235 236 0
-234 -235 -236 0
234 -235 236 0
234 235 -236 0
235 -509 -513 0
-235 509 0
-235 513 0
-236 237 238 0
-236 -237 -238 0
236 -237 238 0
236 237 -238 0
237 -178 -179 0
-237 178 0
-237 179 0
-238 239 240 0
-238 -239 -240 0
238 -239 240 0
238 239 -240 0
239 -508 -514 0
-239 508 0
-239 514 0
-240 241 262 0
-240 -241 -262 0
240 -241 262 0
240 241 -262 0
-241 242 243 0
-241 -242 -243 0
241 -242 243 0
241 242 -243 0
242 -507 -515 0
-242 507 0
-242 515 0
-243 244 261 0
-243 -244 -261 0
243 -244 261 0
243 244 -261 0
-244 245 246 0
-244 -245 -246 0
244 -245 246 0
244 245 -246 0
245 -506 -516 0
-245 506 0
-245 516 0
-246 247 260 0
-246 -247 -260 0
246 -247 260 0
246 247 -260 0
-247 248 249 0
-247 -248 -249 0
247 -248 249 0
247 248 -249 0
248 -505 -517 0
-248 505 0
-248 517 0
-249 250 259 0
-249 -250 -259 0
249 -250 259 0
249 250 -259 0
-250 251 252 0
-250 -251 -252 0
250 -251 252 0
250 251 -252 0
251 -504 -518 0
-251 504 0
-251 518 0
-252 253 258 0
-252 -253 -258 0
252 -253 258 0
252 253 -258 0
-253 254 255 0
-253 -254 -255 0
253 -254 255 0
253 254 -255 0
254 -503 -519 0
-254 503 0
-254 519 0
-255 256 257 0
-255 -256 -257 0
255 -256 257 0
255 256 -257 0
-256 201 202 0
-256 199 201 0
-256 199 202 0
256 -199 -201 0
256 -201 -202 0
256 -199 -202 0
-257 196 198 0
-257 198 203 0
-257 196 203 0
257 -198 -203 0
257 -196 -198 0
257 -196 -203 0
-258 193 195 0
-258 195 204 0
-258 193 204 0
258 -195 -204 0
258 -193 -195 0
258 -193 -204 0
-259 190 192 0
-259 192 205 0
-259 190 205 0
259 -192 -205 0
259 -190 -192 0
259 -190 -205 0
-260 187 189 0
-260 189 206 0
-260 187 206 0
260 -189 -206 0
260 -187 -189 0
260 -187 -206 0
-261 184 186 0
-261 186 207 0
-261 184 207 0
261 -186 -207 0
261 -184 -186 0
261 -184 -207 0
-262 182 183 0
-262 180 183 0
-262 182 180 0
262 -182 -180 0
262 -180 -183 0
262 -182 -183 0
263 264 -265 0
263 -264 265 0
-263 -264 -265 0
-263 264 265 0
-264 209 229 0
-264 209 211 0
-264 211 229 0
264 -211 -229 0
264 -209 -229 0
264 -209 -211 0
265 -266 285 0
265 266 -285 0
-265 266 285 0
-265 -266 -285 0
266 -267 276 0
266 267 -276 0
-266 267 276 0
-266 -267 -276 0
-267 -268 -273 0
-267 268 273 0
267 268 -273 0
267 -268 273 0
-268 269 270 0
-268 -269 -270 0
268 -269 270 0
268 269 -270 0
269 -180 -184 0
-269 180 0
-269 184 0
-270 271 272 0
-270 -271 -272 0
270 -271 272 0
270 271 -272 0
-271 187 193 0
-271 190 193 0
-271 187 190 0
271 -187 -190 0
271 -190 -193 0
271 -187 -193 0
-272 519 199 0
-272 502 196 0
-272 196 199 0
-272 519 196 0
-272 502 199 0
272 -196 -199 0
272 -502 -519 -199 0
272 -502 -519 -196 0
273 -274 275 0
273 274 -275 0
-273 274 275 0
-273 -274 -275 0
-274 223 225 0
-274 225 227 0
-274 223 227 0
274 -225 -227 0
274 -223 -225 0
274 -223 -227 0
-275 178 216 0
-275 214 178 0
-275 214 216 0
275 -214 -178 0
275 -178 -216 0
275 -214 -216 0
-276 -277 -278 0
-276 277 278 0
276 277 -278 0
276 -277 278 0
-277 213 218 0
-277 218 219 0
-277 213 219 0
277 -213 -219 0
277 -218 -219 0
277 -213 -218 0
278 279 -280 0
278 -279 280 0
-278 -279 -280 0
-278 279 280 0
279 233 -235 0
279 -233 235 0
-279 -233 -235 0
-279 233 235 0
280 -281 283 0
280 281 -283 0
-280 281 283 0
-280 -281 -283 0
-281 -239 -282 0
-281 239 282 0
281 239 -282 0
281 -239 282 0
282 242 -245 0
282 -242 245 0
-282 -242 -245 0
-282 242 245 0
-283 -248 -284 0
-283 248 284 0
283 248 -284 0
283 -248 284 0
284 251 -254 0
284 -251 254 0
-284 -251 -254 0
-284 251 254 0
-285 212 221 0
-285 221 222 0
-285 212 222 0
285 -221 -222 0
285 -212 -221 0
285 -212 -222 0
286 287 -288 0
286 -287 288 0
-286 -287 -288 0
-286 287 288 0
287 -233 -234 0
-287 233 0
-287 234 0
288 289 -290 0
288 -289 290 0
-288 -289 -290 0
-288 289 290 0
289 -510 -513 0
-289 510 0
-289 513 0
290 -291 292 0
290 291 -292 0
-290 291 292 0
-290 -291 -292 0
291 -509 -514 0
-291 509 0
-291 514 0
-292 293 314 0
-292 -293 -314 0
292 -293 314 0
292 293 -314 0
-293 294 295 0
-293 -294 -295 0
293 -294 295 0
293 294 -295 0
294 -508 -515 0
-294 508 0
-294 515 0
-295 296 313 0
-295 -296 -313 0
295 -296 313 0
295 296 -313 0
-296 297 298 0
-296 -297 -298 0
296 -297 298 0
296 297 -298 0
297 -507 -516 0
-297 507 0
-297 516 0
-298 299 312 0
-298 -299 -312 0
298 -299 312 0
298 299 -312 0
-299 300 301 0
-299 -300 -301 0
299 -300 301 0
299 300 -301 0
300 -506 -517 0
-300 506 0
-300 517 0
-301 302 311 0
-301 -302 -311 0
301 -302 311 0
301 302 -311 0
-302 303 304 0
-302 -303 -304 0
302 -303 304 0
302 303 -304 0
303 -505 -518 0
-303 505 0
-303 518 0
-304 305 310 0
-304 -305 -310 0
304 -305 310 0
304 305 -310 0
-305 306 307 0
-305 -306 -307 0
305 -306 307 0
305 306 -307 0
306 -504 -519 0
-306 504 0
-306 519 0
-307 308 309 0
-307 -308 -309 0
307 -308 309 0
307 308 -309 0
-308 254 256 0
-308 256 257 0
-308 254 257 0
308 -256 -257 0
308 -254 -256 0
308 -254 -257 0
-309 251 253 0
-309 253 258 0
-309 251 258 0
309 -253 -258 0
309 -251 -253 0
309 -251 -258 0
-310 248 250 0
-310 250 259 0
-310 248 259 0
310 -250 -259 0
310 -248 -250 0
310 -248 -259 0
-311 245 247 0
-311 247 260 0
-311 245 260 0
311 -247 -260 0
311 -245 -247 0
311 -245 -260 0
-312 242 244 0
-312 244 261 0
-312 242 261 0
312 -244 -261 0
312 -242 -244 0
312 -242 -261 0
-313 239 241 0
-313 241 262 0
-313 239 262 0
313 -241 -262 0
313 -239 -241 0
313 -239 -262 0
-314 235 238 0
-314 237 235 0
-314 237 238 0
314 -237 -235 0
314 -235 -238 0
314 -237 -238 0
315 316 -317 0
315 -316 317 0
-315 -316 -317 0
-315 316 317 0
-316 264 285 0
-316 264 266 0
-316 266 285 0
316 -266 -285 0
316 -264 -285 0
316 -264 -266 0
317 -318 336 0
317 318 -336 0
-317 318 336 0
-317 -318 -336 0
318 -319 327 0
318 319 -327 0
-318 319 327 0
-318 -319 -327 0
-319 -320 -324 0
-319 320 324 0
319 320 -324 0
319 -320 324 0
-320 321 322 0
-320 -321 -322 0
320 -321 322 0
320 321 -322 0
-321 239 245 0
-321 242 245 0
-321 239 242 0
321 -239 -242 0
321 -242 -245 0
321 -239 -245 0
-322 289 323 0
-322 -289 -323 0
322 -289 323 0
322 289 -323 0
-323 248 254 0
-323 251 254 0
-323 248 251 0
323 -248 -251 0
323 -251 -254 0
323 -248 -254 0
324 -325 326 0
324 325 -326 0
-324 325 326 0
-324 -325 -326 0
-325 279 281 0
-325 281 283 0
-325 279 283 0
325 -281 -283 0
325 -279 -281 0
325 -279 -283 0
-326 269 271 0
-326 271 272 0
-326 269 272 0
326 -271 -272 0
326 -269 -271 0
326 -269 -272 0
-327 -328 -329 0
-327 328 329 0
327 328 -329 0
327 -328 329 0
-328 268 274 0
-328 274 275 0
-328 268 275 0
328 -268 -275 0
328 -274 -275 0
328 -268 -274 0
329 -330 332 0
329 330 -332 0
-329 330 332 0
-329 -330 -332 0
-330 -291 -331 0
-330 291 331 0
330 291 -331 0
330 -291 331 0
331 294 -297 0
331 -294 297 0
-331 -294 -297 0
-331 294 297 0
-332 333 334 0
-332 -333 -334 0
332 -333 334 0
332 333 -334 0
333 -233 -235 0
-333 233 0
-333 235 0
-334 -300 -335 0
-334 300 335 0
334 300 -335 0
334 -300 335 0
335 303 -306 0
335 -303 306 0
-335 -303 -306 0
-335 303 306 0
-336 267 277 0
-336 277 278 0
-336 267 278 0
336 -277 -278 0
336 -267 -277 0
336 -267 -278 0
337 338 -339 0
337 -338 339 0
-337 -338 -339 0
-337 338 339 0
-338 287 290 0
-338 289 290 0
-338 287 289 0
338 -287 -289 0
338 -289 -290 0
338 -287 -290 0
339 340 -341 0
339 -340 341 0
-339 -340 -341 0
-339 340 341 0
340 -510 -514 0
-340 510 0
-340 514 0
341 -342 343 0
341 342 -343 0
-341 342 343 0
-341 -342 -343 0
342 -509 -515 0
-342 509 0
-342 515 0
-343 344 361 0
-343 -344 -361 0
343 -344 361 0
343 344 -361 0
-344 345 346 0
-344 -345 -346 0
344 -345 346 0
344 345 -346 0
345 -508 -516 0
-345 508 0
-345 516 0
-346 347 360 0
-346 -347 -360 0
346 -347 360 0
346 347 -360 0
-347 348 349 0
-347 -348 -349 0
347 -348 349 0
347 348 -349 0
348 -507 -517 0
-348 507 0
-348 517 0
-349 350 359 0
-349 -350 -359 0
349 -350 359 0
349 350 -359 0
-350 351 352 0
-350 -351 -352 0
350 -351 352 0
350 351 -352 0
351 -506 -518 0
-351 506 0
-351 518 0
-352 353 358 0
-352 -353 -358 0
352 -353 358 0
352 353 -358 0
-353 354 355 0
-353 -354 -355 0
353 -354 355 0
353 354 -355 0
354 -505 -519 0
-354 505 0
-354 519 0
-355 356 357 0
-355 -356 -357 0
355 -356 357 0
355 356 -357 0
-356 306 308 0
-356 308 309 0
-356 306 309 0
356 -308 -309 0
356 -306 -308 0
356 -306 -309 0
-357 303 305 0
-357 305 310 0
-357 303 310 0
357 -305 -310 0
357 -303 -305 0
357 -303 -310 0
-358 300 302 0
-358 302 311 0
-358 300 311 0
358 -302 -311 0
358 -300 -302 0
358 -300 -311 0
-359 297 299 0
-359 299 312 0
-359 297 312 0
359 -299 -312 0
359 -297 -299 0
359 -297 -312 0
-360 294 296 0
-360 296 313 0
-360 294 313 0
360 -296 -313 0
360 -294 -296 0
360 -294 -313 0
-361 291 293 0
-361 293 314 0
-361 291 314 0
361 -293 -314 0
361 -291 -293 0
361 -291 -314 0
362 -363 364 0
362 363 -364 0
-362 363 364 0
-362 -363 -364 0
-363 316 336 0
-363 316 318 0
-363 318 336 0
363 -318 -336 0
363 -316 -336 0
363 -316 -318 0
-364 365 380 0
-364 -365 -380 0
364 -365 380 0
364 365 -380 0
365 -366 372 0
365 366 -372 0
-365 366 372 0
-365 -366 -372 0
-366 -367 -369 0
-366 367 369 0
366 367 -369 0
366 -367 369 0
-367 -340 -368 0
-367 340 368 0
367 340 -368 0
367 -340 368 0
368 342 -345 0
368 -342 345 0
-368 -342 -345 0
-368 342 345 0
369 -370 371 0
369 370 -371 0
-369 370 371 0
-369 -370 -371 0
-370 333 330 0
-370 330 334 0
-370 333 334 0
370 -330 -334 0
370 -333 -330 0
370 -333 -334 0
-371 289 321 0
-371 321 323 0
-371 289 323 0
371 -321 -323 0
371 -289 -321 0
371 -289 -323 0
-372 -373 -374 0
-372 373 374 0
372 373 -374 0
372 -373 374 0
-373 320 325 0
-373 325 326 0
-373 320 326 0
373 -320 -326 0
373 -325 -326 0
373 -320 -325 0
374 -375 377 0
374 375 -377 0
-374 375 377 0
-374 -375 -377 0
-375 -348 -376 0
-375 348 376 0
375 348 -376 0
375 -348 376 0
376 351 -354 0
376 -351 354 0
-376 -351 -354 0
-376 351 354 0
-377 378 379 0
-377 -378 -379 0
377 -378 379 0
377 378 -379 0
-378 515 297 0
-378 508 291 0
-378 291 297 0
-378 515 291 0
-378 508 297 0
378 -291 -297 0
378 -508 -515 -297 0
378 -508 -515 -291 0
-379 518 306 0
-379 505 300 0
-379 300 306 0
-379 518 300 0
-379 505 306 0
379 -300 -306 0
379 -505 -518 -306 0
379 -505 -518 -300 0
-380 319 328 0
-380 328 329 0
-380 319 329 0
380 -328 -329 0
380 -319 -328 0
380 -319 -329 0
-381 -382 -403 0
-381 382 403 0
381 382 -403 0
381 -382 403 0
382 383 -384 0
382 -383 384 0
-382 -383 -384 0
-382 383 384 0
-383 340 341 0
-383 338 340 0
-383 338 341 0
383 -338 -340 0
383 -340 -341 0
383 -338 -341 0
384 385 -386 0
384 -385 386 0
-384 -385 -386 0
-384 385 386 0
385 -510 -515 0
-385 510 0
-385 515 0
386 -387 388 0
386 387 -388 0
-386 387 388 0
-386 -387 -388 0
387 -509 -516 0
-387 509 0
-387 516 0
-388 389 402 0
-388 -389 -402 0
388 -389 402 0
388 389 -402 0
-389 390 391 0
-389 -390 -391 0
389 -390 391 0
389 390 -391 0
390 -508 -517 0
-390 508 0
-390 517 0
-391 392 401 0
-391 -392 -401 0
391 -392 401 0
391 392 -401 0
-392 393 394 0
-392 -393 -394 0
392 -393 394 0
392 393 -394 0
393 -507 -518 0
-393 507 0
-393 518 0
-394 395 400 0
-394 -395 -400 0
394 -395 400 0
394 395 -400 0
-395 396 397 0
-395 -396 -397 0
395 -396 397 0
395 396 -397 0
396 -506 -519 0
-396 506 0
-396 519 0
-397 398 399 0
-397 -398 -399 0
397 -398 399 0
397 398 -399 0
-398 354 356 0
-398 356 357 0
-398 354 357 0
398 -356 -357 0
398 -354 -356 0
398 -354 -357 0
-399 351 353 0
-399 353 358 0
-399 351 358 0
399 -353 -358 0
399 -351 -353 0
399 -351 -358 0
-400 348 350 0
-400 350 359 0
-400 348 359 0
400 -350 -359 0
400 -348 -350 0
400 -348 -359 0
-401 345 347 0
-401 347 360 0
-401 345 360 0
401 -347 -360 0
401 -345 -347 0
401 -345 -360 0
-402 342 344 0
-402 344 361 0
-402 342 361 0
402 -344 -361 0
402 -342 -344 0
402 -342 -361 0
403 -404 405 0
403 404 -405 0
-403 404 405 0
-403 -404 -405 0
-404 363 380 0
-404 363 365 0
-404 365 380 0
404 -365 -380 0
404 -363 -380 0
404 -363 -365 0
-405 406 418 0
-405 -406 -418 0
405 -406 418 0
405 406 -418 0
406 -407 413 0
406 407 -413 0
-406 407 413 0
-406 -407 -413 0
-407 -408 -410 0
-407 408 410 0
407 408 -410 0
407 -408 410 0
-408 -390 -409 0
-408 390 409 0
408 390 -409 0
408 -390 409 0
409 393 -396 0
409 -393 396 0
-409 -393 -396 0
-409 393 396 0
410 -411 412 0
410 411 -412 0
-410 411 412 0
-410 -411 -412 0
-411 375 378 0
-411 378 379 0
-411 375 379 0
411 -375 -379 0
411 -378 -379 0
411 -375 -378 0
-412 340 345 0
-412 342 345 0
-412 340 342 0
412 -340 -342 0
412 -342 -345 0
412 -340 -345 0
-413 -414 -415 0
-413 414 415 0
413 414 -415 0
413 -414 415 0
-414 367 370 0
-414 370 371 0
-414 367 371 0
414 -367 -371 0
414 -370 -371 0
414 -367 -370 0
415 416 -417 0
415 -416 417 0
-415 -416 -417 0
-415 416 417 0
-416 518 354 0
-416 506 348 0
-416 348 354 0
-416 518 348 0
-416 506 354 0
416 -348 -354 0
416 -506 -518 -354 0
416 -506 -518 -348 0
417 385 -387 0
417 -385 387 0
-417 -385 -387 0
-417 385 387 0
-418 366 373 0
-418 373 374 0
-418 366 374 0
418 -373 -374 0
418 -366 -373 0
418 -366 -374 0
-419 420 474 483 490 0
-419 420 -474 -483 490 0
419 -490 0
419 -474 483 0
419 -420 0
419 474 -483 0
-420 421 438 -451 -464 0
-420 -421 -438 -451 -464 0
-420 421 438 451 464 0
-420 -421 -438 451 464 0
420 421 -438 0
420 -421 438 0
420 451 -464 0
420 -451 464 0
421 422 -423 0
421 -422 423 0
-421 -422 -423 0
-421 422 423 0
-422 385 386 0
-422 383 385 0
-422 383 386 0
422 -383 -385 0
422 -385 -386 0
422 -383 -386 0
423 424 -425 0
423 -424 425 0
-423 -424 -425 0
-423 424 425 0
424 -510 -516 0
-424 510 0
-424 516 0
425 -426 427 0
425 426 -427 0
-425 426 427 0
-425 -426 -427 0
426 -509 -517 0
-426 509 0
-426 517 0
-427 428 437 0
-427 -428 -437 0
427 -428 437 0
427 428 -437 0
-428 429 430 0
-428 -429 -430 0
428 -429 430 0
428 429 -430 0
429 -508 -518 0
-429 508 0
-429 518 0
-430 431 436 0
-430 -431 -436 0
430 -431 436 0
430 431 -436 0
-431 432 433 0
-431 -432 -433 0
431 -432 433 0
431 432 -433 0
432 -507 -519 0
-432 507 0
-432 519 0
-433 434 435 0
-433 -434 -435 0
433 -434 435 0
433 434 -435 0
-434 396 398 0
-434 398 399 0
-434 396 399 0
434 -398 -399 0
434 -396 -398 0
434 -396 -399 0
-435 393 395 0
-435 395 400 0
-435 393 400 0
435 -395 -400 0
435 -393 -395 0
435 -393 -400 0
-436 390 392 0
-436 392 401 0
-436 390 401 0
436 -392 -401 0
436 -390 -392 0
436 -390 -401 0
-437 387 389 0
-437 389 402 0
-437 387 402 0
437 -389 -402 0
437 -387 -389 0
437 -387 -402 0
438 -439 440 0
438 439 -440 0
-438 439 440 0
-438 -439 -440 0
-439 404 418 0
-439 404 406 0
-439 406 418 0
439 -406 -418 0
439 -404 -418 0
439 -404 -406 0
-440 441 450 0
-440 -441 -450 0
440 -441 450 0
440 441 -450 0
441 -442 446 0
441 442 -446 0
-441 442 446 0
-441 -442 -446 0
-442 -443 -444 0
-442 443 444 0
442 443 -444 0
442 -443 444 0
-443 387 416 0
-443 385 387 0
-443 385 416 0
443 -385 -387 0
443 -387 -416 0
443 -385 -416 0
444 -424 445 0
444 424 -445 0
-444 424 445 0
-444 -424 -445 0
-445 390 396 0
-445 393 396 0
-445 390 393 0
445 -390 -393 0
445 -393 -396 0
445 -390 -396 0
-446 -447 -448 0
-446 447 448 0
446 447 -448 0
446 -447 448 0
-447 408 411 0
-447 411 412 0
-447 408 412 0
447 -408 -412 0
447 -411 -412 0
447 -408 -411 0
448 426 -449 0
448 -426 449 0
-448 -426 -449 0
-448 426 449 0
449 429 -432 0
449 -429 432 0
-449 -429 -432 0
-449 429 432 0
-450 407 414 0
-450 414 415 0
-450 407 415 0
450 -414 -415 0
450 -407 -414 0
450 -407 -415 0
451 452 -453 0
451 -452 453 0
-451 -452 -453 0
-451 452 453 0
-452 424 425 0
-452 422 424 0
-452 422 425 0
452 -422 -424 0
452 -424 -425 0
452 -422 -425 0
453 454 -455 0
453 -454 455 0
-453 -454 -455 0
-453 454 455 0
454 -510 -517 0
-454 510 0
-454 517 0
455 -456 457 0
455 456 -457 0
-455 456 457 0
-455 -456 -457 0
456 -509 -518 0
-456 509 0
-456 518 0
-457 458 463 0
-457 -458 -463 0
457 -458 463 0
457 458 -463 0
-458 459 460 0
-458 -459 -460 0
458 -459 460 0
458 459 -460 0
459 -508 -519 0
-459 508 0
-459 519 0
-460 461 462 0
-460 -461 -462 0
460 -461 462 0
460 461 -462 0
-461 432 434 0
-461 434 435 0
-461 432 435 0
461 -434 -435 0
461 -432 -434 0
461 -432 -435 0
-462 429 431 0
-462 431 436 0
-462 429 436 0
462 -431 -436 0
462 -429 -431 0
462 -429 -436 0
-463 426 428 0
-463 428 437 0
-463 426 437 0
463 -428 -437 0
463 -426 -428 0
463 -426 -437 0
464 -465 466 0
464 465 -466 0
-464 465 466 0
-464 -465 -466 0
-465 439 450 0
-465 439 441 0
-465 441 450 0
465 -441 -450 0
465 -439 -450 0
465 -439 -441 0
-466 467 473 0
-466 -467 -473 0
466 -467 473 0
466 467 -473 0
467 -468 470 0
467 468 -470 0
-467 468 470 0
-467 -468 -470 0
-468 -454 -469 0
-468 454 469 0
468 454 -469 0
468 -454 469 0
469 456 -459 0
469 -456 459 0
-469 -456 -459 0
-469 456 459 0
-470 471 472 0
-470 -471 -472 0
470 -471 472 0
470 471 -472 0
-471 424 443 0
-471 443 445 0
-471 424 445 0
471 -443 -445 0
471 -424 -443 0
471 -424 -445 0
-472 426 432 0
-472 429 432 0
-472 426 429 0
472 -426 -429 0
472 -429 -432 0
472 -426 -432 0
-473 442 447 0
-473 447 448 0
-473 442 448 0
473 -447 -448 0
473 -442 -447 0
473 -442 -448 0
474 475 -476 0
474 -475 476 0
-474 -475 -476 0
-474 475 476 0
-475 454 455 0
-475 452 454 0
-475 452 455 0
475 -452 -454 0
475 -454 -455 0
475 -452 -455 0
476 477 -478 0
476 -477 478 0
-476 -477 -478 0
-476 477 478 0
477 -510 -518 0
-477 510 0
-477 518 0
478 -479 480 0
478 479 -480 0
-478 479 480 0
-478 -479 -480 0
479 -509 -519 0
-479 509 0
-479 519 0
-480 481 482 0
-480 -481 -482 0
480 -481 482 0
480 481 -482 0
-481 459 461 0
-481 461 462 0
-481 459 462 0
481 -461 -462 0
481 -459 -461 0
481 -459 -462 0
-482 456 458 0
-482 458 463 0
-482 456 463 0
482 -458 -463 0
482 -456 -458 0
482 -456 -463 0
483 -484 485 0
483 484 -485 0
-483 484 485 0
-483 -484 -485 0
-484 465 473 0
-484 465 467 0
-484 467 473 0
484 -467 -473 0
484 -465 -473 0
484 -465 -467 0
-485 486 489 0
-485 -486 -489 0
485 -486 489 0
485 486 -489 0
486 487 -488 0
486 -487 488 0
-486 -487 -488 0
-486 487 488 0
-487 454 459 0
-487 456 459 0
-487 454 456 0
487 -454 -456 0
487 -456 -459 0
487 -454 -459 0
488 477 -479 0
488 -477 479 0
-488 -477 -479 0
-488 477 479 0
-489 468 471 0
-489 471 472 0
-489 468 472 0
489 -468 -472 0
489 -471 -472 0
489 -468 -471 0
-490 491 496 500 501 0
-490 -491 -496 500 501 0
-490 491 496 -500 -501 0
-490 -491 -496 -500 -501 0
490 491 -496 0
490 -491 496 0
490 -500 501 0
490 500 -501 0
491 492 -493 0
491 -492 493 0
-491 -492 -493 0
-491 492 493 0
-492 477 478 0
-492 475 477 0
-492 475 478 0
492 -475 -477 0
492 -477 -478 0
492 -475 -478 0
493 -494 495 0
493 494 -495 0
-493 494 495 0
-493 -494 -495 0
494 -510 -519 0
-494 510 0
-494 519 0
-495 479 481 0
-495 481 482 0
-495 479 482 0
495 -481 -482 0
495 -479 -481 0
495 -479 -482 0
496 -497 498 0
496 497 -498 0
-496 497 498 0
-496 -497 -498 0
-497 484 489 0
-497 484 486 0
-497 486 489 0
497 -486 -489 0
497 -484 -489 0
497 -484 -486 0
-498 494 499 0
-498 -494 -499 0
498 -494 499 0
498 494 -499 0
-499 479 487 0
-499 477 479 0
-499 477 487 0
499 -477 -479 0
499 -479 -487 0
499 -477 -487 0
-500 492 495 0
-500 492 494 0
-500 494 495 0
500 -494 -495 0
500 -492 -495 0
500 -492 -494 0
-501 494 497 0
-501 497 499 0
-501 494 499 0
501 -497 -499 0
501 -494 -497 0
501 -494 -499 0
-520 0
2 0

