c Result of efficient AIG-to-CNF conversion using package CNF
p cnf 45 123
2 27 -36 0
2 -27 36 0
-2 -27 -36 0
-2 27 36 0
3 4 -5 0
3 -4 5 0
-3 -4 -5 0
-3 4 5 0
4 -27 -36 0
-4 27 0
-4 36 0
5 28 -37 0
5 -28 37 0
-5 -28 -37 0
-5 28 37 0
6 -7 8 0
6 7 -8 0
-6 7 8 0
-6 -7 -8 0
7 29 -38 0
7 -29 38 0
-7 -29 -38 0
-7 29 38 0
-8 28 4 0
-8 37 4 0
-8 28 37 0
8 -28 -37 0
8 -37 -4 0
8 -28 -4 0
9 -10 11 0
9 10 -11 0
-9 10 11 0
-9 -10 -11 0
10 30 -39 0
10 -30 39 0
-10 -30 -39 0
-10 30 39 0
-11 38 8 0
-11 29 38 0
-11 29 8 0
11 -29 -38 0
11 -38 -8 0
11 -29 -8 0
12 -13 14 0
12 13 -14 0
-12 13 14 0
-12 -13 -14 0
13 31 -40 0
13 -31 40 0
-13 -31 -40 0
-13 31 40 0
-14 39 11 0
-14 30 39 0
-14 30 11 0
14 -30 -39 0
14 -39 -11 0
14 -30 -11 0
15 -16 17 0
15 16 -17 0
-15 16 17 0
-15 -16 -17 0
16 32 -41 0
16 -32 41 0
-16 -32 -41 0
-16 32 41 0
-17 40 14 0
-17 31 40 0
-17 31 14 0
17 -31 -40 0
17 -40 -14 0
17 -31 -14 0
18 -19 20 0
18 19 -20 0
-18 19 20 0
-18 -19 -20 0
19 33 -42 0
19 -33 42 0
-19 -33 -42 0
-19 33 42 0
-20 41 17 0
-20 32 41 0
-20 32 17 0
20 -32 -41 0
20 -41 -17 0
20 -32 -17 0
21 -22 23 0
21 22 -23 0
-21 22 23 0
-21 -22 -23 0
22 34 -43 0
22 -34 43 0
-22 -34 -43 0
-22 34 43 0
-23 42 20 0
-23 33 42 0
-23 33 20 0
23 -33 -42 0
23 -42 -20 0
23 -33 -20 0
24 -25 26 0
24 25 -26 0
-24 25 26 0
-24 -25 -26 0
25 35 -44 0
25 -35 44 0
-25 -35 -44 0
-25 35 44 0
-26 43 23 0
-26 34 43 0
-26 34 23 0
26 -34 -43 0
26 -43 -23 0
26 -34 -23 0
-45 0
2 0
3 0
6 0
9 0
12 0
15 0
18 0
21 0
24 0

