c Result of efficient AIG-to-CNF conversion using package CNF
p cnf 353 1308
-2 3 135 279 311 0
2 -311 0
2 -3 0
2 -279 0
2 -135 0
-3 4 5 10 33 0
-3 -4 -5 10 33 0
3 -33 0
3 4 -5 0
3 -10 0
3 -4 5 0
4 -341 -347 0
-4 341 0
-4 347 0
-5 6 0
5 -6 0
-6 7 0
6 -7 0
-7 8 0
7 -8 0
-8 9 0
8 -9 0
-9 4 0
9 -4 0
-10 11 17 19 27 0
-10 -11 -17 -19 -27 0
-10 11 17 -19 -27 0
-10 -11 -17 19 27 0
10 11 -17 0
10 -11 17 0
10 -19 27 0
10 19 -27 0
-11 12 0
11 -12 0
-12 13 0
12 -13 0
-13 14 0
13 -14 0
-14 15 0
14 -15 0
-15 341 16 0
-15 348 16 0
-15 -341 -348 -16 0
15 341 -16 0
15 -341 -348 16 0
15 348 -16 0
16 -342 -347 0
-16 342 0
-16 347 0
17 16 -18 0
17 -16 18 0
-17 -16 -18 0
-17 16 18 0
18 -341 -348 0
-18 341 0
-18 348 0
-19 20 0
19 -20 0
-20 21 0
20 -21 0
-21 22 0
21 -22 0
-22 341 23 0
-22 -341 -349 -23 0
-22 349 23 0
22 341 -23 0
22 349 -23 0
22 -341 -349 23 0
-23 348 25 0
-23 -348 -24 -26 0
-23 -348 24 26 0
23 348 -25 0
23 -348 -24 26 0
23 -348 24 -26 0
24 -341 -16 0
-24 341 0
-24 16 0
25 -343 -347 0
-25 343 0
-25 347 0
26 342 -25 0
26 -342 25 0
-26 -342 -25 0
-26 342 25 0
27 28 -29 0
27 -28 29 0
-27 -28 -29 0
-27 28 29 0
28 -341 -348 -16 0
-28 341 0
-28 348 0
-28 16 0
29 25 -30 0
29 -25 30 0
-29 -25 -30 0
-29 25 30 0
30 31 -32 0
30 -31 32 0
-30 -31 -32 0
-30 31 32 0
31 -341 -349 0
-31 341 0
-31 349 0
32 -342 -348 0
-32 342 0
-32 348 0
-33 -34 -44 56 0
-33 34 44 56 0
33 -56 0
33 -34 44 0
33 34 -44 0
-34 35 0
34 -35 0
-35 36 0
35 -36 0
-36 341 37 0
-36 -341 -350 -37 0
-36 350 37 0
36 341 -37 0
36 350 -37 0
36 -341 -350 37 0
-37 349 39 0
-37 -349 -38 -43 0
-37 -349 38 43 0
37 349 -39 0
37 -349 -38 43 0
37 -349 38 -43 0
38 -341 -23 0
-38 341 0
-38 23 0
-39 348 40 0
-39 -348 41 42 0
-39 -348 -41 -42 0
39 348 -40 0
39 -348 41 -42 0
39 -348 -41 42 0
40 -344 -347 0
-40 344 0
-40 347 0
41 343 -40 0
41 -343 40 0
-41 -343 -40 0
-41 343 40 0
-42 347 0
-42 342 0
-42 341 343 0
42 -341 -342 -347 0
42 -342 -343 -347 0
43 -342 39 0
43 342 -39 0
-43 342 39 0
-43 -342 -39 0
44 45 -46 0
44 -45 46 0
-44 -45 -46 0
-44 45 46 0
45 -28 -29 0
-45 28 0
-45 29 0
46 -47 53 0
46 47 -53 0
-46 47 53 0
-46 -47 -53 0
47 48 -49 0
47 -48 49 0
-47 -48 -49 0
-47 48 49 0
48 -341 -350 0
-48 341 0
-48 350 0
49 40 -50 0
49 -40 50 0
-49 -40 -50 0
-49 40 50 0
50 51 -52 0
50 -51 52 0
-50 -51 -52 0
-50 51 52 0
51 -342 -349 0
-51 342 0
-51 349 0
52 -343 -348 0
-52 343 0
-52 348 0
-53 54 55 0
53 -54 0
53 -55 0
54 -341 -342 -348 -349 0
-54 349 0
-54 341 0
-54 348 0
-54 342 0
55 -25 -30 0
-55 25 0
-55 30 0
-56 57 72 90 109 0
-56 -57 -72 -90 -109 0
-56 57 72 -90 -109 0
-56 -57 -72 90 109 0
56 57 -72 0
56 -57 72 0
56 -90 109 0
56 90 -109 0
-57 58 0
57 -58 0
-58 341 59 0
-58 -341 -351 -59 0
-58 351 59 0
58 341 -59 0
58 351 -59 0
58 -341 -351 59 0
-59 350 61 0
-59 -350 -60 -71 0
-59 -350 60 71 0
59 350 -61 0
59 -350 -60 71 0
59 -350 60 -71 0
60 -341 -37 0
-60 341 0
-60 37 0
-61 349 62 0
-61 -349 67 68 0
-61 -349 -67 -68 0
61 349 -62 0
61 -349 67 -68 0
61 -349 -67 68 0
-62 348 63 0
-62 -348 64 65 0
-62 -348 -64 -65 0
62 348 -63 0
62 -348 64 -65 0
62 -348 -64 65 0
63 -345 -347 0
-63 345 0
-63 347 0
64 344 -63 0
64 -344 63 0
-64 -344 -63 0
-64 344 63 0
-65 26 66 0
-65 24 66 0
-65 41 66 0
65 -66 0
65 -24 -26 -41 0
-66 347 0
-66 343 0
-66 342 344 0
66 -342 -343 -347 0
66 -343 -344 -347 0
67 -343 62 0
67 343 -62 0
-67 343 62 0
-67 -343 -62 0
-68 69 70 0
68 -69 0
68 -70 0
69 -342 -39 0
-69 342 0
-69 39 0
70 -38 -43 0
-70 38 0
-70 43 0
71 -342 61 0
71 342 -61 0
-71 342 61 0
-71 -342 -61 0
72 73 -74 0
72 -73 74 0
-72 -73 -74 0
-72 73 74 0
73 -45 -46 0
-73 45 0
-73 46 0
74 75 -76 0
74 -75 76 0
-74 -75 -76 0
-74 75 76 0
75 -47 -53 0
-75 47 0
-75 53 0
76 -77 87 0
76 77 -87 0
-76 77 87 0
-76 -77 -87 0
77 78 -79 0
77 -78 79 0
-77 -78 -79 0
-77 78 79 0
78 -341 -350 -49 0
-78 341 0
-78 350 0
-78 49 0
79 80 -83 0
79 -80 83 0
-79 -80 -83 0
-79 80 83 0
80 81 -82 0
80 -81 82 0
-80 -81 -82 0
-80 81 82 0
81 -341 -351 0
-81 341 0
-81 351 0
82 -342 -350 0
-82 342 0
-82 350 0
83 63 -84 0
83 -63 84 0
-83 -63 -84 0
-83 63 84 0
84 85 -86 0
84 -85 86 0
-84 -85 -86 0
-84 85 86 0
85 -343 -349 0
-85 343 0
-85 349 0
86 -344 -348 0
-86 344 0
-86 348 0
-87 88 89 0
87 -88 0
87 -89 0
88 -342 -343 -348 -349 0
-88 349 0
-88 342 0
-88 348 0
-88 343 0
89 -40 -50 0
-89 40 0
-89 50 0
-90 341 91 0
-90 -341 -352 -91 0
-90 352 91 0
90 341 -91 0
90 352 -91 0
90 -341 -352 91 0
-91 351 93 0
-91 342 92 93 0
-91 -342 -92 93 0
-91 342 -351 -92 -93 0
-91 -342 -351 92 -93 0
91 351 -93 0
91 -342 -92 -93 0
91 342 92 -93 0
91 342 -351 -92 93 0
91 -342 -351 92 93 0
92 -341 -59 0
-92 341 0
-92 59 0
-93 350 94 0
-93 -350 105 106 0
-93 -350 -105 -106 0
93 350 -94 0
93 -350 105 -106 0
93 -350 -105 106 0
-94 349 95 0
-94 -349 101 102 0
-94 -349 -101 -102 0
94 349 -95 0
94 -349 101 -102 0
94 -349 -101 102 0
-95 348 96 0
-95 -348 97 98 0
-95 -348 -97 -98 0
95 348 -96 0
95 -348 97 -98 0
95 -348 -97 98 0
96 -346 -347 0
-96 346 0
-96 347 0
97 345 -96 0
97 -345 96 0
-97 -345 -96 0
-97 345 96 0
-98 99 100 0
98 -99 0
98 -100 0
99 -344 -63 0
-99 344 0
-99 63 0
100 -64 -65 0
-100 64 0
-100 65 0
101 -344 95 0
101 344 -95 0
-101 344 95 0
-101 -344 -95 0
-102 103 104 0
102 -103 0
102 -104 0
103 -343 -62 0
-103 343 0
-103 62 0
104 -67 -68 0
-104 67 0
-104 68 0
105 -343 94 0
105 343 -94 0
-105 343 94 0
-105 -343 -94 0
-106 107 108 0
106 -107 0
106 -108 0
107 -342 -61 0
-107 342 0
-107 61 0
108 -60 -71 0
-108 60 0
-108 71 0
109 -110 132 0
109 110 -132 0
-109 110 132 0
-109 -110 -132 0
110 -111 129 0
110 111 -129 0
-110 111 129 0
-110 -111 -129 0
111 -112 126 0
111 112 -126 0
-111 112 126 0
-111 -112 -126 0
112 113 -114 0
112 -113 114 0
-112 -113 -114 0
-112 113 114 0
113 -80 -83 0
-113 80 0
-113 83 0
114 115 -122 0
114 -115 122 0
-114 -115 -122 0
-114 115 122 0
115 116 -117 0
115 -116 117 0
-115 -116 -117 0
-115 116 117 0
116 -341 -342 -350 -351 0
-116 351 0
-116 341 0
-116 350 0
-116 342 0
117 118 -121 0
117 -118 121 0
-117 -118 -121 0
-117 118 121 0
118 119 -120 0
118 -119 120 0
-118 -119 -120 0
-118 119 120 0
119 -341 -352 0
-119 341 0
-119 352 0
120 -342 -351 0
-120 342 0
-120 351 0
121 -343 -350 0
-121 343 0
-121 350 0
122 96 -123 0
122 -96 123 0
-122 -96 -123 0
-122 96 123 0
123 124 -125 0
123 -124 125 0
-123 -124 -125 0
-123 124 125 0
124 -344 -349 0
-124 344 0
-124 349 0
125 -345 -348 0
-125 345 0
-125 348 0
-126 127 128 0
126 -127 0
126 -128 0
127 -343 -344 -348 -349 0
-127 349 0
-127 343 0
-127 348 0
-127 344 0
128 -63 -84 0
-128 63 0
-128 84 0
-129 130 131 0
129 -130 0
129 -131 0
130 -78 -79 0
-130 78 0
-130 79 0
131 -77 -87 0
-131 77 0
-131 87 0
-132 133 134 0
132 -133 0
132 -134 0
133 -75 -76 0
-133 75 0
-133 76 0
134 -73 -74 0
-134 73 0
-134 74 0
-135 -136 -158 188 0
-135 136 158 188 0
135 -188 0
135 -136 158 0
135 136 -158 0
-136 352 138 0
-136 -352 -137 -157 0
-136 -352 137 157 0
136 352 -138 0
136 -352 -137 157 0
136 -352 137 -157 0
137 -341 -91 0
-137 341 0
-137 91 0
-138 351 139 0
-138 -343 139 -153 0
-138 343 139 153 0
-138 -343 -351 -139 153 0
-138 343 -351 -139 -153 0
138 351 -139 0
138 343 -351 139 -153 0
138 343 -139 153 0
138 -343 -139 -153 0
138 -343 -351 139 153 0
-139 350 140 0
-139 -350 148 149 0
-139 -350 -148 -149 0
139 350 -140 0
139 -350 148 -149 0
139 -350 -148 149 0
-140 349 141 0
-140 -349 144 145 0
-140 -349 -144 -145 0
140 349 -141 0
140 -349 144 -145 0
140 -349 -144 145 0
141 346 -348 -142 0
141 -346 -348 142 0
-141 348 0
-141 -346 -142 0
-141 346 142 0
-142 64 143 0
-142 65 143 0
-142 97 143 0
142 -143 0
142 -64 -65 -97 0
-143 347 0
-143 345 0
-143 344 346 0
143 -344 -345 -347 0
143 -345 -346 -347 0
144 345 -141 0
144 -345 141 0
-144 -345 -141 0
-144 345 141 0
-145 68 146 0
-145 146 147 0
145 -146 0
145 -68 -147 0
-146 103 95 0
-146 344 103 0
-146 344 95 0
146 -344 -103 0
146 -103 -95 0
146 -344 -95 0
147 -67 -101 0
-147 67 0
-147 101 0
148 -344 140 0
148 344 -140 0
-148 344 140 0
-148 -344 -140 0
-149 60 150 0
-149 150 152 0
149 -150 0
149 -60 -152 0
-150 151 105 0
-150 107 151 0
150 -151 0
150 -107 -105 0
151 -343 -94 0
-151 343 0
-151 94 0
152 -71 -105 0
-152 71 0
-152 105 0
-153 154 155 0
153 -154 0
153 -155 0
154 -342 -93 0
-154 342 0
-154 93 0
155 -92 -156 0
-155 92 0
-155 156 0
156 -342 93 0
156 342 -93 0
-156 342 93 0
-156 -342 -93 0
157 -342 138 0
157 342 -138 0
-157 342 138 0
-157 -342 -138 0
158 -159 184 0
158 159 -184 0
-158 159 184 0
-158 -159 -184 0
159 -160 181 0
159 160 -181 0
-159 160 181 0
-159 -160 -181 0
160 -161 178 0
160 161 -178 0
-160 161 178 0
-160 -161 -178 0
161 -162 175 0
161 162 -175 0
-161 162 175 0
-161 -162 -175 0
162 163 -172 0
162 -163 172 0
-162 -163 -172 0
-162 163 172 0
163 -164 169 0
163 164 -169 0
-163 164 169 0
-163 -164 -169 0
164 165 -168 0
164 -165 168 0
-164 -165 -168 0
-164 165 168 0
165 166 -167 0
165 -166 167 0
-165 -166 -167 0
-165 166 167 0
166 -342 -352 0
-166 342 0
-166 352 0
167 -343 -351 0
-167 343 0
-167 351 0
168 -344 -350 0
-168 344 0
-168 350 0
-169 170 171 0
169 -170 0
169 -171 0
170 -341 -342 -351 -352 0
-170 352 0
-170 341 0
-170 351 0
-170 342 0
171 -343 -350 -118 0
-171 343 0
-171 350 0
-171 118 0
172 173 -174 0
172 -173 174 0
-172 -173 -174 0
-172 173 174 0
173 -345 -349 0
-173 345 0
-173 349 0
174 -346 -348 0
-174 346 0
-174 348 0
-175 176 177 0
175 -176 0
175 -177 0
176 -116 -117 0
-176 116 0
-176 117 0
177 -115 -122 0
-177 115 0
-177 122 0
-178 179 180 0
178 -179 0
178 -180 0
179 -344 -345 -348 -349 0
-179 349 0
-179 344 0
-179 348 0
-179 345 0
180 -96 -123 0
-180 96 0
-180 123 0
-181 182 183 0
181 -182 0
181 -183 0
182 -113 -114 0
-182 113 0
-182 114 0
183 -112 -126 0
-183 112 0
-183 126 0
-184 73 185 0
-184 185 187 0
184 -185 0
184 -73 -187 0
-185 186 110 0
-185 133 186 0
185 -186 0
185 -133 -110 0
186 -111 -129 0
-186 111 0
-186 129 0
187 -74 -110 0
-187 74 0
-187 110 0
-188 189 212 237 256 0
-188 -189 -212 -237 -256 0
-188 189 212 -237 -256 0
-188 -189 -212 237 256 0
188 189 -212 0
188 -189 212 0
188 -237 256 0
188 237 -256 0
-189 352 190 0
-189 -352 208 209 0
-189 -352 -208 -209 0
189 352 -190 0
189 -352 208 -209 0
189 -352 -208 209 0
-190 351 191 0
-190 -351 203 204 0
-190 -351 -203 -204 0
190 351 -191 0
190 -351 203 -204 0
190 -351 -203 204 0
-191 350 192 0
-191 -350 199 200 0
-191 -350 -199 -200 0
191 350 -192 0
191 -350 199 -200 0
191 -350 -199 200 0
-192 349 193 0
-192 -349 195 196 0
-192 -349 -195 -196 0
192 349 -193 0
192 -349 195 -196 0
192 -349 -195 196 0
193 -348 -194 0
-193 348 0
-193 194 0
194 -346 -142 0
-194 346 0
-194 142 0
195 -346 193 0
-195 346 0
-195 -193 0
-196 197 198 0
196 -197 0
196 -198 0
197 -345 -141 0
-197 345 0
-197 141 0
198 -144 -145 0
-198 144 0
-198 145 0
199 -345 192 0
199 345 -192 0
-199 345 192 0
-199 -345 -192 0
-200 201 202 0
200 -201 0
200 -202 0
201 -344 -140 0
-201 344 0
-201 140 0
202 -148 -149 0
-202 148 0
-202 149 0
203 -344 191 0
203 344 -191 0
-203 344 191 0
-203 -344 -191 0
-204 205 206 0
204 -205 0
204 -206 0
205 -343 -139 0
-205 343 0
-205 139 0
206 -207 -153 0
-206 207 0
-206 153 0
207 -343 139 0
207 343 -139 0
-207 343 139 0
-207 -343 -139 0
208 -343 190 0
208 343 -190 0
-208 343 190 0
-208 -343 -190 0
-209 210 211 0
209 -210 0
209 -211 0
210 -342 -138 0
-210 342 0
-210 138 0
211 -137 -157 0
-211 137 0
-211 157 0
212 -213 234 0
212 213 -234 0
-212 213 234 0
-212 -213 -234 0
213 -214 231 0
213 214 -231 0
-213 214 231 0
-213 -214 -231 0
214 215 -216 0
214 -215 216 0
-214 -215 -216 0
-214 215 216 0
215 -345 -346 -348 -349 0
-215 349 0
-215 345 0
-215 348 0
-215 346 0
216 -217 228 0
216 217 -228 0
-216 217 228 0
-216 -217 -228 0
217 218 -227 0
217 -218 227 0
-217 -218 -227 0
-217 218 227 0
218 -219 224 0
218 219 -224 0
-218 219 224 0
-218 -219 -224 0
219 220 -223 0
219 -220 223 0
-219 -220 -223 0
-219 220 223 0
220 221 -222 0
220 -221 222 0
-220 -221 -222 0
-220 221 222 0
221 -343 -352 0
-221 343 0
-221 352 0
222 -344 -351 0
-222 344 0
-222 351 0
223 -345 -350 0
-223 345 0
-223 350 0
-224 225 226 0
224 -225 0
224 -226 0
225 -342 -343 -351 -352 0
-225 352 0
-225 342 0
-225 351 0
-225 343 0
226 -344 -350 -165 0
-226 344 0
-226 350 0
-226 165 0
227 -346 -349 0
-227 346 0
-227 349 0
-228 229 230 0
228 -229 0
228 -230 0
229 -164 -169 0
-229 164 0
-229 169 0
230 -163 -172 0
-230 163 0
-230 172 0
-231 232 233 0
231 -232 0
231 -233 0
232 -162 -175 0
-232 162 0
-232 175 0
233 -161 -178 0
-233 161 0
-233 178 0
-234 235 236 0
234 -235 0
234 -236 0
235 -160 -181 0
-235 160 0
-235 181 0
236 -159 -184 0
-236 159 0
-236 184 0
-237 352 238 0
-237 -344 238 -253 0
-237 344 238 253 0
-237 -344 -352 -238 253 0
-237 344 -352 -238 -253 0
237 352 -238 0
237 344 -352 238 -253 0
237 344 -238 253 0
237 -344 -238 -253 0
237 -344 -352 238 253 0
-238 351 239 0
-238 -345 239 -251 0
-238 345 239 251 0
-238 -345 -351 -239 251 0
-238 345 -351 -239 -251 0
238 351 -239 0
238 345 -351 239 -251 0
238 345 -239 251 0
238 -345 -239 -251 0
238 -345 -351 239 251 0
-239 350 240 0
-239 346 -350 -240 -246 0
-239 346 240 246 0
-239 -346 240 -246 0
-239 -346 -350 -240 246 0
239 350 -240 0
239 -346 -240 -246 0
239 346 -240 246 0
239 -346 -350 240 246 0
239 346 -350 240 -246 0
240 -349 -241 0
240 -349 -68 -245 0
-240 349 0
-240 68 241 0
-240 241 245 0
-241 146 242 243 0
-241 242 243 244 0
241 -243 0
241 -242 0
241 -146 -244 0
242 -346 -193 0
-242 346 0
-242 193 0
243 -197 -195 0
-243 197 0
-243 195 0
244 -144 -195 0
-244 144 0
-244 195 0
245 -147 -244 0
-245 147 0
-245 244 0
-246 152 248 0
-246 60 248 0
-246 247 248 0
246 -248 0
246 -60 -152 -247 0
247 -148 -199 0
-247 148 0
-247 199 0
-248 201 249 250 0
-248 249 199 250 0
248 -250 0
248 -249 0
248 -201 -199 0
249 -345 -192 0
-249 345 0
-249 192 0
250 -150 -247 0
-250 150 0
-250 247 0
-251 344 205 252 0
-251 205 191 252 0
-251 344 191 252 0
251 -344 -205 0
251 -205 -191 0
251 -252 0
251 -344 -191 0
252 -207 -153 -203 0
-252 207 0
-252 153 0
-252 203 0
-253 157 254 0
-253 137 254 0
-253 208 254 0
253 -254 0
253 -137 -157 -208 0
-254 255 208 0
-254 210 255 0
254 -255 0
254 -210 -208 0
255 -343 -190 0
-255 343 0
-255 190 0
256 -257 274 0
256 257 -274 0
-256 257 274 0
-256 -257 -274 0
257 -258 271 0
257 258 -271 0
-257 258 271 0
-257 -258 -271 0
258 -259 268 0
258 259 -268 0
-258 259 268 0
-258 -259 -268 0
259 -260 265 0
259 260 -265 0
-259 260 265 0
-259 -260 -265 0
260 261 -264 0
260 -261 264 0
-260 -261 -264 0
-260 261 264 0
261 262 -263 0
261 -262 263 0
-261 -262 -263 0
-261 262 263 0
262 -344 -352 0
-262 344 0
-262 352 0
263 -345 -351 0
-263 345 0
-263 351 0
264 -346 -350 0
-264 346 0
-264 350 0
-265 266 267 0
265 -266 0
265 -267 0
266 -343 -344 -351 -352 0
-266 352 0
-266 343 0
-266 351 0
-266 344 0
267 -345 -350 -220 0
-267 345 0
-267 350 0
-267 220 0
-268 269 270 0
268 -269 0
268 -270 0
269 -219 -224 0
-269 219 0
-269 224 0
270 -346 -349 -218 0
-270 346 0
-270 349 0
-270 218 0
-271 272 273 0
271 -272 0
271 -273 0
272 -217 -228 0
-272 217 0
-272 228 0
273 -215 -216 0
-273 215 0
-273 216 0
-274 187 276 0
-274 73 276 0
-274 275 276 0
274 -276 0
274 -73 -187 -275 0
275 -159 -213 0
-275 159 0
-275 213 0
-276 235 277 278 0
-276 277 213 278 0
276 -278 0
276 -277 0
276 -235 -213 0
277 -214 -231 0
-277 214 0
-277 231 0
278 -185 -275 0
-278 185 0
-278 275 0
-279 -280 -296 0
-279 280 296 0
279 280 -296 0
279 -280 296 0
-280 352 281 0
-280 -352 291 292 0
-280 -352 -291 -292 0
280 352 -281 0
280 -352 291 -292 0
280 -352 -291 292 0
-281 351 282 0
-281 -351 286 287 0
-281 -351 -286 -287 0
281 351 -282 0
281 -351 286 -287 0
281 -351 -286 287 0
282 -350 -283 0
282 -350 -284 0
-282 350 0
-282 283 284 0
283 -346 -240 0
-283 346 0
-283 240 0
284 -285 -246 0
-284 285 0
-284 246 0
285 346 -240 0
285 -346 240 0
-285 -346 -240 0
-285 346 240 0
286 346 -282 0
286 -346 282 0
-286 -346 -282 0
-286 346 282 0
-287 288 289 0
287 -288 0
287 -289 0
288 -345 -239 0
-288 345 0
-288 239 0
289 -290 -251 0
-289 290 0
-289 251 0
290 -345 239 0
290 345 -239 0
-290 345 239 0
-290 -345 -239 0
291 -345 281 0
291 345 -281 0
-291 345 281 0
-291 -345 -281 0
-292 293 294 0
292 -293 0
292 -294 0
293 -344 -238 0
-293 344 0
-293 238 0
294 -295 -253 0
-294 295 0
-294 253 0
295 -344 238 0
295 344 -238 0
-295 344 238 0
-295 -344 -238 0
296 -297 308 0
296 297 -308 0
-296 297 308 0
-296 -297 -308 0
297 298 -299 0
297 -298 299 0
-297 -298 -299 0
-297 298 299 0
298 -259 -268 0
-298 259 0
-298 268 0
299 300 -301 0
299 -300 301 0
-299 -300 -301 0
-299 300 301 0
300 -260 -265 0
-300 260 0
-300 265 0
301 -302 305 0
301 302 -305 0
-301 302 305 0
-301 -302 -305 0
302 303 -304 0
302 -303 304 0
-302 -303 -304 0
-302 303 304 0
303 -345 -352 0
-303 345 0
-303 352 0
304 -346 -351 0
-304 346 0
-304 351 0
-305 306 307 0
305 -306 0
305 -307 0
306 -344 -345 -351 -352 0
-306 352 0
-306 344 0
-306 351 0
-306 345 0
307 -346 -350 -261 0
-307 346 0
-307 350 0
-307 261 0
-308 309 310 0
308 -309 0
308 -310 0
309 -258 -271 0
-309 258 0
-309 271 0
310 -257 -274 0
-310 257 0
-310 274 0
-311 -312 -320 -329 -333 0
-311 312 320 -329 -333 0
-311 -312 -320 329 333 0
-311 312 320 329 333 0
311 329 -333 0
311 -329 333 0
311 312 -320 0
311 -312 320 0
-312 352 313 0
-312 346 -352 -313 -317 0
-312 346 313 317 0
-312 -346 313 -317 0
-312 -346 -352 -313 317 0
312 352 -313 0
312 -346 -313 -317 0
312 346 -313 317 0
312 -346 -352 313 317 0
312 346 -352 313 -317 0
313 -351 -314 0
313 -351 -316 0
313 -351 -315 0
-313 351 0
-313 314 315 316 0
314 -346 -282 0
-314 346 0
-314 282 0
315 -288 -286 0
-315 288 0
-315 286 0
316 -290 -251 -286 0
-316 290 0
-316 251 0
-316 286 0
-317 295 318 0
-317 253 318 0
-317 291 318 0
317 -318 0
317 -295 -253 -291 0
-318 319 291 0
-318 293 319 0
318 -319 0
318 -293 -291 0
319 -345 -281 0
-319 345 0
-319 281 0
320 -321 326 0
320 321 -326 0
-320 321 326 0
-320 -321 -326 0
321 322 -323 0
321 -322 323 0
-321 -322 -323 0
-321 322 323 0
322 -300 -301 0
-322 300 0
-322 301 0
323 324 -325 0
323 -324 325 0
-323 -324 -325 0
-323 324 325 0
324 -302 -305 0
-324 302 0
-324 305 0
325 345 -346 -352 0
325 -346 351 -352 0
-325 352 0
-325 346 0
-325 -345 -351 0
-326 257 327 0
-326 274 327 0
-326 297 327 0
326 -327 0
326 -257 -274 -297 0
-327 328 297 0
-327 309 328 0
327 -328 0
327 -309 -297 0
328 -298 -299 0
-328 298 0
-328 299 0
329 -352 -330 0
329 -352 -331 0
-329 352 0
-329 330 331 0
330 -346 -313 0
-330 346 0
-330 313 0
331 -332 -317 0
-331 332 0
-331 317 0
332 346 -313 0
332 -346 313 0
-332 -346 -313 0
-332 346 313 0
333 -334 338 0
333 334 -338 0
-333 334 338 0
-333 -334 -338 0
334 -335 0
-334 335 0
-335 336 337 0
335 -336 0
335 -337 0
336 -345 -346 -351 -352 0
-336 352 0
-336 345 0
-336 351 0
-336 346 0
337 -324 -325 0
-337 324 0
-337 325 0
-338 339 340 0
338 -339 0
338 -340 0
339 -322 -323 0
-339 322 0
-339 323 0
340 -321 -326 0
-340 321 0
-340 326 0
-353 0
2 0

