c Result of efficient AIG-to-CNF conversion using package CNF
p cnf 647 2704
-2 3 54 286 520 0
2 -520 0
2 -3 0
2 -286 0
2 -54 0
-3 4 20 -29 -44 0
-3 -4 -20 -29 -44 0
-3 4 20 29 44 0
-3 -4 -20 29 44 0
3 4 -20 0
3 -4 20 0
3 29 -44 0
3 -29 44 0
4 -5 11 0
4 5 -11 0
-4 5 11 0
-4 -5 -11 0
-5 7 10 0
-5 6 10 0
-5 6 7 0
5 -6 -10 0
5 -6 -7 0
5 -7 -10 0
6 -627 -628 -637 -638 0
-6 638 0
-6 627 0
-6 637 0
-6 628 0
-7 -8 -9 0
-7 8 9 0
7 8 -9 0
7 -8 9 0
8 -628 -638 0
-8 628 0
-8 638 0
9 -627 -639 0
-9 627 0
-9 639 0
10 -629 -637 0
-10 629 0
-10 637 0
-11 12 13 0
-11 -12 -13 0
11 -12 13 0
11 12 -13 0
12 -8 -9 0
-12 8 0
-12 9 0
-13 -14 -17 0
-13 14 17 0
13 14 -17 0
13 -14 17 0
-14 -15 -16 0
-14 15 16 0
14 15 -16 0
14 -15 16 0
15 -628 -639 0
-15 628 0
-15 639 0
16 -627 -640 0
-16 627 0
-16 640 0
17 18 -19 0
17 -18 19 0
-17 -18 -19 0
-17 18 19 0
18 -630 -637 0
-18 630 0
-18 637 0
19 -629 -638 0
-19 629 0
-19 638 0
20 21 -26 0
20 -21 26 0
-20 -21 -26 0
-20 21 26 0
-21 22 24 0
-21 -22 -24 0
21 -22 24 0
21 22 -24 0
-22 -19 -23 0
-22 19 23 0
22 19 -23 0
22 -19 23 0
23 15 -16 0
23 -15 16 0
-23 -15 -16 0
-23 15 16 0
-24 18 25 0
-24 -18 -25 0
24 -18 25 0
24 18 -25 0
-25 10 12 0
-25 8 9 12 0
25 -12 0
25 -9 -10 0
25 -8 -10 0
26 -6 -27 0
-26 6 0
-26 27 0
-27 -10 -28 0
-27 10 28 0
27 10 -28 0
27 -10 28 0
28 8 -9 0
28 -8 9 0
-28 -8 -9 0
-28 8 9 0
29 -30 31 0
29 30 -31 0
-29 30 31 0
-29 -30 -31 0
-30 12 5 0
-30 5 13 0
-30 12 13 0
30 -5 -13 0
30 -12 -5 0
30 -12 -13 0
-31 32 43 0
-31 -32 -43 0
31 -32 43 0
31 32 -43 0
-32 -33 -38 0
-32 33 38 0
32 33 -38 0
32 -33 38 0
-33 34 35 0
-33 -34 -35 0
33 -34 35 0
33 34 -35 0
34 -631 -637 0
-34 631 0
-34 637 0
-35 -36 -37 0
-35 36 37 0
35 36 -37 0
35 -36 37 0
36 -630 -638 0
-36 630 0
-36 638 0
37 -629 -639 0
-37 629 0
-37 639 0
38 39 -40 0
38 -39 40 0
-38 -39 -40 0
-38 39 40 0
39 -15 -16 0
-39 15 0
-39 16 0
40 41 -42 0
40 -41 42 0
-40 -41 -42 0
-40 41 42 0
41 -628 -640 0
-41 628 0
-41 640 0
42 -627 -641 0
-42 627 0
-42 641 0
-43 18 19 0
-43 14 18 0
-43 14 19 0
43 -14 -18 0
43 -18 -19 0
43 -14 -19 0
44 -45 46 0
44 45 -46 0
-44 45 46 0
-44 -45 -46 0
45 -21 -26 0
-45 21 0
-45 26 0
-46 47 53 0
-46 -47 -53 0
46 -47 53 0
46 47 -53 0
-47 -48 -49 0
-47 48 49 0
47 48 -49 0
47 -48 49 0
-48 -34 -36 0
-48 34 36 0
48 34 -36 0
48 -34 36 0
49 -50 52 0
49 50 -52 0
-49 50 52 0
-49 -50 -52 0
50 -37 51 0
50 37 -51 0
-50 37 51 0
-50 -37 -51 0
-51 -41 -42 0
-51 41 42 0
51 41 -42 0
51 -41 42 0
-52 15 19 0
-52 16 19 0
-52 15 16 0
52 -15 -16 0
52 -16 -19 0
52 -15 -19 0
-53 18 22 0
-53 22 25 0
-53 18 25 0
53 -22 -25 0
53 -18 -22 0
53 -18 -25 0
-54 55 127 154 174 0
-54 55 -127 -154 174 0
54 -174 0
54 -127 154 0
54 -55 0
54 127 -154 0
-55 56 75 -87 -110 0
-55 -56 -75 -87 -110 0
-55 56 75 87 110 0
-55 -56 -75 87 110 0
55 56 -75 0
55 -56 75 0
55 87 -110 0
55 -87 110 0
56 57 -58 0
56 -57 58 0
-56 -57 -58 0
-56 57 58 0
-57 30 32 0
-57 32 43 0
-57 30 43 0
57 -30 -43 0
57 -32 -43 0
57 -30 -32 0
58 -59 74 0
58 59 -74 0
-58 59 74 0
-58 -59 -74 0
59 -60 69 0
59 60 -69 0
-59 60 69 0
-59 -60 -69 0
-60 -61 -66 0
-60 61 66 0
60 61 -66 0
60 -61 66 0
-61 -62 -63 0
-61 62 63 0
61 62 -63 0
61 -62 63 0
62 -629 -640 0
-62 629 0
-62 640 0
63 64 -65 0
63 -64 65 0
-63 -64 -65 0
-63 64 65 0
64 -628 -641 0
-64 628 0
-64 641 0
65 -627 -642 0
-65 627 0
-65 642 0
66 67 -68 0
66 -67 68 0
-66 -67 -68 0
-66 67 68 0
67 -41 -42 0
-67 41 0
-67 42 0
68 -632 -637 0
-68 632 0
-68 637 0
-69 -70 -71 0
-69 70 71 0
69 70 -71 0
69 -70 71 0
-70 638 37 0
-70 630 34 0
-70 34 37 0
-70 638 34 0
-70 630 37 0
70 -34 -37 0
70 -630 -638 -37 0
70 -630 -638 -34 0
71 72 -73 0
71 -72 73 0
-71 -72 -73 0
-71 72 73 0
72 -631 -638 0
-72 631 0
-72 638 0
73 -630 -639 0
-73 630 0
-73 639 0
-74 33 40 0
-74 39 40 0
-74 39 33 0
74 -39 -40 0
74 -39 -33 0
74 -33 -40 0
75 -76 77 0
75 76 -77 0
-75 76 77 0
-75 -76 -77 0
76 -45 -46 0
-76 45 0
-76 46 0
-77 -78 -86 0
-77 78 86 0
77 78 -86 0
77 -78 86 0
-78 79 83 0
-78 -79 -83 0
78 -79 83 0
78 79 -83 0
-79 -61 -80 0
-79 61 80 0
79 61 -80 0
79 -61 80 0
80 -81 82 0
80 81 -82 0
-80 81 82 0
-80 -81 -82 0
81 -34 -36 0
-81 34 0
-81 36 0
-82 640 42 0
-82 628 37 0
-82 37 42 0
-82 640 37 0
-82 628 42 0
82 -37 -42 0
82 -628 -640 -42 0
82 -628 -640 -37 0
-83 84 85 0
-83 -84 -85 0
83 -84 85 0
83 84 -85 0
-84 48 52 0
-84 48 50 0
-84 50 52 0
84 -50 -52 0
84 -48 -52 0
84 -48 -50 0
-85 -68 -71 0
-85 68 71 0
85 68 -71 0
85 -68 71 0
86 -47 -53 0
-86 47 0
-86 53 0
87 -88 89 0
87 88 -89 0
-87 88 89 0
-87 -88 -89 0
-88 57 74 0
-88 57 59 0
-88 59 74 0
88 -59 -74 0
88 -57 -74 0
88 -57 -59 0
-89 90 109 0
-89 -90 -109 0
89 -90 109 0
89 90 -109 0
90 -91 100 0
90 91 -100 0
-90 91 100 0
-90 -91 -100 0
-91 -92 -97 0
-91 92 97 0
91 92 -97 0
91 -92 97 0
-92 -93 -94 0
-92 93 94 0
92 93 -94 0
92 -93 94 0
93 -631 -639 0
-93 631 0
-93 639 0
94 95 -96 0
94 -95 96 0
-94 -95 -96 0
-94 95 96 0
95 -630 -640 0
-95 630 0
-95 640 0
96 -629 -641 0
-96 629 0
-96 641 0
97 -98 99 0
97 98 -99 0
-97 98 99 0
-97 -98 -99 0
98 -630 -631 -638 -639 0
-98 639 0
-98 630 0
-98 638 0
-98 631 0
-99 641 65 0
-99 628 62 0
-99 62 65 0
-99 641 62 0
-99 628 65 0
99 -62 -65 0
99 -628 -641 -65 0
99 -628 -641 -62 0
-100 -101 -102 0
-100 101 102 0
100 101 -102 0
100 -101 102 0
-101 61 68 0
-101 67 68 0
-101 67 61 0
101 -67 -68 0
101 -67 -61 0
101 -61 -68 0
102 103 -106 0
102 -103 106 0
-102 -103 -106 0
-102 103 106 0
103 104 -105 0
103 -104 105 0
-103 -104 -105 0
-103 104 105 0
104 -628 -642 0
-104 628 0
-104 642 0
105 -627 -643 0
-105 627 0
-105 643 0
106 107 -108 0
106 -107 108 0
-106 -107 -108 0
-106 107 108 0
107 -633 -637 0
-107 633 0
-107 637 0
108 -632 -638 0
-108 632 0
-108 638 0
-109 60 70 0
-109 70 71 0
-109 60 71 0
109 -70 -71 0
109 -60 -70 0
109 -60 -71 0
110 -111 112 0
110 111 -112 0
-110 111 112 0
-110 -111 -112 0
111 -76 -77 0
-111 76 0
-111 77 0
-112 -113 -126 0
-112 113 126 0
112 113 -126 0
112 -113 126 0
-113 114 125 0
-113 -114 -125 0
113 -114 125 0
113 114 -125 0
-114 -115 -120 0
-114 115 120 0
114 115 -120 0
114 -115 120 0
-115 -116 -118 0
-115 116 118 0
115 116 -118 0
115 -116 118 0
-116 -108 -117 0
-116 108 117 0
116 108 -117 0
116 -108 117 0
117 93 -95 0
117 -93 95 0
-117 -93 -95 0
-117 93 95 0
118 -96 119 0
118 96 -119 0
-118 96 119 0
-118 -96 -119 0
-119 -104 -105 0
-119 104 105 0
119 104 -105 0
119 -104 105 0
120 -121 124 0
120 121 -124 0
-120 121 124 0
-120 -121 -124 0
-121 122 123 0
-121 -122 -123 0
121 -122 123 0
121 122 -123 0
-122 68 98 0
-122 72 73 98 0
122 -98 0
122 -68 -73 0
122 -68 -72 0
-123 -99 -107 0
-123 99 107 0
123 99 -107 0
123 -99 107 0
-124 61 82 0
-124 61 81 0
-124 81 82 0
124 -81 -82 0
124 -61 -82 0
124 -61 -81 0
-125 79 84 0
-125 84 85 0
-125 79 85 0
125 -79 -85 0
125 -84 -85 0
125 -79 -84 0
126 -78 -86 0
-126 78 0
-126 86 0
127 128 -129 0
127 -128 129 0
-127 -128 -129 0
-127 128 129 0
-128 88 109 0
-128 88 90 0
-128 90 109 0
128 -90 -109 0
128 -88 -109 0
128 -88 -90 0
129 -130 153 0
129 130 -153 0
-129 130 153 0
-129 -130 -153 0
130 -131 140 0
130 131 -140 0
-130 131 140 0
-130 -131 -140 0
-131 -132 -137 0
-131 132 137 0
131 132 -137 0
131 -132 137 0
-132 -133 -134 0
-132 133 134 0
132 133 -134 0
132 -133 134 0
133 -634 -637 0
-133 634 0
-133 637 0
134 135 -136 0
134 -135 136 0
-134 -135 -136 0
-134 135 136 0
135 -633 -638 0
-135 633 0
-135 638 0
136 -632 -639 0
-136 632 0
-136 639 0
137 -138 139 0
137 138 -139 0
-137 138 139 0
-137 -138 -139 0
-138 638 107 0
-138 632 103 0
-138 103 107 0
-138 638 103 0
-138 632 107 0
138 -103 -107 0
138 -632 -638 -107 0
138 -632 -638 -103 0
-139 640 96 0
-139 630 93 0
-139 93 96 0
-139 640 93 0
-139 630 96 0
139 -93 -96 0
139 -630 -640 -96 0
139 -630 -640 -93 0
-140 -141 -142 0
-140 141 142 0
140 141 -142 0
140 -141 142 0
-141 98 92 0
-141 92 99 0
-141 98 99 0
141 -92 -99 0
141 -98 -92 0
141 -98 -99 0
142 -143 146 0
142 143 -146 0
-142 143 146 0
-142 -143 -146 0
143 144 -145 0
143 -144 145 0
-143 -144 -145 0
-143 144 145 0
144 -631 -640 0
-144 631 0
-144 640 0
145 -630 -641 0
-145 630 0
-145 641 0
-146 147 148 0
-146 -147 -148 0
146 -147 148 0
146 147 -148 0
147 -104 -105 0
-147 104 0
-147 105 0
-148 -149 -150 0
-148 149 150 0
148 149 -150 0
148 -149 150 0
149 -629 -642 0
-149 629 0
-149 642 0
150 151 -152 0
150 -151 152 0
-150 -151 -152 0
-150 151 152 0
151 -628 -643 0
-151 628 0
-151 643 0
152 -627 -644 0
-152 627 0
-152 644 0
-153 91 101 0
-153 101 102 0
-153 91 102 0
153 -101 -102 0
153 -91 -101 0
153 -91 -102 0
154 -155 156 0
154 155 -156 0
-154 155 156 0
-154 -155 -156 0
155 -111 -112 0
-155 111 0
-155 112 0
-156 -157 -173 0
-156 157 173 0
156 157 -173 0
156 -157 173 0
-157 -158 -172 0
-157 158 172 0
157 158 -172 0
157 -158 172 0
-158 -159 -167 0
-158 159 167 0
158 159 -167 0
158 -159 167 0
-159 -160 -164 0
-159 160 164 0
159 160 -164 0
159 -160 164 0
-160 -148 -161 0
-160 148 161 0
160 148 -161 0
160 -148 161 0
161 -162 163 0
161 162 -163 0
-161 162 163 0
-161 -162 -163 0
-162 93 108 0
-162 95 108 0
-162 93 95 0
162 -93 -95 0
162 -95 -108 0
162 -93 -108 0
-163 96 147 0
-163 104 105 147 0
163 -147 0
163 -96 -105 0
163 -96 -104 0
164 -165 166 0
164 165 -166 0
-164 165 166 0
-164 -165 -166 0
165 -116 -118 0
-165 116 0
-165 118 0
-166 99 122 0
-166 99 107 0
-166 107 122 0
166 -107 -122 0
166 -99 -122 0
166 -99 -107 0
167 168 -169 0
167 -168 169 0
-167 -168 -169 0
-167 168 169 0
-168 115 121 0
-168 121 124 0
-168 115 124 0
168 -115 -124 0
168 -121 -124 0
168 -115 -121 0
169 -170 171 0
169 170 -171 0
-169 170 171 0
-169 -170 -171 0
170 133 -135 0
170 -133 135 0
-170 -133 -135 0
-170 133 135 0
-171 -136 -143 0
-171 136 143 0
171 136 -143 0
171 -136 143 0
172 -114 -125 0
-172 114 0
-172 125 0
173 -113 -126 0
-173 113 0
-173 126 0
-174 175 208 -227 -262 0
-174 -175 -208 -227 -262 0
-174 175 208 227 262 0
-174 -175 -208 227 262 0
174 175 -208 0
174 -175 208 0
174 227 -262 0
174 -227 262 0
175 176 -177 0
175 -176 177 0
-175 -176 -177 0
-175 176 177 0
-176 128 153 0
-176 128 130 0
-176 130 153 0
176 -130 -153 0
176 -128 -153 0
176 -128 -130 0
177 -178 207 0
177 178 -207 0
-177 178 207 0
-177 -178 -207 0
178 -179 190 0
178 179 -190 0
-178 179 190 0
-178 -179 -190 0
-179 -180 -185 0
-179 180 185 0
179 180 -185 0
179 -180 185 0
-180 181 182 0
-180 -181 -182 0
180 -181 182 0
180 181 -182 0
181 -630 -631 -640 -641 0
-181 641 0
-181 630 0
-181 640 0
-181 631 0
-182 -183 -184 0
-182 183 184 0
182 183 -184 0
182 -183 184 0
-183 149 152 0
-183 151 152 0
-183 149 151 0
183 -149 -151 0
183 -151 -152 0
183 -149 -152 0
184 -635 -637 0
-184 635 0
-184 637 0
185 -186 187 0
185 186 -187 0
-185 186 187 0
-185 -186 -187 0
-186 143 148 0
-186 147 143 0
-186 147 148 0
186 -147 -143 0
186 -143 -148 0
186 -147 -148 0
-187 133 188 189 0
-187 136 188 189 0
187 -189 0
187 -188 0
187 -133 -136 0
188 -135 -136 0
-188 135 0
-188 136 0
189 -133 -135 0
-189 133 0
-189 135 0
-190 -191 -192 0
-190 191 192 0
190 191 -192 0
190 -191 192 0
-191 132 138 0
-191 138 139 0
-191 132 139 0
191 -132 -139 0
191 -138 -139 0
191 -132 -138 0
192 193 -196 0
192 -193 196 0
-192 -193 -196 0
-192 193 196 0
193 194 -195 0
193 -194 195 0
-193 -194 -195 0
-193 194 195 0
194 -634 -638 0
-194 634 0
-194 638 0
195 -633 -639 0
-195 633 0
-195 639 0
196 -197 202 0
196 197 -202 0
-196 197 202 0
-196 -197 -202 0
-197 -198 -199 0
-197 198 199 0
197 198 -199 0
197 -198 199 0
198 -632 -640 0
-198 632 0
-198 640 0
199 200 -201 0
199 -200 201 0
-199 -200 -201 0
-199 200 201 0
200 -631 -641 0
-200 631 0
-200 641 0
201 -630 -642 0
-201 630 0
-201 642 0
-202 -203 -204 0
-202 203 204 0
202 203 -204 0
202 -203 204 0
203 -629 -643 0
-203 629 0
-203 643 0
204 205 -206 0
204 -205 206 0
-204 -205 -206 0
-204 205 206 0
205 -628 -644 0
-205 628 0
-205 644 0
206 -627 -645 0
-206 627 0
-206 645 0
-207 131 141 0
-207 141 142 0
-207 131 142 0
207 -141 -142 0
207 -131 -141 0
207 -131 -142 0
208 -209 211 0
208 209 -211 0
-208 209 211 0
-208 -209 -211 0
-209 210 0
209 -210 0
-210 157 0
-210 155 173 0
210 -155 -157 0
210 -157 -173 0
-211 -212 -226 0
-211 212 226 0
211 212 -226 0
211 -212 226 0
-212 213 225 0
-212 -213 -225 0
212 -213 225 0
212 213 -225 0
-213 -214 -221 0
-213 214 221 0
213 214 -221 0
213 -214 221 0
-214 -215 -218 0
-214 215 218 0
214 215 -218 0
214 -215 218 0
-215 189 216 0
-215 -189 -216 0
215 -189 216 0
215 189 -216 0
-216 183 217 0
-216 -183 -217 0
216 -183 217 0
216 183 -217 0
-217 136 181 0
-217 144 145 181 0
217 -181 0
217 -136 -145 0
217 -136 -144 0
218 -219 220 0
218 219 -220 0
-218 219 220 0
-218 -219 -220 0
219 -170 -171 0
-219 170 0
-219 171 0
-220 148 162 0
-220 162 163 0
-220 148 163 0
220 -148 -163 0
220 -162 -163 0
220 -148 -162 0
221 222 -223 0
221 -222 223 0
-221 -222 -223 0
-221 222 223 0
-222 160 166 0
-222 160 165 0
-222 165 166 0
222 -165 -166 0
222 -160 -166 0
222 -160 -165 0
223 -196 224 0
223 196 -224 0
-223 196 224 0
-223 -196 -224 0
-224 -184 -193 0
-224 184 193 0
224 184 -193 0
224 -184 193 0
-225 159 168 0
-225 168 169 0
-225 159 169 0
225 -168 -169 0
225 -159 -168 0
225 -159 -169 0
226 -158 -172 0
-226 158 0
-226 172 0
227 228 -229 0
227 -228 229 0
-227 -228 -229 0
-227 228 229 0
-228 176 207 0
-228 176 178 0
-228 178 207 0
228 -178 -207 0
228 -176 -207 0
228 -176 -178 0
229 -230 261 0
229 230 -261 0
-229 230 261 0
-229 -230 -261 0
230 -231 240 0
230 231 -240 0
-230 231 240 0
-230 -231 -240 0
-231 -232 -237 0
-231 232 237 0
231 232 -237 0
231 -232 237 0
-232 233 234 0
-232 -233 -234 0
232 -233 234 0
232 233 -234 0
233 -633 -634 -638 -639 0
-233 639 0
-233 633 0
-233 638 0
-233 634 0
-234 235 236 0
-234 -235 -236 0
234 -235 236 0
234 235 -236 0
-235 641 201 0
-235 631 198 0
-235 198 201 0
-235 641 198 0
-235 631 201 0
235 -198 -201 0
235 -631 -641 -201 0
235 -631 -641 -198 0
-236 644 206 0
-236 628 203 0
-236 203 206 0
-236 644 203 0
-236 628 206 0
236 -203 -206 0
236 -628 -644 -206 0
236 -628 -644 -203 0
237 -238 239 0
237 238 -239 0
-237 238 239 0
-237 -238 -239 0
-238 193 197 0
-238 197 202 0
-238 193 202 0
238 -197 -202 0
238 -193 -197 0
238 -193 -202 0
-239 183 184 0
-239 181 184 0
-239 181 183 0
239 -181 -184 0
239 -181 -183 0
239 -183 -184 0
-240 -241 -242 0
-240 241 242 0
240 241 -242 0
240 -241 242 0
-241 180 186 0
-241 186 187 0
-241 180 187 0
241 -180 -187 0
241 -186 -187 0
241 -180 -186 0
242 243 -250 0
242 -243 250 0
-242 -243 -250 0
-242 243 250 0
-243 -244 -247 0
-243 244 247 0
243 244 -247 0
243 -244 247 0
244 245 -246 0
244 -245 246 0
-244 -245 -246 0
-244 245 246 0
245 -628 -645 0
-245 628 0
-245 645 0
246 -627 -646 0
-246 627 0
-246 646 0
247 248 -249 0
247 -248 249 0
-247 -248 -249 0
-247 248 249 0
248 -636 -637 0
-248 636 0
-248 637 0
249 -635 -638 0
-249 635 0
-249 638 0
250 -251 256 0
250 251 -256 0
-250 251 256 0
-250 -251 -256 0
-251 -252 -253 0
-251 252 253 0
251 252 -253 0
251 -252 253 0
252 -634 -639 0
-252 634 0
-252 639 0
253 254 -255 0
253 -254 255 0
-253 -254 -255 0
-253 254 255 0
254 -633 -640 0
-254 633 0
-254 640 0
255 -632 -641 0
-255 632 0
-255 641 0
-256 -257 -258 0
-256 257 258 0
256 257 -258 0
256 -257 258 0
257 -631 -642 0
-257 631 0
-257 642 0
258 259 -260 0
258 -259 260 0
-258 -259 -260 0
-258 259 260 0
259 -630 -643 0
-259 630 0
-259 643 0
260 -629 -644 0
-260 629 0
-260 644 0
-261 179 191 0
-261 191 192 0
-261 179 192 0
261 -191 -192 0
261 -179 -191 0
261 -179 -192 0
262 -263 264 0
262 263 -264 0
-262 263 264 0
-262 -263 -264 0
-263 209 212 0
-263 212 226 0
-263 209 226 0
263 -212 -226 0
263 -209 -212 0
263 -209 -226 0
-264 -265 -285 0
-264 265 285 0
264 265 -285 0
264 -265 285 0
265 -266 284 0
265 266 -284 0
-265 266 284 0
-265 -266 -284 0
-266 -267 -276 0
-266 267 276 0
266 267 -276 0
266 -267 276 0
267 268 -274 0
267 -268 274 0
-267 -268 -274 0
-267 268 274 0
-268 -269 -271 0
-268 269 271 0
268 269 -271 0
268 -269 271 0
-269 -255 -270 0
-269 255 270 0
269 255 -270 0
269 -255 270 0
270 257 -259 0
270 -257 259 0
-270 -257 -259 0
-270 257 259 0
271 -272 273 0
271 272 -273 0
-271 272 273 0
-271 -272 -273 0
-272 -244 -260 0
-272 244 260 0
272 244 -260 0
272 -244 260 0
-273 184 233 0
-273 194 195 233 0
273 -233 0
273 -184 -195 0
273 -184 -194 0
274 -235 275 0
274 235 -275 0
-274 235 275 0
-274 -235 -275 0
-275 -236 -248 0
-275 236 248 0
275 236 -248 0
275 -236 248 0
276 -277 283 0
276 277 -283 0
-276 277 283 0
-276 -277 -283 0
277 -278 279 0
277 278 -279 0
-277 278 279 0
-277 -278 -279 0
-278 197 202 0
-278 202 224 0
-278 197 224 0
278 -197 -224 0
278 -202 -224 0
278 -197 -202 0
-279 -280 -281 0
-279 280 281 0
279 280 -281 0
279 -280 281 0
-280 189 183 0
-280 183 217 0
-280 189 217 0
280 -183 -217 0
280 -189 -183 0
280 -189 -217 0
281 249 -282 0
281 -249 282 0
-281 -249 -282 0
-281 249 282 0
282 252 -254 0
282 -252 254 0
-282 -252 -254 0
-282 252 254 0
-283 219 215 0
-283 215 220 0
-283 219 220 0
283 -215 -220 0
283 -219 -215 0
283 -219 -220 0
-284 214 222 0
-284 222 223 0
-284 214 223 0
284 -222 -223 0
284 -214 -222 0
284 -214 -223 0
285 -213 -225 0
-285 213 0
-285 225 0
-286 287 402 432 449 0
-286 287 -402 -432 449 0
286 -449 0
286 -402 432 0
286 -287 0
286 402 -432 0
-287 288 323 -350 -383 0
-287 -288 -323 -350 -383 0
-287 288 323 350 383 0
-287 -288 -323 350 383 0
287 288 -323 0
287 -288 323 0
287 350 -383 0
287 -350 383 0
288 289 -290 0
288 -289 290 0
-288 -289 -290 0
-288 289 290 0
-289 228 261 0
-289 228 230 0
-289 230 261 0
289 -230 -261 0
289 -228 -261 0
289 -228 -230 0
290 -291 322 0
290 291 -322 0
-290 291 322 0
-290 -291 -322 0
291 -292 301 0
291 292 -301 0
-291 292 301 0
-291 -292 -301 0
-292 -293 -298 0
-292 293 298 0
292 293 -298 0
292 -293 298 0
-293 -294 -295 0
-293 294 295 0
293 294 -295 0
293 -294 295 0
-294 244 249 0
-294 248 249 0
-294 244 248 0
294 -244 -248 0
294 -248 -249 0
294 -244 -249 0
295 -296 297 0
295 296 -297 0
-295 296 297 0
-295 -296 -297 0
-296 252 255 0
-296 254 255 0
-296 252 254 0
296 -252 -254 0
296 -254 -255 0
296 -252 -255 0
-297 257 260 0
-297 259 260 0
-297 257 259 0
297 -257 -259 0
297 -259 -260 0
297 -257 -260 0
298 -299 300 0
298 299 -300 0
-298 299 300 0
-298 -299 -300 0
-299 243 251 0
-299 251 256 0
-299 243 256 0
299 -243 -256 0
299 -251 -256 0
299 -243 -251 0
-300 233 235 0
-300 235 236 0
-300 233 236 0
300 -235 -236 0
300 -233 -235 0
300 -233 -236 0
-301 -302 -303 0
-301 302 303 0
301 302 -303 0
301 -302 303 0
-302 232 238 0
-302 238 239 0
-302 232 239 0
302 -232 -239 0
302 -238 -239 0
302 -232 -238 0
303 304 -311 0
303 -304 311 0
-303 -304 -311 0
-303 304 311 0
-304 -305 -308 0
-304 305 308 0
304 305 -308 0
304 -305 308 0
305 306 -307 0
305 -306 307 0
-305 -306 -307 0
-305 306 307 0
306 -629 -645 0
-306 629 0
-306 645 0
307 -628 -646 0
-307 628 0
-307 646 0
308 309 -310 0
308 -309 310 0
-308 -309 -310 0
-308 309 310 0
309 -627 -628 -645 -646 0
-309 646 0
-309 627 0
-309 645 0
-309 628 0
310 -636 -638 0
-310 636 0
-310 638 0
311 -312 317 0
311 312 -317 0
-311 312 317 0
-311 -312 -317 0
-312 -313 -314 0
-312 313 314 0
312 313 -314 0
312 -313 314 0
313 -635 -639 0
-313 635 0
-313 639 0
314 315 -316 0
314 -315 316 0
-314 -315 -316 0
-314 315 316 0
315 -634 -640 0
-315 634 0
-315 640 0
316 -633 -641 0
-316 633 0
-316 641 0
-317 -318 -319 0
-317 318 319 0
317 318 -319 0
317 -318 319 0
318 -632 -642 0
-318 632 0
-318 642 0
319 320 -321 0
319 -320 321 0
-319 -320 -321 0
-319 320 321 0
320 -631 -643 0
-320 631 0
-320 643 0
321 -630 -644 0
-321 630 0
-321 644 0
-322 231 241 0
-322 241 242 0
-322 231 242 0
322 -241 -242 0
322 -231 -241 0
322 -231 -242 0
323 -324 325 0
323 324 -325 0
-323 324 325 0
-323 -324 -325 0
-324 265 285 0
-324 263 265 0
-324 263 285 0
324 -263 -265 0
324 -265 -285 0
324 -263 -285 0
-325 -326 -327 0
-325 326 327 0
325 326 -327 0
325 -326 327 0
326 -266 -284 0
-326 266 0
-326 284 0
327 -328 339 0
327 328 -339 0
-327 328 339 0
-327 -328 -339 0
-328 329 330 0
-328 -329 -330 0
328 -329 330 0
328 329 -330 0
329 -268 -274 0
-329 268 0
-329 274 0
-330 -331 -332 0
-330 331 332 0
330 331 -332 0
330 -331 332 0
-331 278 280 0
-331 280 281 0
-331 278 281 0
331 -280 -281 0
331 -278 -280 0
331 -278 -281 0
332 333 -335 0
332 -333 335 0
-332 -333 -335 0
-332 333 335 0
-333 -310 -334 0
-333 310 334 0
333 310 -334 0
333 -310 334 0
334 313 -315 0
334 -313 315 0
-334 -313 -315 0
-334 313 315 0
335 -336 338 0
335 336 -338 0
-335 336 338 0
-335 -336 -338 0
-336 -316 -337 0
-336 316 337 0
336 316 -337 0
336 -316 337 0
337 318 -320 0
337 -318 320 0
-337 -318 -320 0
-337 318 320 0
-338 -305 -321 0
-338 305 321 0
338 305 -321 0
338 -305 321 0
-339 -340 -341 0
-339 340 341 0
339 340 -341 0
339 -340 341 0
-340 277 283 0
-340 267 277 0
-340 267 283 0
340 -267 -277 0
340 -277 -283 0
340 -267 -283 0
341 -342 347 0
341 342 -347 0
-341 342 347 0
-341 -342 -347 0
-342 -343 -344 0
-342 343 344 0
342 343 -344 0
342 -343 344 0
-343 249 254 0
-343 252 254 0
-343 249 252 0
343 -249 -252 0
343 -252 -254 0
343 -249 -254 0
344 -345 346 0
344 345 -346 0
-344 345 346 0
-344 -345 -346 0
-345 643 257 0
-345 630 255 0
-345 255 257 0
-345 643 255 0
-345 630 257 0
345 -255 -257 0
345 -630 -643 -257 0
345 -630 -643 -255 0
-346 645 260 0
-346 628 246 0
-346 246 260 0
-346 645 246 0
-346 628 260 0
346 -246 -260 0
346 -628 -645 -260 0
346 -628 -645 -246 0
-347 348 349 0
-347 -348 -349 0
347 -348 349 0
347 348 -349 0
-348 269 272 0
-348 272 273 0
-348 269 273 0
348 -269 -273 0
348 -272 -273 0
348 -269 -272 0
-349 235 236 0
-349 236 248 0
-349 235 248 0
349 -236 -248 0
349 -235 -236 0
349 -235 -248 0
350 -351 352 0
350 351 -352 0
-350 351 352 0
-350 -351 -352 0
-351 289 322 0
-351 289 291 0
-351 291 322 0
351 -291 -322 0
351 -289 -322 0
351 -289 -291 0
-352 353 382 0
-352 -353 -382 0
352 -353 382 0
352 353 -382 0
353 -354 363 0
353 354 -363 0
-353 354 363 0
-353 -354 -363 0
-354 -355 -360 0
-354 355 360 0
354 355 -360 0
354 -355 360 0
-355 -356 -357 0
-355 356 357 0
355 356 -357 0
355 -356 357 0
-356 309 310 0
-356 305 310 0
-356 309 305 0
356 -309 -305 0
356 -305 -310 0
356 -309 -310 0
357 -358 359 0
357 358 -359 0
-357 358 359 0
-357 -358 -359 0
-358 640 316 0
-358 634 313 0
-358 313 316 0
-358 640 313 0
-358 634 316 0
358 -313 -316 0
358 -634 -640 -316 0
358 -634 -640 -313 0
-359 318 321 0
-359 320 321 0
-359 318 320 0
359 -318 -320 0
359 -320 -321 0
359 -318 -321 0
360 -361 362 0
360 361 -362 0
-360 361 362 0
-360 -361 -362 0
-361 304 312 0
-361 312 317 0
-361 304 317 0
361 -304 -317 0
361 -312 -317 0
361 -304 -312 0
-362 294 296 0
-362 296 297 0
-362 294 297 0
362 -294 -297 0
362 -296 -297 0
362 -294 -296 0
-363 -364 -365 0
-363 364 365 0
363 364 -365 0
363 -364 365 0
-364 293 299 0
-364 299 300 0
-364 293 300 0
364 -293 -300 0
364 -299 -300 0
364 -293 -299 0
365 366 -371 0
365 -366 371 0
-365 -366 -371 0
-365 366 371 0
-366 -367 -368 0
-366 367 368 0
366 367 -368 0
366 -367 368 0
367 -628 -629 -645 -646 0
-367 646 0
-367 628 0
-367 645 0
-367 629 0
368 369 -370 0
368 -369 370 0
-368 -369 -370 0
-368 369 370 0
369 -636 -639 0
-369 636 0
-369 639 0
370 -635 -640 0
-370 635 0
-370 640 0
371 -372 377 0
371 372 -377 0
-371 372 377 0
-371 -372 -377 0
-372 -373 -374 0
-372 373 374 0
372 373 -374 0
372 -373 374 0
373 -634 -641 0
-373 634 0
-373 641 0
374 375 -376 0
374 -375 376 0
-374 -375 -376 0
-374 375 376 0
375 -633 -642 0
-375 633 0
-375 642 0
376 -632 -643 0
-376 632 0
-376 643 0
-377 -378 -379 0
-377 378 379 0
377 378 -379 0
377 -378 379 0
378 -631 -644 0
-378 631 0
-378 644 0
379 380 -381 0
379 -380 381 0
-379 -380 -381 0
-379 380 381 0
380 -630 -645 0
-380 630 0
-380 645 0
381 -629 -646 0
-381 629 0
-381 646 0
-382 292 302 0
-382 302 303 0
-382 292 303 0
382 -302 -303 0
382 -292 -302 0
382 -292 -303 0
383 -384 385 0
383 384 -385 0
-383 384 385 0
-383 -384 -385 0
-384 324 327 0
-384 326 327 0
-384 326 324 0
384 -326 -327 0
384 -326 -324 0
384 -324 -327 0
-385 386 401 0
-385 -386 -401 0
385 -386 401 0
385 386 -401 0
386 -387 400 0
386 387 -400 0
-386 387 400 0
-386 -387 -400 0
-387 -388 -397 0
-387 388 397 0
387 388 -397 0
387 -388 397 0
-388 -389 -394 0
-388 389 394 0
388 389 -394 0
388 -389 394 0
-389 -390 -391 0
-389 390 391 0
389 390 -391 0
389 -390 391 0
-390 640 313 0
-390 634 310 0
-390 310 313 0
-390 640 310 0
-390 634 313 0
390 -310 -313 0
390 -634 -640 -313 0
390 -634 -640 -310 0
391 -392 393 0
391 392 -393 0
-391 392 393 0
-391 -392 -393 0
-392 643 318 0
-392 631 316 0
-392 316 318 0
-392 643 316 0
-392 631 318 0
392 -316 -318 0
392 -631 -643 -318 0
392 -631 -643 -316 0
-393 645 321 0
-393 629 307 0
-393 307 321 0
-393 645 307 0
-393 629 321 0
393 -307 -321 0
393 -629 -645 -321 0
393 -629 -645 -307 0
394 -395 396 0
394 395 -396 0
-394 395 396 0
-394 -395 -396 0
-395 333 336 0
-395 336 338 0
-395 333 338 0
395 -333 -338 0
395 -336 -338 0
395 -333 -336 0
-396 343 345 0
-396 345 346 0
-396 343 346 0
396 -343 -346 0
396 -345 -346 0
396 -343 -345 0
397 398 -399 0
397 -398 399 0
-397 -398 -399 0
-397 398 399 0
-398 342 348 0
-398 348 349 0
-398 342 349 0
398 -342 -349 0
398 -348 -349 0
398 -342 -348 0
399 368 -371 0
399 -368 371 0
-399 -368 -371 0
-399 368 371 0
-400 331 332 0
-400 329 332 0
-400 329 331 0
400 -329 -332 0
400 -329 -331 0
400 -331 -332 0
-401 328 340 0
-401 340 341 0
-401 328 341 0
401 -340 -341 0
401 -328 -340 0
401 -328 -341 0
402 403 -404 0
402 -403 404 0
-402 -403 -404 0
-402 403 404 0
-403 351 382 0
-403 351 353 0
-403 353 382 0
403 -353 -382 0
403 -351 -382 0
403 -351 -353 0
404 -405 431 0
404 405 -431 0
-404 405 431 0
-404 -405 -431 0
405 -406 415 0
405 406 -415 0
-405 406 415 0
-405 -406 -415 0
-406 -407 -412 0
-406 407 412 0
406 407 -412 0
406 -407 412 0
-407 408 409 0
-407 -408 -409 0
407 -408 409 0
407 408 -409 0
-408 373 376 0
-408 375 376 0
-408 373 375 0
408 -373 -375 0
408 -375 -376 0
408 -373 -376 0
-409 -410 -411 0
-409 410 411 0
409 410 -411 0
409 -410 411 0
-410 378 381 0
-410 380 381 0
-410 378 380 0
410 -378 -380 0
410 -380 -381 0
410 -378 -381 0
411 -636 -640 0
-411 636 0
-411 640 0
412 -413 414 0
412 413 -414 0
-412 413 414 0
-412 -413 -414 0
-413 366 372 0
-413 372 377 0
-413 366 377 0
413 -366 -377 0
413 -372 -377 0
413 -366 -372 0
-414 356 358 0
-414 358 359 0
-414 356 359 0
414 -356 -359 0
414 -358 -359 0
414 -356 -358 0
-415 -416 -417 0
-415 416 417 0
415 416 -417 0
415 -416 417 0
-416 355 361 0
-416 361 362 0
-416 355 362 0
416 -355 -362 0
416 -361 -362 0
416 -355 -361 0
417 -418 423 0
417 418 -423 0
-417 418 423 0
-417 -418 -423 0
-418 -419 -420 0
-418 419 420 0
418 419 -420 0
418 -419 420 0
419 -635 -641 0
-419 635 0
-419 641 0
420 421 -422 0
420 -421 422 0
-420 -421 -422 0
-420 421 422 0
421 -634 -642 0
-421 634 0
-421 642 0
422 -633 -643 0
-422 633 0
-422 643 0
-423 424 429 0
-423 -424 -429 0
423 -424 429 0
423 424 -429 0
-424 -425 -426 0
-424 425 426 0
424 425 -426 0
424 -425 426 0
425 -632 -644 0
-425 632 0
-425 644 0
426 427 -428 0
426 -427 428 0
-426 -427 -428 0
-426 427 428 0
427 -631 -645 0
-427 631 0
-427 645 0
428 -630 -646 0
-428 630 0
-428 646 0
-429 367 430 0
-429 369 370 430 0
429 -430 0
429 -367 -370 0
429 -367 -369 0
430 -635 -636 -639 -640 0
-430 640 0
-430 635 0
-430 639 0
-430 636 0
-431 354 364 0
-431 364 365 0
-431 354 365 0
431 -364 -365 0
431 -354 -364 0
431 -354 -365 0
432 -433 434 0
432 433 -434 0
-432 433 434 0
-432 -433 -434 0
-433 384 401 0
-433 384 386 0
-433 386 401 0
433 -386 -401 0
433 -384 -401 0
433 -384 -386 0
-434 -435 -436 0
-434 435 436 0
434 435 -436 0
434 -435 436 0
435 -387 -400 0
-435 387 0
-435 400 0
436 -437 448 0
436 437 -448 0
-436 437 448 0
-436 -437 -448 0
-437 -438 -444 0
-437 438 444 0
437 438 -444 0
437 -438 444 0
-438 -439 -441 0
-438 439 441 0
438 439 -441 0
438 -439 441 0
-439 -408 -440 0
-439 408 440 0
439 408 -440 0
439 -408 440 0
440 410 -411 0
440 -410 411 0
-440 -410 -411 0
-440 410 411 0
441 -442 443 0
441 442 -443 0
-441 442 443 0
-441 -442 -443 0
-442 368 372 0
-442 372 377 0
-442 368 377 0
442 -372 -377 0
442 -368 -372 0
442 -368 -377 0
-443 390 392 0
-443 392 393 0
-443 390 393 0
443 -390 -393 0
443 -392 -393 0
443 -390 -392 0
444 445 -446 0
444 -445 446 0
-444 -445 -446 0
-444 445 446 0
-445 389 395 0
-445 395 396 0
-445 389 396 0
445 -389 -396 0
445 -395 -396 0
445 -389 -395 0
446 -418 447 0
446 418 -447 0
-446 418 447 0
-446 -418 -447 0
-447 430 424 0
-447 -430 -424 0
447 -430 424 0
447 430 -424 0
-448 388 398 0
-448 398 399 0
-448 388 399 0
448 -398 -399 0
448 -388 -398 0
448 -388 -399 0
-449 450 475 -487 -508 0
-449 -450 -475 -487 -508 0
-449 450 475 487 508 0
-449 -450 -475 487 508 0
449 450 -475 0
449 -450 475 0
449 487 -508 0
449 -487 508 0
450 -451 452 0
450 451 -452 0
-450 451 452 0
-450 -451 -452 0
-451 403 431 0
-451 403 405 0
-451 405 431 0
451 -405 -431 0
451 -403 -431 0
451 -403 -405 0
-452 453 474 0
-452 -453 -474 0
452 -453 474 0
452 453 -474 0
453 -454 463 0
453 454 -463 0
-453 454 463 0
-453 -454 -463 0
-454 -455 -460 0
-454 455 460 0
454 455 -460 0
454 -455 460 0
-455 -456 -457 0
-455 456 457 0
455 456 -457 0
455 -456 457 0
456 -636 -641 0
-456 636 0
-456 641 0
457 458 -459 0
457 -458 459 0
-457 -458 -459 0
-457 458 459 0
458 -635 -642 0
-458 635 0
-458 642 0
459 -634 -643 0
-459 634 0
-459 643 0
460 -461 462 0
460 461 -462 0
-460 461 462 0
-460 -461 -462 0
-461 418 424 0
-461 424 429 0
-461 418 429 0
461 -418 -429 0
461 -424 -429 0
461 -418 -424 0
-462 408 410 0
-462 410 411 0
-462 408 411 0
462 -410 -411 0
462 -408 -410 0
462 -408 -411 0
-463 -464 -465 0
-463 464 465 0
463 464 -465 0
463 -464 465 0
-464 407 413 0
-464 413 414 0
-464 407 414 0
464 -407 -414 0
464 -413 -414 0
464 -407 -413 0
465 -466 471 0
465 466 -471 0
-465 466 471 0
-465 -466 -471 0
-466 -467 -468 0
-466 467 468 0
466 467 -468 0
466 -467 468 0
467 -633 -644 0
-467 633 0
-467 644 0
468 469 -470 0
468 -469 470 0
-468 -469 -470 0
-468 469 470 0
469 -632 -645 0
-469 632 0
-469 645 0
470 -631 -646 0
-470 631 0
-470 646 0
-471 472 473 0
-471 -472 -473 0
471 -472 473 0
471 472 -473 0
-472 419 422 0
-472 421 422 0
-472 419 421 0
472 -419 -421 0
472 -421 -422 0
472 -419 -422 0
-473 425 428 0
-473 427 428 0
-473 425 427 0
473 -425 -427 0
473 -427 -428 0
473 -425 -428 0
-474 406 416 0
-474 416 417 0
-474 406 417 0
474 -416 -417 0
474 -406 -416 0
474 -406 -417 0
475 -476 477 0
475 476 -477 0
-475 476 477 0
-475 -476 -477 0
-476 433 436 0
-476 435 436 0
-476 435 433 0
476 -435 -436 0
476 -435 -433 0
476 -433 -436 0
-477 -478 -479 0
-477 478 479 0
477 478 -479 0
477 -478 479 0
478 -437 -448 0
-478 437 0
-478 448 0
479 -480 486 0
479 480 -486 0
-479 480 486 0
-479 -480 -486 0
-480 -481 -484 0
-480 481 484 0
480 481 -484 0
480 -481 484 0
-481 -482 -483 0
-481 482 483 0
481 482 -483 0
481 -482 483 0
-482 430 418 0
-482 418 424 0
-482 430 424 0
482 -418 -424 0
482 -430 -418 0
482 -430 -424 0
483 -455 462 0
483 455 -462 0
-483 455 462 0
-483 -455 -462 0
484 -465 485 0
484 465 -485 0
-484 465 485 0
-484 -465 -485 0
-485 439 442 0
-485 442 443 0
-485 439 443 0
485 -439 -443 0
485 -442 -443 0
485 -439 -442 0
-486 438 445 0
-486 445 446 0
-486 438 446 0
486 -445 -446 0
486 -438 -445 0
486 -438 -446 0
487 -488 489 0
487 488 -489 0
-487 488 489 0
-487 -488 -489 0
-488 451 474 0
-488 451 453 0
-488 453 474 0
488 -453 -474 0
488 -451 -474 0
488 -451 -453 0
-489 490 507 0
-489 -490 -507 0
489 -490 507 0
489 490 -507 0
490 -491 500 0
490 491 -500 0
-490 491 500 0
-490 -491 -500 0
-491 -492 -497 0
-491 492 497 0
491 492 -497 0
491 -492 497 0
-492 -493 -494 0
-492 493 494 0
492 493 -494 0
492 -493 494 0
493 -634 -644 0
-493 634 0
-493 644 0
494 495 -496 0
494 -495 496 0
-494 -495 -496 0
-494 495 496 0
495 -633 -645 0
-495 633 0
-495 645 0
496 -632 -646 0
-496 632 0
-496 646 0
497 -498 499 0
497 498 -499 0
-497 498 499 0
-497 -498 -499 0
-498 466 472 0
-498 472 473 0
-498 466 473 0
498 -466 -473 0
498 -472 -473 0
498 -466 -472 0
-499 456 459 0
-499 458 459 0
-499 456 458 0
499 -456 -458 0
499 -458 -459 0
499 -456 -459 0
-500 -501 -502 0
-500 501 502 0
500 501 -502 0
500 -501 502 0
-501 455 461 0
-501 461 462 0
-501 455 462 0
501 -455 -462 0
501 -461 -462 0
501 -455 -461 0
502 503 -504 0
502 -503 504 0
-502 -503 -504 0
-502 503 504 0
-503 467 470 0
-503 469 470 0
-503 467 469 0
503 -467 -469 0
503 -469 -470 0
503 -467 -470 0
504 505 -506 0
504 -505 506 0
-504 -505 -506 0
-504 505 506 0
505 -636 -642 0
-505 636 0
-505 642 0
506 -635 -643 0
-506 635 0
-506 643 0
-507 454 464 0
-507 464 465 0
-507 454 465 0
507 -464 -465 0
507 -454 -464 0
507 -454 -465 0
508 -509 510 0
508 509 -510 0
-508 509 510 0
-508 -509 -510 0
-509 476 479 0
-509 478 479 0
-509 478 476 0
509 -478 -479 0
509 -478 -476 0
509 -476 -479 0
-510 -511 -512 0
-510 511 512 0
510 511 -512 0
510 -511 512 0
511 -480 -486 0
-511 480 0
-511 486 0
512 -513 519 0
512 513 -519 0
-512 513 519 0
-512 -513 -519 0
-513 514 518 0
-513 -514 -518 0
513 -514 518 0
513 514 -518 0
-514 -515 -517 0
-514 515 517 0
514 515 -517 0
514 -515 517 0
-515 -492 -516 0
-515 492 516 0
515 492 -516 0
515 -492 516 0
516 -499 503 0
516 499 -503 0
-516 499 503 0
-516 -499 -503 0
517 498 -504 0
517 -498 504 0
-517 -498 -504 0
-517 498 504 0
-518 455 462 0
-518 462 482 0
-518 455 482 0
518 -455 -482 0
518 -462 -482 0
518 -455 -462 0
-519 465 481 0
-519 481 485 0
-519 465 485 0
519 -481 -485 0
519 -465 -481 0
519 -465 -485 0
-520 521 578 587 598 0
-520 521 -578 -587 598 0
520 -598 0
520 -578 587 0
520 -521 0
520 578 -587 0
-521 522 539 -554 -567 0
-521 -522 -539 -554 -567 0
-521 522 539 554 567 0
-521 -522 -539 554 567 0
521 522 -539 0
521 -522 539 0
521 554 -567 0
521 -554 567 0
522 -523 524 0
522 523 -524 0
-522 523 524 0
-522 -523 -524 0
-523 488 507 0
-523 488 490 0
-523 490 507 0
523 -490 -507 0
523 -488 -507 0
523 -488 -490 0
-524 525 538 0
-524 -525 -538 0
524 -525 538 0
524 525 -538 0
525 -526 531 0
525 526 -531 0
-525 526 531 0
-525 -526 -531 0
-526 -527 -528 0
-526 527 528 0
526 527 -528 0
526 -527 528 0
-527 505 506 0
-527 503 505 0
-527 503 506 0
527 -503 -505 0
527 -505 -506 0
527 -503 -506 0
528 529 -530 0
528 -529 530 0
-528 -529 -530 0
-528 529 530 0
-529 645 496 0
-529 633 493 0
-529 493 496 0
-529 645 493 0
-529 633 496 0
529 -493 -496 0
529 -633 -645 -496 0
529 -633 -645 -493 0
530 -636 -643 0
-530 636 0
-530 643 0
-531 -532 -533 0
-531 532 533 0
531 532 -533 0
531 -532 533 0
-532 492 498 0
-532 498 499 0
-532 492 499 0
532 -492 -499 0
532 -498 -499 0
532 -492 -498 0
533 534 -535 0
533 -534 535 0
-533 -534 -535 0
-533 534 535 0
534 -635 -644 0
-534 635 0
-534 644 0
535 536 -537 0
535 -536 537 0
-535 -536 -537 0
-535 536 537 0
536 -634 -645 0
-536 634 0
-536 645 0
537 -633 -646 0
-537 633 0
-537 646 0
-538 491 501 0
-538 501 502 0
-538 491 502 0
538 -501 -502 0
538 -491 -501 0
538 -491 -502 0
539 -540 541 0
539 540 -541 0
-539 540 541 0
-539 -540 -541 0
-540 509 512 0
-540 511 512 0
-540 511 509 0
540 -511 -512 0
540 -511 -509 0
540 -509 -512 0
-541 542 543 0
-541 -542 -543 0
541 -542 543 0
541 542 -543 0
542 -513 -519 0
-542 513 0
-542 519 0
-543 -544 -553 0
-543 544 553 0
543 544 -553 0
543 -544 553 0
-544 545 552 0
-544 -545 -552 0
544 -545 552 0
544 545 -552 0
-545 -546 -549 0
-545 546 549 0
545 546 -549 0
545 -546 549 0
-546 547 548 0
-546 -547 -548 0
546 -547 548 0
546 547 -548 0
547 -635 -636 -642 -643 0
-547 643 0
-547 635 0
-547 642 0
-547 636 0
-548 -529 -530 0
-548 529 530 0
548 529 -530 0
548 -529 530 0
549 -550 551 0
549 550 -551 0
-549 550 551 0
-549 -550 -551 0
-550 492 499 0
-550 499 503 0
-550 492 503 0
550 -492 -503 0
550 -499 -503 0
550 -492 -499 0
-551 -534 -535 0
-551 534 535 0
551 534 -535 0
551 -534 535 0
-552 498 515 0
-552 498 504 0
-552 504 515 0
552 -504 -515 0
552 -498 -515 0
552 -498 -504 0
553 -514 -518 0
-553 514 0
-553 518 0
554 -555 556 0
554 555 -556 0
-554 555 556 0
-554 -555 -556 0
-555 523 538 0
-555 523 525 0
-555 525 538 0
555 -525 -538 0
555 -523 -538 0
555 -523 -525 0
-556 557 566 0
-556 -557 -566 0
556 -557 566 0
556 557 -566 0
557 -558 563 0
557 558 -563 0
-557 558 563 0
-557 -558 -563 0
-558 -559 -560 0
-558 559 560 0
558 559 -560 0
558 -559 560 0
559 -636 -644 0
-559 636 0
-559 644 0
560 561 -562 0
560 -561 562 0
-560 -561 -562 0
-560 561 562 0
561 -635 -645 0
-561 635 0
-561 645 0
562 -634 -646 0
-562 634 0
-562 646 0
-563 564 565 0
-563 -564 -565 0
563 -564 565 0
563 564 -565 0
-564 527 529 0
-564 529 530 0
-564 527 530 0
564 -529 -530 0
564 -527 -529 0
564 -527 -530 0
-565 534 537 0
-565 536 537 0
-565 534 536 0
565 -534 -536 0
565 -536 -537 0
565 -534 -537 0
-566 526 532 0
-566 532 533 0
-566 526 533 0
566 -532 -533 0
566 -526 -532 0
566 -526 -533 0
567 -568 569 0
567 568 -569 0
-567 568 569 0
-567 -568 -569 0
-568 542 540 0
-568 540 543 0
-568 542 543 0
568 -540 -543 0
568 -542 -540 0
568 -542 -543 0
-569 -570 -577 0
-569 570 577 0
569 570 -577 0
569 -570 577 0
-570 -571 -576 0
-570 571 576 0
570 571 -576 0
570 -571 576 0
-571 572 575 0
-571 -572 -575 0
571 -572 575 0
571 572 -575 0
-572 573 574 0
-572 -573 -574 0
572 -573 574 0
572 573 -574 0
-573 558 565 0
-573 -558 -565 0
573 -558 565 0
573 558 -565 0
-574 529 530 0
-574 547 530 0
-574 547 529 0
574 -547 -530 0
574 -547 -529 0
574 -529 -530 0
-575 546 550 0
-575 550 551 0
-575 546 551 0
575 -546 -551 0
575 -550 -551 0
575 -546 -550 0
576 -545 -552 0
-576 545 0
-576 552 0
577 -544 -553 0
-577 544 0
-577 553 0
578 -579 580 0
578 579 -580 0
-578 579 580 0
-578 -579 -580 0
-579 555 566 0
-579 555 557 0
-579 557 566 0
579 -557 -566 0
579 -555 -566 0
579 -555 -557 0
-580 581 586 0
-580 -581 -586 0
580 -581 586 0
580 581 -586 0
581 582 -583 0
581 -582 583 0
-581 -582 -583 0
-581 582 583 0
-582 559 562 0
-582 561 562 0
-582 559 561 0
582 -559 -561 0
582 -561 -562 0
582 -559 -562 0
583 584 -585 0
583 -584 585 0
-583 -584 -585 0
-583 584 585 0
584 -636 -645 0
-584 636 0
-584 645 0
585 -635 -646 0
-585 635 0
-585 646 0
-586 558 564 0
-586 564 565 0
-586 558 565 0
586 -558 -565 0
586 -564 -565 0
586 -558 -564 0
587 -588 589 0
587 588 -589 0
-587 588 589 0
-587 -588 -589 0
-588 568 570 0
-588 570 577 0
-588 568 577 0
588 -570 -577 0
588 -568 -570 0
588 -568 -577 0
-589 -590 -597 0
-589 590 597 0
589 590 -597 0
589 -590 597 0
-590 -591 -596 0
-590 591 596 0
590 591 -596 0
590 -591 596 0
-591 -592 -595 0
-591 592 595 0
591 592 -595 0
591 -592 595 0
-592 593 594 0
-592 -593 -594 0
592 -593 594 0
592 593 -594 0
593 -558 -565 0
-593 558 0
-593 565 0
-594 -582 -583 0
-594 582 583 0
594 582 -583 0
594 -582 583 0
595 -573 -574 0
-595 573 0
-595 574 0
596 -572 -575 0
-596 572 0
-596 575 0
597 -571 -576 0
-597 571 0
-597 576 0
-598 599 604 617 618 0
-598 -599 -604 -617 -618 0
-598 599 604 -617 -618 0
-598 -599 -604 617 618 0
598 599 -604 0
598 -599 604 0
598 -617 618 0
598 617 -618 0
599 -600 601 0
599 600 -601 0
-599 600 601 0
-599 -600 -601 0
-600 579 586 0
-600 579 581 0
-600 581 586 0
600 -581 -586 0
600 -579 -586 0
600 -579 -581 0
-601 -602 -603 0
-601 602 603 0
601 602 -603 0
601 -602 603 0
-602 584 585 0
-602 582 584 0
-602 582 585 0
602 -582 -584 0
602 -584 -585 0
602 -582 -585 0
603 -636 -646 0
-603 636 0
-603 646 0
604 -605 606 0
604 605 -606 0
-604 605 606 0
-604 -605 -606 0
-605 588 590 0
-605 590 597 0
-605 588 597 0
605 -590 -597 0
605 -588 -590 0
605 -588 -597 0
-606 -607 -616 0
-606 607 616 0
606 607 -616 0
606 -607 616 0
-607 -608 -615 0
-607 608 615 0
607 608 -615 0
607 -608 615 0
-608 -609 -614 0
-608 609 614 0
608 609 -614 0
608 -609 614 0
-609 610 611 0
-609 -610 -611 0
609 -610 611 0
609 610 -611 0
610 -582 -583 0
-610 582 0
-610 583 0
-611 612 0
611 -612 0
612 613 -603 0
-612 -613 0
-612 603 0
613 -635 -636 -645 -646 0
-613 646 0
-613 635 0
-613 645 0
-613 636 0
614 -593 -594 0
-614 593 0
-614 594 0
615 -592 -595 0
-615 592 0
-615 595 0
616 -591 -596 0
-616 591 0
-616 596 0
-617 600 602 0
-617 602 603 0
-617 600 603 0
617 -602 -603 0
617 -600 -602 0
617 -600 -603 0
618 -619 620 0
618 619 -620 0
-618 619 620 0
-618 -619 -620 0
-619 605 607 0
-619 607 616 0
-619 605 616 0
619 -607 -616 0
619 -605 -607 0
619 -605 -616 0
-620 -621 -626 0
-620 621 626 0
620 621 -626 0
620 -621 626 0
-621 -622 -625 0
-621 622 625 0
621 622 -625 0
621 -622 625 0
-622 -623 -624 0
-622 623 624 0
622 623 -624 0
622 -623 624 0
623 -610 -611 0
-623 610 0
-623 611 0
624 -613 -603 0
-624 613 0
-624 603 0
625 -609 -614 0
-625 609 0
-625 614 0
626 -608 -615 0
-626 608 0
-626 615 0
-647 0
2 0

