c Result of efficient AIG-to-CNF conversion using package CNF
p cnf 55 153
2 33 -44 0
2 -33 44 0
-2 -33 -44 0
-2 33 44 0
3 4 -5 0
3 -4 5 0
-3 -4 -5 0
-3 4 5 0
4 -33 -44 0
-4 33 0
-4 44 0
5 34 -45 0
5 -34 45 0
-5 -34 -45 0
-5 34 45 0
6 -7 8 0
6 7 -8 0
-6 7 8 0
-6 -7 -8 0
7 35 -46 0
7 -35 46 0
-7 -35 -46 0
-7 35 46 0
-8 34 4 0
-8 45 4 0
-8 34 45 0
8 -34 -45 0
8 -45 -4 0
8 -34 -4 0
9 -10 11 0
9 10 -11 0
-9 10 11 0
-9 -10 -11 0
10 36 -47 0
10 -36 47 0
-10 -36 -47 0
-10 36 47 0
-11 46 8 0
-11 35 46 0
-11 35 8 0
11 -35 -46 0
11 -46 -8 0
11 -35 -8 0
12 -13 14 0
12 13 -14 0
-12 13 14 0
-12 -13 -14 0
13 37 -48 0
13 -37 48 0
-13 -37 -48 0
-13 37 48 0
-14 47 11 0
-14 36 47 0
-14 36 11 0
14 -36 -47 0
14 -47 -11 0
14 -36 -11 0
15 -16 17 0
15 16 -17 0
-15 16 17 0
-15 -16 -17 0
16 38 -49 0
16 -38 49 0
-16 -38 -49 0
-16 38 49 0
-17 48 14 0
-17 37 48 0
-17 37 14 0
17 -37 -48 0
17 -48 -14 0
17 -37 -14 0
18 -19 20 0
18 19 -20 0
-18 19 20 0
-18 -19 -20 0
19 39 -50 0
19 -39 50 0
-19 -39 -50 0
-19 39 50 0
-20 49 17 0
-20 38 49 0
-20 38 17 0
20 -38 -49 0
20 -49 -17 0
20 -38 -17 0
21 -22 23 0
21 22 -23 0
-21 22 23 0
-21 -22 -23 0
22 40 -51 0
22 -40 51 0
-22 -40 -51 0
-22 40 51 0
-23 50 20 0
-23 39 50 0
-23 39 20 0
23 -39 -50 0
23 -50 -20 0
23 -39 -20 0
24 -25 26 0
24 25 -26 0
-24 25 26 0
-24 -25 -26 0
25 41 -52 0
25 -41 52 0
-25 -41 -52 0
-25 41 52 0
-26 51 23 0
-26 40 51 0
-26 40 23 0
26 -40 -51 0
26 -51 -23 0
26 -40 -23 0
27 -28 29 0
27 28 -29 0
-27 28 29 0
-27 -28 -29 0
28 42 -53 0
28 -42 53 0
-28 -42 -53 0
-28 42 53 0
-29 52 26 0
-29 41 52 0
-29 41 26 0
29 -41 -52 0
29 -52 -26 0
29 -41 -26 0
30 -31 32 0
30 31 -32 0
-30 31 32 0
-30 -31 -32 0
31 43 -54 0
31 -43 54 0
-31 -43 -54 0
-31 43 54 0
-32 53 29 0
-32 42 53 0
-32 42 29 0
32 -42 -53 0
32 -53 -29 0
32 -42 -29 0
-55 0
2 0
3 0
6 0
9 0
12 0
15 0
18 0
21 0
24 0
27 0
30 0

