c Result of efficient AIG-to-CNF conversion using package CNF
p cnf 314 1273
-2 3 126 234 275 0
2 -275 0
2 -3 0
2 -234 0
2 -126 0
-3 4 55 -87 -110 0
-3 4 55 87 110 0
3 -55 0
3 87 -110 0
3 -4 0
3 -87 110 0
-4 5 21 -30 -45 0
-4 -5 -21 -30 -45 0
-4 5 21 30 45 0
-4 -5 -21 30 45 0
4 5 -21 0
4 -5 21 0
4 30 -45 0
4 -30 45 0
5 -6 12 0
5 6 -12 0
-5 6 12 0
-5 -6 -12 0
-6 8 11 0
-6 7 11 0
-6 7 8 0
6 -7 -11 0
6 -7 -8 0
6 -8 -11 0
7 -300 -301 -307 -308 0
-7 308 0
-7 300 0
-7 307 0
-7 301 0
-8 -9 -10 0
-8 9 10 0
8 9 -10 0
8 -9 10 0
9 -301 -308 0
-9 301 0
-9 308 0
10 -300 -309 0
-10 300 0
-10 309 0
11 -302 -307 0
-11 302 0
-11 307 0
-12 13 14 0
-12 -13 -14 0
12 -13 14 0
12 13 -14 0
13 -9 -10 0
-13 9 0
-13 10 0
-14 -15 -18 0
-14 15 18 0
14 15 -18 0
14 -15 18 0
-15 -16 -17 0
-15 16 17 0
15 16 -17 0
15 -16 17 0
16 -301 -309 0
-16 301 0
-16 309 0
17 -300 -310 0
-17 300 0
-17 310 0
18 19 -20 0
18 -19 20 0
-18 -19 -20 0
-18 19 20 0
19 -303 -307 0
-19 303 0
-19 307 0
20 -302 -308 0
-20 302 0
-20 308 0
21 -22 25 0
21 22 -25 0
-21 22 25 0
-21 -22 -25 0
22 -7 -23 0
-22 7 0
-22 23 0
-23 -11 -24 0
-23 11 24 0
23 11 -24 0
23 -11 24 0
24 9 -10 0
24 -9 10 0
-24 -9 -10 0
-24 9 10 0
-25 26 28 0
-25 -26 -28 0
25 -26 28 0
25 26 -28 0
-26 -20 -27 0
-26 20 27 0
26 20 -27 0
26 -20 27 0
27 16 -17 0
27 -16 17 0
-27 -16 -17 0
-27 16 17 0
-28 19 29 0
-28 -19 -29 0
28 -19 29 0
28 19 -29 0
-29 11 13 0
-29 9 10 13 0
29 -13 0
29 -10 -11 0
29 -9 -11 0
30 -31 32 0
30 31 -32 0
-30 31 32 0
-30 -31 -32 0
-31 13 6 0
-31 6 14 0
-31 13 14 0
31 -6 -14 0
31 -13 -6 0
31 -13 -14 0
-32 33 44 0
-32 -33 -44 0
32 -33 44 0
32 33 -44 0
-33 -34 -39 0
-33 34 39 0
33 34 -39 0
33 -34 39 0
-34 35 36 0
-34 -35 -36 0
34 -35 36 0
34 35 -36 0
35 -304 -307 0
-35 304 0
-35 307 0
-36 -37 -38 0
-36 37 38 0
36 37 -38 0
36 -37 38 0
37 -303 -308 0
-37 303 0
-37 308 0
38 -302 -309 0
-38 302 0
-38 309 0
39 40 -41 0
39 -40 41 0
-39 -40 -41 0
-39 40 41 0
40 -16 -17 0
-40 16 0
-40 17 0
41 42 -43 0
41 -42 43 0
-41 -42 -43 0
-41 42 43 0
42 -301 -310 0
-42 301 0
-42 310 0
43 -300 -311 0
-43 300 0
-43 311 0
-44 19 20 0
-44 15 19 0
-44 15 20 0
44 -15 -19 0
44 -19 -20 0
44 -15 -20 0
45 -46 47 0
45 46 -47 0
-45 46 47 0
-45 -46 -47 0
46 -22 -25 0
-46 22 0
-46 25 0
-47 48 54 0
-47 -48 -54 0
47 -48 54 0
47 48 -54 0
-48 -49 -50 0
-48 49 50 0
48 49 -50 0
48 -49 50 0
-49 -35 -37 0
-49 35 37 0
49 35 -37 0
49 -35 37 0
50 -51 53 0
50 51 -53 0
-50 51 53 0
-50 -51 -53 0
51 -38 52 0
51 38 -52 0
-51 38 52 0
-51 -38 -52 0
-52 -42 -43 0
-52 42 43 0
52 42 -43 0
52 -42 43 0
-53 16 20 0
-53 17 20 0
-53 16 17 0
53 -16 -17 0
53 -17 -20 0
53 -16 -20 0
-54 19 26 0
-54 26 29 0
-54 19 29 0
54 -26 -29 0
54 -19 -26 0
54 -19 -29 0
-55 -56 -75 0
-55 56 75 0
55 56 -75 0
55 -56 75 0
56 57 -58 0
56 -57 58 0
-56 -57 -58 0
-56 57 58 0
-57 31 33 0
-57 33 44 0
-57 31 44 0
57 -31 -44 0
57 -33 -44 0
57 -31 -33 0
58 -59 74 0
58 59 -74 0
-58 59 74 0
-58 -59 -74 0
59 -60 69 0
59 60 -69 0
-59 60 69 0
-59 -60 -69 0
-60 -61 -66 0
-60 61 66 0
60 61 -66 0
60 -61 66 0
-61 -62 -63 0
-61 62 63 0
61 62 -63 0
61 -62 63 0
62 -302 -310 0
-62 302 0
-62 310 0
63 64 -65 0
63 -64 65 0
-63 -64 -65 0
-63 64 65 0
64 -301 -311 0
-64 301 0
-64 311 0
65 -300 -312 0
-65 300 0
-65 312 0
66 67 -68 0
66 -67 68 0
-66 -67 -68 0
-66 67 68 0
67 -42 -43 0
-67 42 0
-67 43 0
68 -305 -307 0
-68 305 0
-68 307 0
-69 -70 -71 0
-69 70 71 0
69 70 -71 0
69 -70 71 0
-70 35 38 0
-70 37 38 0
-70 35 37 0
70 -35 -37 0
70 -37 -38 0
70 -35 -38 0
71 72 -73 0
71 -72 73 0
-71 -72 -73 0
-71 72 73 0
72 -304 -308 0
-72 304 0
-72 308 0
73 -303 -309 0
-73 303 0
-73 309 0
-74 34 41 0
-74 40 41 0
-74 40 34 0
74 -40 -41 0
74 -40 -34 0
74 -34 -41 0
75 -76 77 0
75 76 -77 0
-75 76 77 0
-75 -76 -77 0
76 -46 -47 0
-76 46 0
-76 47 0
-77 -78 -86 0
-77 78 86 0
77 78 -86 0
77 -78 86 0
-78 -79 -83 0
-78 79 83 0
78 79 -83 0
78 -79 83 0
-79 -61 -80 0
-79 61 80 0
79 61 -80 0
79 -61 80 0
80 -81 82 0
80 81 -82 0
-80 81 82 0
-80 -81 -82 0
81 -35 -37 0
-81 35 0
-81 37 0
-82 310 43 0
-82 301 38 0
-82 38 43 0
-82 310 38 0
-82 301 43 0
82 -38 -43 0
82 -301 -310 -43 0
82 -301 -310 -38 0
83 84 -85 0
83 -84 85 0
-83 -84 -85 0
-83 84 85 0
-84 49 53 0
-84 49 51 0
-84 51 53 0
84 -51 -53 0
84 -49 -53 0
84 -49 -51 0
85 68 -71 0
85 -68 71 0
-85 -68 -71 0
-85 68 71 0
86 -48 -54 0
-86 48 0
-86 54 0
87 -88 89 0
87 88 -89 0
-87 88 89 0
-87 -88 -89 0
-88 57 74 0
-88 57 59 0
-88 59 74 0
88 -59 -74 0
88 -57 -74 0
88 -57 -59 0
-89 90 109 0
-89 -90 -109 0
89 -90 109 0
89 90 -109 0
90 -91 100 0
90 91 -100 0
-90 91 100 0
-90 -91 -100 0
-91 -92 -97 0
-91 92 97 0
91 92 -97 0
91 -92 97 0
-92 -93 -94 0
-92 93 94 0
92 93 -94 0
92 -93 94 0
93 -304 -309 0
-93 304 0
-93 309 0
94 95 -96 0
94 -95 96 0
-94 -95 -96 0
-94 95 96 0
95 -303 -310 0
-95 303 0
-95 310 0
96 -302 -311 0
-96 302 0
-96 311 0
97 -98 99 0
97 98 -99 0
-97 98 99 0
-97 -98 -99 0
98 -303 -304 -308 -309 0
-98 309 0
-98 303 0
-98 308 0
-98 304 0
-99 311 65 0
-99 301 62 0
-99 62 65 0
-99 311 62 0
-99 301 65 0
99 -62 -65 0
99 -301 -311 -65 0
99 -301 -311 -62 0
-100 -101 -102 0
-100 101 102 0
100 101 -102 0
100 -101 102 0
-101 61 68 0
-101 67 68 0
-101 67 61 0
101 -67 -68 0
101 -67 -61 0
101 -61 -68 0
102 103 -106 0
102 -103 106 0
-102 -103 -106 0
-102 103 106 0
103 104 -105 0
103 -104 105 0
-103 -104 -105 0
-103 104 105 0
104 -301 -312 0
-104 301 0
-104 312 0
105 -300 -313 0
-105 300 0
-105 313 0
106 107 -108 0
106 -107 108 0
-106 -107 -108 0
-106 107 108 0
107 -306 -307 0
-107 306 0
-107 307 0
108 -305 -308 0
-108 305 0
-108 308 0
-109 60 70 0
-109 70 71 0
-109 60 71 0
109 -70 -71 0
109 -60 -70 0
109 -60 -71 0
110 -111 112 0
110 111 -112 0
-110 111 112 0
-110 -111 -112 0
111 -76 -77 0
-111 76 0
-111 77 0
-112 -113 -125 0
-112 113 125 0
112 113 -125 0
112 -113 125 0
-113 114 124 0
-113 -114 -124 0
113 -114 124 0
113 114 -124 0
-114 -115 -119 0
-114 115 119 0
114 115 -119 0
114 -115 119 0
115 -116 118 0
115 116 -118 0
-115 116 118 0
-115 -116 -118 0
-116 -108 -117 0
-116 108 117 0
116 108 -117 0
116 -108 117 0
117 93 -95 0
117 -93 95 0
-117 -93 -95 0
-117 93 95 0
-118 -96 -103 0
-118 96 103 0
118 96 -103 0
118 -96 103 0
119 -120 123 0
119 120 -123 0
-119 120 123 0
-119 -120 -123 0
-120 121 122 0
-120 -121 -122 0
120 -121 122 0
120 121 -122 0
-121 68 98 0
-121 72 73 98 0
121 -98 0
121 -68 -73 0
121 -68 -72 0
-122 -99 -107 0
-122 99 107 0
122 99 -107 0
122 -99 107 0
-123 61 82 0
-123 61 81 0
-123 81 82 0
123 -81 -82 0
123 -61 -82 0
123 -61 -81 0
-124 79 84 0
-124 84 85 0
-124 79 85 0
124 -84 -85 0
124 -79 -84 0
124 -79 -85 0
125 -78 -86 0
-125 78 0
-125 86 0
-126 -127 -150 169 0
-126 127 150 169 0
126 -169 0
126 -127 150 0
126 127 -150 0
127 128 -129 0
127 -128 129 0
-127 -128 -129 0
-127 128 129 0
-128 88 109 0
-128 88 90 0
-128 90 109 0
128 -90 -109 0
128 -88 -109 0
128 -88 -90 0
129 -130 149 0
129 130 -149 0
-129 130 149 0
-129 -130 -149 0
130 -131 140 0
130 131 -140 0
-130 131 140 0
-130 -131 -140 0
-131 -132 -137 0
-131 132 137 0
131 132 -137 0
131 -132 137 0
-132 -133 -134 0
-132 133 134 0
132 133 -134 0
132 -133 134 0
133 -305 -309 0
-133 305 0
-133 309 0
134 135 -136 0
134 -135 136 0
-134 -135 -136 0
-134 135 136 0
135 -304 -310 0
-135 304 0
-135 310 0
136 -303 -311 0
-136 303 0
-136 311 0
137 -138 139 0
137 138 -139 0
-137 138 139 0
-137 -138 -139 0
-138 308 107 0
-138 305 103 0
-138 103 107 0
-138 308 103 0
-138 305 107 0
138 -103 -107 0
138 -305 -308 -107 0
138 -305 -308 -103 0
-139 93 96 0
-139 95 96 0
-139 93 95 0
139 -93 -95 0
139 -95 -96 0
139 -93 -96 0
-140 -141 -142 0
-140 141 142 0
140 141 -142 0
140 -141 142 0
-141 98 92 0
-141 92 99 0
-141 98 99 0
141 -92 -99 0
141 -98 -92 0
141 -98 -99 0
142 143 -146 0
142 -143 146 0
-142 -143 -146 0
-142 143 146 0
143 144 -145 0
143 -144 145 0
-143 -144 -145 0
-143 144 145 0
144 -302 -312 0
-144 302 0
-144 312 0
145 -301 -313 0
-145 301 0
-145 313 0
146 147 -148 0
146 -147 148 0
-146 -147 -148 0
-146 147 148 0
147 -300 -301 -312 -313 0
-147 313 0
-147 300 0
-147 312 0
-147 301 0
148 -306 -308 0
-148 306 0
-148 308 0
-149 91 101 0
-149 101 102 0
-149 91 102 0
149 -101 -102 0
149 -91 -101 0
149 -91 -102 0
150 -151 153 0
150 151 -153 0
-150 151 153 0
-150 -151 -153 0
-151 152 0
151 -152 0
-152 113 0
-152 111 125 0
152 -111 -113 0
152 -113 -125 0
-153 -154 -168 0
-153 154 168 0
153 154 -168 0
153 -154 168 0
-154 155 161 0
-154 -155 -161 0
154 -155 161 0
154 155 -161 0
-155 156 157 0
-155 -156 -157 0
155 -156 157 0
155 156 -157 0
156 -116 -118 0
-156 116 0
-156 118 0
-157 -158 -159 0
-157 158 159 0
157 158 -159 0
157 -158 159 0
-158 99 121 0
-158 99 107 0
-158 107 121 0
158 -107 -121 0
158 -99 -121 0
158 -99 -107 0
159 148 -160 0
159 -148 160 0
-159 -148 -160 0
-159 148 160 0
160 133 -135 0
160 -133 135 0
-160 -133 -135 0
-160 133 135 0
-161 -162 -163 0
-161 162 163 0
161 162 -163 0
161 -162 163 0
-162 115 120 0
-162 120 123 0
-162 115 123 0
162 -120 -123 0
162 -115 -120 0
162 -115 -123 0
163 -164 165 0
163 164 -165 0
-163 164 165 0
-163 -164 -165 0
-164 -136 -143 0
-164 136 143 0
164 136 -143 0
164 -136 143 0
-165 166 167 0
-165 -166 -167 0
165 -166 167 0
165 166 -167 0
-166 93 108 0
-166 95 108 0
-166 93 95 0
166 -93 -95 0
166 -95 -108 0
166 -93 -108 0
-167 96 147 0
-167 104 105 147 0
167 -147 0
167 -96 -105 0
167 -96 -104 0
168 -114 -124 0
-168 114 0
-168 124 0
-169 170 191 -204 -222 0
-169 -170 -191 -204 -222 0
-169 170 191 204 222 0
-169 -170 -191 204 222 0
169 170 -191 0
169 -170 191 0
169 204 -222 0
169 -204 222 0
170 171 -172 0
170 -171 172 0
-170 -171 -172 0
-170 171 172 0
-171 128 149 0
-171 128 130 0
-171 130 149 0
171 -130 -149 0
171 -128 -149 0
171 -128 -130 0
172 -173 190 0
172 173 -190 0
-172 173 190 0
-172 -173 -190 0
173 -174 183 0
173 174 -183 0
-173 174 183 0
-173 -174 -183 0
-174 -175 -180 0
-174 175 180 0
174 175 -180 0
174 -175 180 0
-175 -176 -177 0
-175 176 177 0
175 176 -177 0
175 -176 177 0
176 -304 -311 0
-176 304 0
-176 311 0
177 178 -179 0
177 -178 179 0
-177 -178 -179 0
-177 178 179 0
178 -303 -312 0
-178 303 0
-178 312 0
179 -302 -313 0
-179 302 0
-179 313 0
180 -181 182 0
180 181 -182 0
-180 181 182 0
-180 -181 -182 0
-181 147 148 0
-181 143 148 0
-181 147 143 0
181 -147 -143 0
181 -143 -148 0
181 -147 -148 0
-182 133 136 0
-182 135 136 0
-182 133 135 0
182 -133 -135 0
182 -135 -136 0
182 -133 -136 0
-183 -184 -185 0
-183 184 185 0
183 184 -185 0
183 -184 185 0
-184 132 138 0
-184 138 139 0
-184 132 139 0
184 -132 -139 0
184 -138 -139 0
184 -132 -138 0
185 186 -187 0
185 -186 187 0
-185 -186 -187 0
-185 186 187 0
186 -301 -302 -312 -313 0
-186 313 0
-186 301 0
-186 312 0
-186 302 0
187 188 -189 0
187 -188 189 0
-187 -188 -189 0
-187 188 189 0
188 -306 -309 0
-188 306 0
-188 309 0
189 -305 -310 0
-189 305 0
-189 310 0
-190 131 141 0
-190 141 142 0
-190 131 142 0
190 -141 -142 0
190 -131 -141 0
190 -131 -142 0
191 -192 193 0
191 192 -193 0
-191 192 193 0
-191 -192 -193 0
-192 151 154 0
-192 154 168 0
-192 151 168 0
192 -154 -168 0
192 -151 -154 0
192 -151 -168 0
-193 194 203 0
-193 -194 -203 0
193 -194 203 0
193 194 -203 0
194 -195 202 0
194 195 -202 0
-194 195 202 0
-194 -195 -202 0
-195 -196 -200 0
-195 196 200 0
195 196 -200 0
195 -196 200 0
-196 -175 -197 0
-196 175 197 0
196 175 -197 0
196 -175 197 0
197 -198 199 0
197 198 -199 0
-197 198 199 0
-197 -198 -199 0
-198 133 148 0
-198 135 148 0
-198 133 135 0
198 -133 -135 0
198 -135 -148 0
198 -133 -148 0
-199 136 186 0
-199 144 145 186 0
199 -186 0
199 -136 -145 0
199 -136 -144 0
200 -187 201 0
200 187 -201 0
-200 187 201 0
-200 -187 -201 0
-201 164 166 0
-201 166 167 0
-201 164 167 0
201 -164 -167 0
201 -166 -167 0
201 -164 -166 0
-202 158 159 0
-202 156 159 0
-202 156 158 0
202 -156 -159 0
202 -156 -158 0
202 -158 -159 0
-203 155 162 0
-203 162 163 0
-203 155 163 0
203 -162 -163 0
203 -155 -162 0
203 -155 -163 0
204 -205 206 0
204 205 -206 0
-204 205 206 0
-204 -205 -206 0
-205 171 190 0
-205 171 173 0
-205 173 190 0
205 -173 -190 0
205 -171 -190 0
205 -171 -173 0
-206 207 221 0
-206 -207 -221 0
206 -207 221 0
206 207 -221 0
207 -208 214 0
207 208 -214 0
-207 208 214 0
-207 -208 -214 0
-208 -209 -211 0
-208 209 211 0
208 209 -211 0
208 -209 211 0
-209 186 210 0
-209 188 189 210 0
209 -210 0
209 -186 -189 0
209 -186 -188 0
210 -305 -306 -309 -310 0
-210 310 0
-210 305 0
-210 309 0
-210 306 0
211 212 -213 0
211 -212 213 0
-211 -212 -213 0
-211 212 213 0
-212 312 179 0
-212 303 176 0
-212 176 179 0
-212 312 176 0
-212 303 179 0
212 -176 -179 0
212 -303 -312 -179 0
212 -303 -312 -176 0
213 -306 -310 0
-213 306 0
-213 310 0
-214 -215 -216 0
-214 215 216 0
214 215 -216 0
214 -215 216 0
-215 175 181 0
-215 181 182 0
-215 175 182 0
215 -175 -182 0
215 -181 -182 0
215 -175 -181 0
216 217 -218 0
216 -217 218 0
-216 -217 -218 0
-216 217 218 0
217 -305 -311 0
-217 305 0
-217 311 0
218 219 -220 0
218 -219 220 0
-218 -219 -220 0
-218 219 220 0
219 -304 -312 0
-219 304 0
-219 312 0
220 -303 -313 0
-220 303 0
-220 313 0
-221 174 184 0
-221 184 185 0
-221 174 185 0
221 -184 -185 0
221 -174 -184 0
221 -174 -185 0
222 -223 224 0
222 223 -224 0
-222 223 224 0
-222 -223 -224 0
-223 192 203 0
-223 192 194 0
-223 194 203 0
223 -194 -203 0
223 -192 -203 0
223 -192 -194 0
-224 -225 -226 0
-224 225 226 0
224 225 -226 0
224 -225 226 0
225 -195 -202 0
-225 195 0
-225 202 0
226 -227 233 0
226 227 -233 0
-226 227 233 0
-226 -227 -233 0
-227 -228 -230 0
-227 228 230 0
227 228 -230 0
227 -228 230 0
-228 210 229 0
-228 -210 -229 0
228 -210 229 0
228 210 -229 0
-229 -212 -213 0
-229 212 213 0
229 212 -213 0
229 -212 213 0
230 -231 232 0
230 231 -232 0
-230 231 232 0
-230 -231 -232 0
-231 175 198 0
-231 198 199 0
-231 175 199 0
231 -175 -199 0
231 -198 -199 0
231 -175 -198 0
-232 -217 -218 0
-232 217 218 0
232 217 -218 0
232 -217 218 0
-233 187 196 0
-233 196 201 0
-233 187 201 0
233 -196 -201 0
233 -187 -196 0
233 -187 -201 0
-234 235 248 -257 -266 0
-234 -235 -248 -257 -266 0
-234 235 248 257 266 0
-234 -235 -248 257 266 0
234 235 -248 0
234 -235 248 0
234 257 -266 0
234 -257 266 0
235 -236 237 0
235 236 -237 0
-235 236 237 0
-235 -236 -237 0
-236 205 221 0
-236 205 207 0
-236 207 221 0
236 -207 -221 0
236 -205 -221 0
236 -205 -207 0
-237 238 247 0
-237 -238 -247 0
237 -238 247 0
237 238 -247 0
238 -239 244 0
238 239 -244 0
-238 239 244 0
-238 -239 -244 0
-239 -240 -241 0
-239 240 241 0
239 240 -241 0
239 -240 241 0
240 -306 -311 0
-240 306 0
-240 311 0
241 242 -243 0
241 -242 243 0
-241 -242 -243 0
-241 242 243 0
242 -305 -312 0
-242 305 0
-242 312 0
243 -304 -313 0
-243 304 0
-243 313 0
-244 245 246 0
-244 -245 -246 0
244 -245 246 0
244 245 -246 0
-245 209 212 0
-245 212 213 0
-245 209 213 0
245 -212 -213 0
245 -209 -212 0
245 -209 -213 0
-246 217 220 0
-246 219 220 0
-246 217 219 0
246 -217 -219 0
246 -219 -220 0
246 -217 -220 0
-247 208 215 0
-247 215 216 0
-247 208 216 0
247 -215 -216 0
247 -208 -215 0
247 -208 -216 0
248 -249 250 0
248 249 -250 0
-248 249 250 0
-248 -249 -250 0
-249 223 226 0
-249 225 226 0
-249 225 223 0
249 -225 -226 0
249 -225 -223 0
249 -223 -226 0
-250 -251 -252 0
-250 251 252 0
250 251 -252 0
250 -251 252 0
251 -227 -233 0
-251 227 0
-251 233 0
252 -253 256 0
252 253 -256 0
-252 253 256 0
-252 -253 -256 0
-253 254 255 0
-253 -254 -255 0
253 -254 255 0
253 254 -255 0
-254 239 246 0
-254 -239 -246 0
254 -239 246 0
254 239 -246 0
-255 212 213 0
-255 210 213 0
-255 210 212 0
255 -210 -213 0
255 -210 -212 0
255 -212 -213 0
-256 228 231 0
-256 231 232 0
-256 228 232 0
256 -228 -232 0
256 -231 -232 0
256 -228 -231 0
257 -258 259 0
257 258 -259 0
-257 258 259 0
-257 -258 -259 0
-258 236 247 0
-258 236 238 0
-258 238 247 0
258 -238 -247 0
258 -236 -247 0
258 -236 -238 0
-259 260 265 0
-259 -260 -265 0
259 -260 265 0
259 260 -265 0
260 261 -262 0
260 -261 262 0
-260 -261 -262 0
-260 261 262 0
-261 240 243 0
-261 242 243 0
-261 240 242 0
261 -240 -242 0
261 -242 -243 0
261 -240 -243 0
262 263 -264 0
262 -263 264 0
-262 -263 -264 0
-262 263 264 0
263 -306 -312 0
-263 306 0
-263 312 0
264 -305 -313 0
-264 305 0
-264 313 0
-265 239 245 0
-265 245 246 0
-265 239 246 0
265 -239 -246 0
265 -245 -246 0
265 -239 -245 0
266 -267 268 0
266 267 -268 0
-266 267 268 0
-266 -267 -268 0
-267 249 252 0
-267 251 252 0
-267 251 249 0
267 -251 -252 0
267 -251 -249 0
267 -249 -252 0
-268 269 270 0
-268 -269 -270 0
268 -269 270 0
268 269 -270 0
269 -253 -256 0
-269 253 0
-269 256 0
-270 -271 -274 0
-270 271 274 0
270 271 -274 0
270 -271 274 0
-271 272 273 0
-271 -272 -273 0
271 -272 273 0
271 272 -273 0
272 -239 -246 0
-272 239 0
-272 246 0
-273 -261 -262 0
-273 261 262 0
273 261 -262 0
273 -261 262 0
274 -254 -255 0
-274 254 0
-274 255 0
-275 276 281 292 293 0
-275 -276 -281 -292 -293 0
-275 276 281 -292 -293 0
-275 -276 -281 292 293 0
275 276 -281 0
275 -276 281 0
275 -292 293 0
275 292 -293 0
276 -277 278 0
276 277 -278 0
-276 277 278 0
-276 -277 -278 0
-277 258 265 0
-277 258 260 0
-277 260 265 0
277 -260 -265 0
277 -258 -265 0
277 -258 -260 0
-278 -279 -280 0
-278 279 280 0
278 279 -280 0
278 -279 280 0
-279 263 264 0
-279 261 263 0
-279 261 264 0
279 -261 -263 0
279 -263 -264 0
279 -261 -264 0
280 -306 -313 0
-280 306 0
-280 313 0
281 -282 283 0
281 282 -283 0
-281 282 283 0
-281 -282 -283 0
-282 269 267 0
-282 267 270 0
-282 269 270 0
282 -267 -270 0
282 -269 -267 0
282 -269 -270 0
-283 -284 -291 0
-283 284 291 0
283 284 -291 0
283 -284 291 0
-284 -285 -290 0
-284 285 290 0
284 285 -290 0
284 -285 290 0
-285 286 287 0
-285 -286 -287 0
285 -286 287 0
285 286 -287 0
286 -261 -262 0
-286 261 0
-286 262 0
-287 288 0
287 -288 0
288 289 -280 0
-288 -289 0
-288 280 0
289 -305 -306 -312 -313 0
-289 313 0
-289 305 0
-289 312 0
-289 306 0
290 -272 -273 0
-290 272 0
-290 273 0
291 -271 -274 0
-291 271 0
-291 274 0
-292 277 279 0
-292 279 280 0
-292 277 280 0
292 -279 -280 0
292 -277 -279 0
292 -277 -280 0
293 -294 295 0
293 294 -295 0
-293 294 295 0
-293 -294 -295 0
-294 282 284 0
-294 284 291 0
-294 282 291 0
294 -284 -291 0
294 -282 -284 0
294 -282 -291 0
-295 -296 -299 0
-295 296 299 0
295 296 -299 0
295 -296 299 0
-296 -297 -298 0
-296 297 298 0
296 297 -298 0
296 -297 298 0
297 -286 -287 0
-297 286 0
-297 287 0
298 -289 -280 0
-298 289 0
-298 280 0
299 -285 -290 0
-299 285 0
-299 290 0
-314 0
2 0

