c Result of efficient AIG-to-CNF conversion using package CNF
p cnf 25 63
2 15 -20 0
2 -15 20 0
-2 -15 -20 0
-2 15 20 0
3 4 -5 0
3 -4 5 0
-3 -4 -5 0
-3 4 5 0
4 -15 -20 0
-4 15 0
-4 20 0
5 16 -21 0
5 -16 21 0
-5 -16 -21 0
-5 16 21 0
6 -7 8 0
6 7 -8 0
-6 7 8 0
-6 -7 -8 0
7 17 -22 0
7 -17 22 0
-7 -17 -22 0
-7 17 22 0
-8 16 4 0
-8 21 4 0
-8 16 21 0
8 -16 -21 0
8 -21 -4 0
8 -16 -4 0
9 -10 11 0
9 10 -11 0
-9 10 11 0
-9 -10 -11 0
10 18 -23 0
10 -18 23 0
-10 -18 -23 0
-10 18 23 0
-11 22 8 0
-11 17 22 0
-11 17 8 0
11 -17 -22 0
11 -22 -8 0
11 -17 -8 0
12 -13 14 0
12 13 -14 0
-12 13 14 0
-12 -13 -14 0
13 19 -24 0
13 -19 24 0
-13 -19 -24 0
-13 19 24 0
-14 23 11 0
-14 18 23 0
-14 18 11 0
14 -18 -23 0
14 -23 -11 0
14 -18 -11 0
-25 0
2 0
3 0
6 0
9 0
12 0

