c Result of efficient AIG-to-CNF conversion using package CNF
p cnf 404 1657
-2 3 173 258 321 0
2 -321 0
2 -3 0
2 -258 0
2 -173 0
-3 4 30 87 0
3 -4 0
3 -30 0
3 -87 0
-4 -5 -21 0
-4 5 21 0
4 5 -21 0
4 -5 21 0
5 -6 12 0
5 6 -12 0
-5 6 12 0
-5 -6 -12 0
-6 8 11 0
-6 7 11 0
-6 7 8 0
6 -7 -11 0
6 -7 -8 0
6 -8 -11 0
7 -388 -389 -396 -397 0
-7 397 0
-7 388 0
-7 396 0
-7 389 0
-8 -9 -10 0
-8 9 10 0
8 9 -10 0
8 -9 10 0
9 -389 -397 0
-9 389 0
-9 397 0
10 -388 -398 0
-10 388 0
-10 398 0
11 -390 -396 0
-11 390 0
-11 396 0
-12 13 14 0
-12 -13 -14 0
12 -13 14 0
12 13 -14 0
13 -9 -10 0
-13 9 0
-13 10 0
-14 -15 -18 0
-14 15 18 0
14 15 -18 0
14 -15 18 0
-15 -16 -17 0
-15 16 17 0
15 16 -17 0
15 -16 17 0
16 -389 -398 0
-16 389 0
-16 398 0
17 -388 -399 0
-17 388 0
-17 399 0
18 19 -20 0
18 -19 20 0
-18 -19 -20 0
-18 19 20 0
19 -391 -396 0
-19 391 0
-19 396 0
20 -390 -397 0
-20 390 0
-20 397 0
21 -22 25 0
21 22 -25 0
-21 22 25 0
-21 -22 -25 0
22 -7 -23 0
-22 7 0
-22 23 0
-23 -11 -24 0
-23 11 24 0
23 11 -24 0
23 -11 24 0
24 9 -10 0
24 -9 10 0
-24 -9 -10 0
-24 9 10 0
-25 26 28 0
-25 -26 -28 0
25 -26 28 0
25 26 -28 0
-26 -20 -27 0
-26 20 27 0
26 20 -27 0
26 -20 27 0
27 16 -17 0
27 -16 17 0
-27 -16 -17 0
-27 16 17 0
-28 19 29 0
-28 -19 -29 0
28 -19 29 0
28 19 -29 0
-29 397 11 0
-29 389 10 0
-29 10 11 0
-29 397 10 0
-29 389 11 0
29 -10 -11 0
29 -389 -397 -11 0
29 -389 -397 -10 0
-30 31 46 -56 -75 0
-30 -31 -46 -56 -75 0
-30 31 46 56 75 0
-30 -31 -46 56 75 0
30 31 -46 0
30 -31 46 0
30 56 -75 0
30 -56 75 0
31 -32 33 0
31 32 -33 0
-31 32 33 0
-31 -32 -33 0
-32 13 6 0
-32 6 14 0
-32 13 14 0
32 -6 -14 0
32 -13 -6 0
32 -13 -14 0
-33 34 45 0
-33 -34 -45 0
33 -34 45 0
33 34 -45 0
-34 -35 -40 0
-34 35 40 0
34 35 -40 0
34 -35 40 0
-35 36 37 0
-35 -36 -37 0
35 -36 37 0
35 36 -37 0
36 -392 -396 0
-36 392 0
-36 396 0
-37 -38 -39 0
-37 38 39 0
37 38 -39 0
37 -38 39 0
38 -391 -397 0
-38 391 0
-38 397 0
39 -390 -398 0
-39 390 0
-39 398 0
40 41 -42 0
40 -41 42 0
-40 -41 -42 0
-40 41 42 0
41 -16 -17 0
-41 16 0
-41 17 0
42 43 -44 0
42 -43 44 0
-42 -43 -44 0
-42 43 44 0
43 -389 -399 0
-43 389 0
-43 399 0
44 -388 -400 0
-44 388 0
-44 400 0
-45 19 20 0
-45 15 19 0
-45 15 20 0
45 -15 -19 0
45 -19 -20 0
45 -15 -20 0
46 -47 48 0
46 47 -48 0
-46 47 48 0
-46 -47 -48 0
47 -22 -25 0
-47 22 0
-47 25 0
-48 49 55 0
-48 -49 -55 0
48 -49 55 0
48 49 -55 0
-49 -50 -51 0
-49 50 51 0
49 50 -51 0
49 -50 51 0
-50 -36 -38 0
-50 36 38 0
50 36 -38 0
50 -36 38 0
51 -52 54 0
51 52 -54 0
-51 52 54 0
-51 -52 -54 0
52 -39 53 0
52 39 -53 0
-52 39 53 0
-52 -39 -53 0
-53 -43 -44 0
-53 43 44 0
53 43 -44 0
53 -43 44 0
-54 16 20 0
-54 17 20 0
-54 16 17 0
54 -16 -17 0
54 -17 -20 0
54 -16 -20 0
-55 19 26 0
-55 26 29 0
-55 19 29 0
55 -26 -29 0
55 -19 -26 0
55 -19 -29 0
56 57 -58 0
56 -57 58 0
-56 -57 -58 0
-56 57 58 0
-57 32 34 0
-57 34 45 0
-57 32 45 0
57 -32 -45 0
57 -34 -45 0
57 -32 -34 0
58 -59 74 0
58 59 -74 0
-58 59 74 0
-58 -59 -74 0
59 -60 69 0
59 60 -69 0
-59 60 69 0
-59 -60 -69 0
-60 -61 -66 0
-60 61 66 0
60 61 -66 0
60 -61 66 0
-61 -62 -63 0
-61 62 63 0
61 62 -63 0
61 -62 63 0
62 -390 -399 0
-62 390 0
-62 399 0
63 64 -65 0
63 -64 65 0
-63 -64 -65 0
-63 64 65 0
64 -389 -400 0
-64 389 0
-64 400 0
65 -388 -401 0
-65 388 0
-65 401 0
66 67 -68 0
66 -67 68 0
-66 -67 -68 0
-66 67 68 0
67 -43 -44 0
-67 43 0
-67 44 0
68 -393 -396 0
-68 393 0
-68 396 0
-69 -70 -71 0
-69 70 71 0
69 70 -71 0
69 -70 71 0
-70 36 39 0
-70 38 39 0
-70 36 38 0
70 -36 -38 0
70 -38 -39 0
70 -36 -39 0
71 72 -73 0
71 -72 73 0
-71 -72 -73 0
-71 72 73 0
72 -392 -397 0
-72 392 0
-72 397 0
73 -391 -398 0
-73 391 0
-73 398 0
-74 35 42 0
-74 41 42 0
-74 41 35 0
74 -41 -42 0
74 -41 -35 0
74 -35 -42 0
75 -76 77 0
75 76 -77 0
-75 76 77 0
-75 -76 -77 0
76 -47 -48 0
-76 47 0
-76 48 0
-77 -78 -86 0
-77 78 86 0
77 78 -86 0
77 -78 86 0
-78 -79 -83 0
-78 79 83 0
78 79 -83 0
78 -79 83 0
-79 -61 -80 0
-79 61 80 0
79 61 -80 0
79 -61 80 0
80 -81 82 0
80 81 -82 0
-80 81 82 0
-80 -81 -82 0
81 -36 -38 0
-81 36 0
-81 38 0
-82 399 44 0
-82 389 39 0
-82 39 44 0
-82 399 39 0
-82 389 44 0
82 -39 -44 0
82 -389 -399 -44 0
82 -389 -399 -39 0
83 84 -85 0
83 -84 85 0
-83 -84 -85 0
-83 84 85 0
-84 50 54 0
-84 50 52 0
-84 52 54 0
84 -52 -54 0
84 -50 -54 0
84 -50 -52 0
85 68 -71 0
85 -68 71 0
-85 -68 -71 0
-85 68 71 0
86 -49 -55 0
-86 49 0
-86 55 0
-87 88 111 -127 -154 0
-87 -88 -111 -127 -154 0
-87 88 111 127 154 0
-87 -88 -111 127 154 0
87 88 -111 0
87 -88 111 0
87 127 -154 0
87 -127 154 0
88 -89 90 0
88 89 -90 0
-88 89 90 0
-88 -89 -90 0
-89 57 74 0
-89 57 59 0
-89 59 74 0
89 -59 -74 0
89 -57 -74 0
89 -57 -59 0
-90 91 110 0
-90 -91 -110 0
90 -91 110 0
90 91 -110 0
91 -92 101 0
91 92 -101 0
-91 92 101 0
-91 -92 -101 0
-92 -93 -98 0
-92 93 98 0
92 93 -98 0
92 -93 98 0
-93 -94 -95 0
-93 94 95 0
93 94 -95 0
93 -94 95 0
94 -392 -398 0
-94 392 0
-94 398 0
95 96 -97 0
95 -96 97 0
-95 -96 -97 0
-95 96 97 0
96 -391 -399 0
-96 391 0
-96 399 0
97 -390 -400 0
-97 390 0
-97 400 0
98 -99 100 0
98 99 -100 0
-98 99 100 0
-98 -99 -100 0
99 -391 -392 -397 -398 0
-99 398 0
-99 391 0
-99 397 0
-99 392 0
-100 62 65 0
-100 64 65 0
-100 62 64 0
100 -62 -64 0
100 -64 -65 0
100 -62 -65 0
-101 -102 -103 0
-101 102 103 0
101 102 -103 0
101 -102 103 0
-102 61 68 0
-102 67 68 0
-102 67 61 0
102 -67 -68 0
102 -67 -61 0
102 -61 -68 0
103 104 -107 0
103 -104 107 0
-103 -104 -107 0
-103 104 107 0
104 105 -106 0
104 -105 106 0
-104 -105 -106 0
-104 105 106 0
105 -389 -401 0
-105 389 0
-105 401 0
106 -388 -402 0
-106 388 0
-106 402 0
107 108 -109 0
107 -108 109 0
-107 -108 -109 0
-107 108 109 0
108 -394 -396 0
-108 394 0
-108 396 0
109 -393 -397 0
-109 393 0
-109 397 0
-110 60 70 0
-110 70 71 0
-110 60 71 0
110 -70 -71 0
110 -60 -70 0
110 -60 -71 0
111 -112 113 0
111 112 -113 0
-111 112 113 0
-111 -112 -113 0
112 -76 -77 0
-112 76 0
-112 77 0
-113 -114 -126 0
-113 114 126 0
113 114 -126 0
113 -114 126 0
-114 115 125 0
-114 -115 -125 0
114 -115 125 0
114 115 -125 0
-115 -116 -120 0
-115 116 120 0
115 116 -120 0
115 -116 120 0
-116 -117 -119 0
-116 117 119 0
116 117 -119 0
116 -117 119 0
-117 -109 -118 0
-117 109 118 0
117 109 -118 0
117 -109 118 0
118 94 -96 0
118 -94 96 0
-118 -94 -96 0
-118 94 96 0
119 97 -104 0
119 -97 104 0
-119 -97 -104 0
-119 97 104 0
120 -121 124 0
120 121 -124 0
-120 121 124 0
-120 -121 -124 0
-121 122 123 0
-121 -122 -123 0
121 -122 123 0
121 122 -123 0
-122 68 99 0
-122 72 73 99 0
122 -99 0
122 -68 -73 0
122 -68 -72 0
-123 -100 -108 0
-123 100 108 0
123 100 -108 0
123 -100 108 0
-124 61 82 0
-124 61 81 0
-124 81 82 0
124 -81 -82 0
124 -61 -82 0
124 -61 -81 0
-125 79 84 0
-125 84 85 0
-125 79 85 0
125 -84 -85 0
125 -79 -84 0
125 -79 -85 0
126 -78 -86 0
-126 78 0
-126 86 0
127 128 -129 0
127 -128 129 0
-127 -128 -129 0
-127 128 129 0
-128 89 110 0
-128 89 91 0
-128 91 110 0
128 -91 -110 0
128 -89 -110 0
128 -89 -91 0
129 -130 153 0
129 130 -153 0
-129 130 153 0
-129 -130 -153 0
130 -131 140 0
130 131 -140 0
-130 131 140 0
-130 -131 -140 0
-131 -132 -137 0
-131 132 137 0
131 132 -137 0
131 -132 137 0
-132 -133 -134 0
-132 133 134 0
132 133 -134 0
132 -133 134 0
133 -395 -396 0
-133 395 0
-133 396 0
134 135 -136 0
134 -135 136 0
-134 -135 -136 0
-134 135 136 0
135 -394 -397 0
-135 394 0
-135 397 0
136 -393 -398 0
-136 393 0
-136 398 0
137 -138 139 0
137 138 -139 0
-137 138 139 0
-137 -138 -139 0
-138 104 109 0
-138 108 109 0
-138 104 108 0
138 -104 -108 0
138 -108 -109 0
138 -104 -109 0
-139 94 97 0
-139 96 97 0
-139 94 96 0
139 -94 -96 0
139 -96 -97 0
139 -94 -97 0
-140 -141 -142 0
-140 141 142 0
140 141 -142 0
140 -141 142 0
-141 99 93 0
-141 93 100 0
-141 99 100 0
141 -93 -100 0
141 -99 -93 0
141 -99 -100 0
142 -143 146 0
142 143 -146 0
-142 143 146 0
-142 -143 -146 0
143 144 -145 0
143 -144 145 0
-143 -144 -145 0
-143 144 145 0
144 -392 -399 0
-144 392 0
-144 399 0
145 -391 -400 0
-145 391 0
-145 400 0
-146 147 148 0
-146 -147 -148 0
146 -147 148 0
146 147 -148 0
147 -388 -389 -401 -402 0
-147 402 0
-147 388 0
-147 401 0
-147 389 0
-148 -149 -150 0
-148 149 150 0
148 149 -150 0
148 -149 150 0
149 -390 -401 0
-149 390 0
-149 401 0
150 151 -152 0
150 -151 152 0
-150 -151 -152 0
-150 151 152 0
151 -389 -402 0
-151 389 0
-151 402 0
152 -388 -403 0
-152 388 0
-152 403 0
-153 92 102 0
-153 102 103 0
-153 92 103 0
153 -102 -103 0
153 -92 -102 0
153 -92 -103 0
154 -155 157 0
154 155 -157 0
-154 155 157 0
-154 -155 -157 0
-155 156 0
155 -156 0
-156 114 0
-156 112 126 0
156 -112 -114 0
156 -114 -126 0
-157 -158 -172 0
-157 158 172 0
157 158 -172 0
157 -158 172 0
-158 159 167 0
-158 -159 -167 0
158 -159 167 0
158 159 -167 0
-159 -160 -164 0
-159 160 164 0
159 160 -164 0
159 -160 164 0
-160 -148 -161 0
-160 148 161 0
160 148 -161 0
160 -148 161 0
161 -162 163 0
161 162 -163 0
-161 162 163 0
-161 -162 -163 0
-162 94 109 0
-162 96 109 0
-162 94 96 0
162 -94 -96 0
162 -96 -109 0
162 -94 -109 0
-163 97 147 0
-163 105 106 147 0
163 -147 0
163 -97 -106 0
163 -97 -105 0
164 -165 166 0
164 165 -166 0
-164 165 166 0
-164 -165 -166 0
165 -117 -119 0
-165 117 0
-165 119 0
-166 100 122 0
-166 100 108 0
-166 108 122 0
166 -108 -122 0
166 -100 -122 0
166 -100 -108 0
-167 -168 -169 0
-167 168 169 0
167 168 -169 0
167 -168 169 0
-168 116 121 0
-168 121 124 0
-168 116 124 0
168 -116 -124 0
168 -121 -124 0
168 -116 -121 0
169 -170 171 0
169 170 -171 0
-169 170 171 0
-169 -170 -171 0
170 133 -135 0
170 -133 135 0
-170 -133 -135 0
-170 133 135 0
-171 -136 -143 0
-171 136 143 0
171 136 -143 0
171 -136 143 0
172 -115 -125 0
-172 115 0
-172 125 0
-173 174 202 -219 -244 0
-173 -174 -202 -219 -244 0
-173 174 202 219 244 0
-173 -174 -202 219 244 0
173 174 -202 0
173 -174 202 0
173 219 -244 0
173 -219 244 0
174 175 -176 0
174 -175 176 0
-174 -175 -176 0
-174 175 176 0
-175 128 153 0
-175 128 130 0
-175 130 153 0
175 -130 -153 0
175 -128 -153 0
175 -128 -130 0
176 -177 201 0
176 177 -201 0
-176 177 201 0
-176 -177 -201 0
177 -178 188 0
177 178 -188 0
-177 178 188 0
-177 -178 -188 0
-178 -179 -184 0
-178 179 184 0
178 179 -184 0
178 -179 184 0
-179 -180 -181 0
-179 180 181 0
179 180 -181 0
179 -180 181 0
-180 402 152 0
-180 389 149 0
-180 149 152 0
-180 402 149 0
-180 389 152 0
180 -149 -152 0
180 -389 -402 -152 0
180 -389 -402 -149 0
181 182 -183 0
181 -182 183 0
-181 -182 -183 0
-181 182 183 0
182 -395 -397 0
-182 395 0
-182 397 0
183 -394 -398 0
-183 394 0
-183 398 0
184 -185 186 0
184 185 -186 0
-184 185 186 0
-184 -185 -186 0
-185 143 148 0
-185 147 143 0
-185 147 148 0
185 -147 -143 0
185 -143 -148 0
185 -147 -148 0
-186 136 187 0
-186 133 135 187 0
186 -187 0
186 -135 -136 0
186 -133 -136 0
187 -133 -135 0
-187 133 0
-187 135 0
-188 -189 -190 0
-188 189 190 0
188 189 -190 0
188 -189 190 0
-189 132 138 0
-189 138 139 0
-189 132 139 0
189 -132 -139 0
189 -138 -139 0
189 -132 -138 0
190 -191 194 0
190 191 -194 0
-190 191 194 0
-190 -191 -194 0
191 192 -193 0
191 -192 193 0
-191 -192 -193 0
-191 192 193 0
192 -393 -399 0
-192 393 0
-192 399 0
193 -392 -400 0
-193 392 0
-193 400 0
-194 195 196 0
-194 -195 -196 0
194 -195 196 0
194 195 -196 0
195 -391 -392 -399 -400 0
-195 400 0
-195 391 0
-195 399 0
-195 392 0
-196 -197 -198 0
-196 197 198 0
196 197 -198 0
196 -197 198 0
197 -391 -401 0
-197 391 0
-197 401 0
198 199 -200 0
198 -199 200 0
-198 -199 -200 0
-198 199 200 0
199 -390 -402 0
-199 390 0
-199 402 0
200 -389 -403 0
-200 389 0
-200 403 0
-201 131 141 0
-201 141 142 0
-201 131 142 0
201 -141 -142 0
201 -131 -141 0
201 -131 -142 0
202 -203 204 0
202 203 -204 0
-202 203 204 0
-202 -203 -204 0
-203 155 158 0
-203 158 172 0
-203 155 172 0
203 -158 -172 0
203 -155 -158 0
203 -155 -172 0
-204 205 218 0
-204 -205 -218 0
204 -205 218 0
204 205 -218 0
205 -206 213 0
205 206 -213 0
-205 206 213 0
-205 -206 -213 0
-206 -207 -210 0
-206 207 210 0
206 207 -210 0
206 -207 210 0
-207 -208 -209 0
-207 208 209 0
207 208 -209 0
207 -208 209 0
-208 136 195 0
-208 144 145 195 0
208 -195 0
208 -136 -145 0
208 -136 -144 0
209 180 -182 0
209 -180 182 0
-209 -180 -182 0
-209 180 182 0
210 -211 212 0
210 211 -212 0
-210 211 212 0
-210 -211 -212 0
211 -170 -171 0
-211 170 0
-211 171 0
-212 148 162 0
-212 162 163 0
-212 148 163 0
212 -148 -163 0
212 -162 -163 0
212 -148 -162 0
-213 -214 -215 0
-213 214 215 0
213 214 -215 0
213 -214 215 0
-214 160 166 0
-214 160 165 0
-214 165 166 0
214 -165 -166 0
214 -160 -166 0
214 -160 -165 0
215 -216 217 0
215 216 -217 0
-215 216 217 0
-215 -216 -217 0
-216 -183 -191 0
-216 183 191 0
216 183 -191 0
216 -183 191 0
-217 187 196 0
-217 -187 -196 0
217 -187 196 0
217 187 -196 0
-218 159 168 0
-218 168 169 0
-218 159 169 0
218 -168 -169 0
218 -159 -168 0
218 -159 -169 0
219 220 -221 0
219 -220 221 0
-219 -220 -221 0
-219 220 221 0
-220 175 201 0
-220 175 177 0
-220 177 201 0
220 -177 -201 0
220 -175 -201 0
220 -175 -177 0
221 -222 243 0
221 222 -243 0
-221 222 243 0
-221 -222 -243 0
222 -223 232 0
222 223 -232 0
-222 223 232 0
-222 -223 -232 0
-223 -224 -229 0
-223 224 229 0
223 224 -229 0
223 -224 229 0
-224 -225 -226 0
-224 225 226 0
224 225 -226 0
224 -225 226 0
225 -395 -398 0
-225 395 0
-225 398 0
226 227 -228 0
226 -227 228 0
-226 -227 -228 0
-226 227 228 0
227 -394 -399 0
-227 394 0
-227 399 0
228 -393 -400 0
-228 393 0
-228 400 0
229 -230 231 0
229 230 -231 0
-229 230 231 0
-229 -230 -231 0
-230 191 196 0
-230 195 191 0
-230 195 196 0
230 -195 -191 0
230 -191 -196 0
230 -195 -196 0
-231 182 183 0
-231 180 182 0
-231 180 183 0
231 -180 -182 0
231 -182 -183 0
231 -180 -183 0
-232 -233 -234 0
-232 233 234 0
232 233 -234 0
232 -233 234 0
-233 179 185 0
-233 185 186 0
-233 179 186 0
233 -179 -186 0
233 -185 -186 0
233 -179 -185 0
234 235 -240 0
234 -235 240 0
-234 -235 -240 0
-234 235 240 0
-235 -236 -237 0
-235 236 237 0
235 236 -237 0
235 -236 237 0
236 -392 -401 0
-236 392 0
-236 401 0
237 238 -239 0
237 -238 239 0
-237 -238 -239 0
-237 238 239 0
238 -391 -402 0
-238 391 0
-238 402 0
239 -390 -403 0
-239 390 0
-239 403 0
240 -241 242 0
240 241 -242 0
-240 241 242 0
-240 -241 -242 0
241 -392 -393 -399 -400 0
-241 400 0
-241 392 0
-241 399 0
-241 393 0
-242 197 200 0
-242 199 200 0
-242 197 199 0
242 -197 -199 0
242 -199 -200 0
242 -197 -200 0
-243 178 189 0
-243 189 190 0
-243 178 190 0
243 -189 -190 0
243 -178 -189 0
243 -178 -190 0
244 -245 246 0
244 245 -246 0
-244 245 246 0
-244 -245 -246 0
-245 203 218 0
-245 203 205 0
-245 205 218 0
245 -205 -218 0
245 -203 -218 0
245 -203 -205 0
-246 247 257 0
-246 -247 -257 0
246 -247 257 0
246 247 -257 0
247 -248 252 0
247 248 -252 0
-247 248 252 0
-247 -248 -252 0
-248 -249 -250 0
-248 249 250 0
248 249 -250 0
248 -249 250 0
-249 187 196 0
-249 196 216 0
-249 187 216 0
249 -196 -216 0
249 -187 -196 0
249 -187 -216 0
250 -224 251 0
250 224 -251 0
-250 224 251 0
-250 -224 -251 0
-251 180 208 0
-251 180 182 0
-251 182 208 0
251 -182 -208 0
251 -180 -208 0
251 -180 -182 0
-252 -253 -254 0
-252 253 254 0
252 253 -254 0
252 -253 254 0
-253 211 207 0
-253 207 212 0
-253 211 212 0
253 -207 -212 0
253 -211 -207 0
253 -211 -212 0
254 -235 255 0
254 235 -255 0
-254 235 255 0
-254 -235 -255 0
-255 242 256 0
-255 -242 -256 0
255 -242 256 0
255 242 -256 0
-256 399 193 0
-256 393 183 0
-256 183 193 0
-256 399 183 0
-256 393 193 0
256 -183 -193 0
256 -393 -399 -193 0
256 -393 -399 -183 0
-257 206 214 0
-257 214 215 0
-257 206 215 0
257 -214 -215 0
257 -206 -214 0
257 -206 -215 0
-258 259 280 -291 -308 0
-258 -259 -280 -291 -308 0
-258 259 280 291 308 0
-258 -259 -280 291 308 0
258 259 -280 0
258 -259 280 0
258 291 -308 0
258 -291 308 0
259 260 -261 0
259 -260 261 0
-259 -260 -261 0
-259 260 261 0
-260 220 243 0
-260 220 222 0
-260 222 243 0
260 -222 -243 0
260 -220 -243 0
260 -220 -222 0
261 -262 279 0
261 262 -279 0
-261 262 279 0
-261 -262 -279 0
262 -263 272 0
262 263 -272 0
-262 263 272 0
-262 -263 -272 0
-263 -264 -269 0
-263 264 269 0
263 264 -269 0
263 -264 269 0
-264 -265 -266 0
-264 265 266 0
264 265 -266 0
264 -265 266 0
265 -393 -401 0
-265 393 0
-265 401 0
266 267 -268 0
266 -267 268 0
-266 -267 -268 0
-266 267 268 0
267 -392 -402 0
-267 392 0
-267 402 0
268 -391 -403 0
-268 391 0
-268 403 0
269 -270 271 0
269 270 -271 0
-269 270 271 0
-269 -270 -271 0
-270 241 235 0
-270 235 242 0
-270 241 242 0
270 -235 -242 0
270 -241 -235 0
270 -241 -242 0
-271 225 228 0
-271 227 228 0
-271 225 227 0
271 -225 -227 0
271 -227 -228 0
271 -225 -228 0
-272 -273 -274 0
-272 273 274 0
272 273 -274 0
272 -273 274 0
-273 224 230 0
-273 230 231 0
-273 224 231 0
273 -224 -231 0
273 -230 -231 0
273 -224 -230 0
274 275 -276 0
274 -275 276 0
-274 -275 -276 0
-274 275 276 0
-275 236 239 0
-275 238 239 0
-275 236 238 0
275 -236 -238 0
275 -238 -239 0
275 -236 -239 0
276 277 -278 0
276 -277 278 0
-276 -277 -278 0
-276 277 278 0
277 -395 -399 0
-277 395 0
-277 399 0
278 -394 -400 0
-278 394 0
-278 400 0
-279 223 233 0
-279 233 234 0
-279 223 234 0
279 -233 -234 0
279 -223 -233 0
279 -223 -234 0
280 -281 282 0
280 281 -282 0
-280 281 282 0
-280 -281 -282 0
-281 245 257 0
-281 245 247 0
-281 247 257 0
281 -247 -257 0
281 -245 -257 0
281 -245 -247 0
-282 283 290 0
-282 -283 -290 0
282 -283 290 0
282 283 -290 0
283 -284 289 0
283 284 -289 0
-283 284 289 0
-283 -284 -289 0
-284 -285 -287 0
-284 285 287 0
284 285 -287 0
284 -285 287 0
-285 -264 -286 0
-285 264 286 0
285 264 -286 0
285 -264 286 0
286 -271 275 0
286 271 -275 0
-286 271 275 0
-286 -271 -275 0
287 -276 288 0
287 276 -288 0
-287 276 288 0
-287 -276 -288 0
-288 235 242 0
-288 242 256 0
-288 235 256 0
288 -235 -256 0
288 -242 -256 0
288 -235 -242 0
-289 224 249 0
-289 249 251 0
-289 224 251 0
289 -224 -251 0
289 -249 -251 0
289 -224 -249 0
-290 248 253 0
-290 253 254 0
-290 248 254 0
290 -253 -254 0
290 -248 -253 0
290 -248 -254 0
291 -292 293 0
291 292 -293 0
-291 292 293 0
-291 -292 -293 0
-292 260 279 0
-292 260 262 0
-292 262 279 0
292 -262 -279 0
292 -260 -279 0
292 -260 -262 0
-293 294 307 0
-293 -294 -307 0
293 -294 307 0
293 294 -307 0
294 -295 300 0
294 295 -300 0
-294 295 300 0
-294 -295 -300 0
-295 -296 -297 0
-295 296 297 0
295 296 -297 0
295 -296 297 0
-296 277 278 0
-296 275 277 0
-296 275 278 0
296 -275 -277 0
296 -277 -278 0
296 -275 -278 0
297 298 -299 0
297 -298 299 0
-297 -298 -299 0
-297 298 299 0
-298 265 268 0
-298 267 268 0
-298 265 267 0
298 -265 -267 0
298 -267 -268 0
298 -265 -268 0
299 -395 -400 0
-299 395 0
-299 400 0
-300 -301 -302 0
-300 301 302 0
300 301 -302 0
300 -301 302 0
-301 264 270 0
-301 270 271 0
-301 264 271 0
301 -264 -271 0
301 -270 -271 0
301 -264 -270 0
302 303 -304 0
302 -303 304 0
-302 -303 -304 0
-302 303 304 0
303 -394 -401 0
-303 394 0
-303 401 0
304 305 -306 0
304 -305 306 0
-304 -305 -306 0
-304 305 306 0
305 -393 -402 0
-305 393 0
-305 402 0
306 -392 -403 0
-306 392 0
-306 403 0
-307 263 273 0
-307 273 274 0
-307 263 274 0
307 -273 -274 0
307 -263 -273 0
307 -263 -274 0
308 -309 310 0
308 309 -310 0
-308 309 310 0
-308 -309 -310 0
-309 281 290 0
-309 281 283 0
-309 283 290 0
309 -283 -290 0
309 -281 -290 0
309 -281 -283 0
-310 -311 -312 0
-310 311 312 0
310 311 -312 0
310 -311 312 0
311 -284 -289 0
-311 284 0
-311 289 0
312 -313 320 0
312 313 -320 0
-312 313 320 0
-312 -313 -320 0
-313 -314 -317 0
-313 314 317 0
313 314 -317 0
313 -314 317 0
-314 315 316 0
-314 -315 -316 0
314 -315 316 0
314 315 -316 0
315 -394 -395 -399 -400 0
-315 400 0
-315 394 0
-315 399 0
-315 395 0
-316 -298 -299 0
-316 298 299 0
316 298 -299 0
316 -298 299 0
317 -318 319 0
317 318 -319 0
-317 318 319 0
-317 -318 -319 0
-318 264 271 0
-318 271 275 0
-318 264 275 0
318 -264 -275 0
318 -271 -275 0
318 -264 -271 0
-319 -303 -304 0
-319 303 304 0
319 303 -304 0
319 -303 304 0
-320 276 285 0
-320 285 288 0
-320 276 288 0
320 -285 -288 0
320 -276 -285 0
320 -276 -288 0
-321 322 363 368 379 0
-321 322 -363 -368 379 0
321 -379 0
321 -363 368 0
321 -322 0
321 363 -368 0
-322 323 336 -345 -354 0
-322 -323 -336 -345 -354 0
-322 323 336 345 354 0
-322 -323 -336 345 354 0
322 323 -336 0
322 -323 336 0
322 345 -354 0
322 -345 354 0
323 -324 325 0
323 324 -325 0
-323 324 325 0
-323 -324 -325 0
-324 292 307 0
-324 292 294 0
-324 294 307 0
324 -294 -307 0
324 -292 -307 0
324 -292 -294 0
-325 326 335 0
-325 -326 -335 0
325 -326 335 0
325 326 -335 0
326 -327 332 0
326 327 -332 0
-326 327 332 0
-326 -327 -332 0
-327 -328 -329 0
-327 328 329 0
327 328 -329 0
327 -328 329 0
328 -395 -401 0
-328 395 0
-328 401 0
329 330 -331 0
329 -330 331 0
-329 -330 -331 0
-329 330 331 0
330 -394 -402 0
-330 394 0
-330 402 0
331 -393 -403 0
-331 393 0
-331 403 0
-332 333 334 0
-332 -333 -334 0
332 -333 334 0
332 333 -334 0
-333 296 298 0
-333 298 299 0
-333 296 299 0
333 -298 -299 0
333 -296 -298 0
333 -296 -299 0
-334 303 306 0
-334 305 306 0
-334 303 305 0
334 -303 -305 0
334 -305 -306 0
334 -303 -306 0
-335 295 301 0
-335 301 302 0
-335 295 302 0
335 -301 -302 0
335 -295 -301 0
335 -295 -302 0
336 -337 338 0
336 337 -338 0
-336 337 338 0
-336 -337 -338 0
-337 309 312 0
-337 311 312 0
-337 311 309 0
337 -311 -312 0
337 -311 -309 0
337 -309 -312 0
-338 -339 -340 0
-338 339 340 0
338 339 -340 0
338 -339 340 0
339 -313 -320 0
-339 313 0
-339 320 0
340 -341 344 0
340 341 -344 0
-340 341 344 0
-340 -341 -344 0
-341 342 343 0
-341 -342 -343 0
341 -342 343 0
341 342 -343 0
-342 327 334 0
-342 -327 -334 0
342 -327 334 0
342 327 -334 0
-343 298 299 0
-343 315 299 0
-343 315 298 0
343 -315 -299 0
343 -315 -298 0
343 -298 -299 0
-344 314 318 0
-344 318 319 0
-344 314 319 0
344 -314 -319 0
344 -318 -319 0
344 -314 -318 0
345 -346 347 0
345 346 -347 0
-345 346 347 0
-345 -346 -347 0
-346 324 335 0
-346 324 326 0
-346 326 335 0
346 -326 -335 0
346 -324 -335 0
346 -324 -326 0
-347 348 353 0
-347 -348 -353 0
347 -348 353 0
347 348 -353 0
348 349 -350 0
348 -349 350 0
-348 -349 -350 0
-348 349 350 0
-349 328 331 0
-349 330 331 0
-349 328 330 0
349 -328 -330 0
349 -330 -331 0
349 -328 -331 0
350 351 -352 0
350 -351 352 0
-350 -351 -352 0
-350 351 352 0
351 -395 -402 0
-351 395 0
-351 402 0
352 -394 -403 0
-352 394 0
-352 403 0
-353 327 333 0
-353 333 334 0
-353 327 334 0
353 -327 -334 0
353 -333 -334 0
353 -327 -333 0
354 -355 356 0
354 355 -356 0
-354 355 356 0
-354 -355 -356 0
-355 337 340 0
-355 339 340 0
-355 339 337 0
355 -339 -340 0
355 -339 -337 0
355 -337 -340 0
-356 357 358 0
-356 -357 -358 0
356 -357 358 0
356 357 -358 0
357 -341 -344 0
-357 341 0
-357 344 0
-358 -359 -362 0
-358 359 362 0
358 359 -362 0
358 -359 362 0
-359 360 361 0
-359 -360 -361 0
359 -360 361 0
359 360 -361 0
360 -327 -334 0
-360 327 0
-360 334 0
-361 -349 -350 0
-361 349 350 0
361 349 -350 0
361 -349 350 0
362 -342 -343 0
-362 342 0
-362 343 0
363 -364 365 0
363 364 -365 0
-363 364 365 0
-363 -364 -365 0
-364 346 353 0
-364 346 348 0
-364 348 353 0
364 -348 -353 0
364 -346 -353 0
364 -346 -348 0
-365 -366 -367 0
-365 366 367 0
365 366 -367 0
365 -366 367 0
-366 351 352 0
-366 349 351 0
-366 349 352 0
366 -349 -351 0
366 -351 -352 0
366 -349 -352 0
367 -395 -403 0
-367 395 0
-367 403 0
368 -369 370 0
368 369 -370 0
-368 369 370 0
-368 -369 -370 0
-369 357 355 0
-369 355 358 0
-369 357 358 0
369 -355 -358 0
369 -357 -355 0
369 -357 -358 0
-370 -371 -378 0
-370 371 378 0
370 371 -378 0
370 -371 378 0
-371 -372 -377 0
-371 372 377 0
371 372 -377 0
371 -372 377 0
-372 373 374 0
-372 -373 -374 0
372 -373 374 0
372 373 -374 0
373 -349 -350 0
-373 349 0
-373 350 0
-374 375 0
374 -375 0
375 376 -367 0
-375 -376 0
-375 367 0
376 -394 -395 -402 -403 0
-376 403 0
-376 394 0
-376 402 0
-376 395 0
377 -360 -361 0
-377 360 0
-377 361 0
378 -359 -362 0
-378 359 0
-378 362 0
-379 -380 -381 0
-379 380 381 0
379 380 -381 0
379 -380 381 0
-380 364 366 0
-380 366 367 0
-380 364 367 0
380 -366 -367 0
380 -364 -366 0
380 -364 -367 0
381 -382 383 0
381 382 -383 0
-381 382 383 0
-381 -382 -383 0
-382 369 371 0
-382 371 378 0
-382 369 378 0
382 -371 -378 0
382 -369 -371 0
382 -369 -378 0
-383 -384 -387 0
-383 384 387 0
383 384 -387 0
383 -384 387 0
-384 -385 -386 0
-384 385 386 0
384 385 -386 0
384 -385 386 0
385 -373 -374 0
-385 373 0
-385 374 0
386 -376 -367 0
-386 376 0
-386 367 0
387 -372 -377 0
-387 372 0
-387 377 0
-404 0
2 0

