c Result of efficient AIG-to-CNF conversion using package CNF
p cnf 679 2553
-2 3 277 544 625 0
2 -625 0
2 -3 0
2 -544 0
2 -277 0
-3 4 21 62 147 0
3 -147 0
3 -4 0
3 -62 0
3 -21 0
-4 -5 -6 12 19 0
-4 5 6 -12 -19 0
-4 -5 -6 -12 -19 0
-4 5 6 12 19 0
4 -5 6 0
4 5 -6 0
4 -12 19 0
4 12 -19 0
5 -663 -671 0
-5 663 0
-5 671 0
-6 7 0
6 -7 0
-7 8 0
7 -8 0
-8 9 0
8 -9 0
-9 10 0
9 -10 0
-10 11 0
10 -11 0
-11 5 0
11 -5 0
-12 13 0
12 -13 0
-13 14 0
13 -14 0
-14 15 0
14 -15 0
-15 16 0
15 -16 0
-16 17 0
16 -17 0
-17 663 18 0
-17 672 18 0
-17 -663 -672 -18 0
17 663 -18 0
17 -663 -672 18 0
17 672 -18 0
18 -664 -671 0
-18 664 0
-18 671 0
19 18 -20 0
19 -18 20 0
-19 -18 -20 0
-19 18 20 0
20 -663 -672 0
-20 663 0
-20 672 0
-21 22 32 38 50 0
-21 -22 -32 -38 -50 0
-21 22 32 -38 -50 0
-21 -22 -32 38 50 0
21 22 -32 0
21 -22 32 0
21 -38 50 0
21 38 -50 0
-22 23 0
22 -23 0
-23 24 0
23 -24 0
-24 25 0
24 -25 0
-25 26 0
25 -26 0
-26 27 0
26 -27 0
-27 663 28 0
-27 -663 -673 -28 0
-27 673 28 0
27 663 -28 0
27 673 -28 0
27 -663 -673 28 0
-28 672 30 0
-28 -672 -29 -31 0
-28 -672 29 31 0
28 672 -30 0
28 -672 -29 31 0
28 -672 29 -31 0
29 -663 -18 0
-29 663 0
-29 18 0
30 -665 -671 0
-30 665 0
-30 671 0
31 664 -30 0
31 -664 30 0
-31 -664 -30 0
-31 664 30 0
32 33 -34 0
32 -33 34 0
-32 -33 -34 0
-32 33 34 0
33 -663 -672 -18 0
-33 663 0
-33 672 0
-33 18 0
34 35 -36 0
34 -35 36 0
-34 -35 -36 0
-34 35 36 0
35 -663 -673 0
-35 663 0
-35 673 0
36 30 -37 0
36 -30 37 0
-36 -30 -37 0
-36 30 37 0
37 -664 -672 0
-37 664 0
-37 672 0
-38 39 0
38 -39 0
-39 40 0
39 -40 0
-40 41 0
40 -41 0
-41 42 0
41 -42 0
-42 663 43 0
-42 -663 -674 -43 0
-42 674 43 0
42 663 -43 0
42 674 -43 0
42 -663 -674 43 0
-43 673 45 0
-43 -673 -44 -49 0
-43 -673 44 49 0
43 673 -45 0
43 -673 -44 49 0
43 -673 44 -49 0
44 -663 -28 0
-44 663 0
-44 28 0
-45 672 46 0
-45 -672 47 48 0
-45 -672 -47 -48 0
45 672 -46 0
45 -672 47 -48 0
45 -672 -47 48 0
46 -666 -671 0
-46 666 0
-46 671 0
47 665 -46 0
47 -665 46 0
-47 -665 -46 0
-47 665 46 0
-48 671 0
-48 664 0
-48 663 665 0
48 -663 -664 -671 0
48 -664 -665 -671 0
49 -664 45 0
49 664 -45 0
-49 664 45 0
-49 -664 -45 0
50 51 -52 0
50 -51 52 0
-50 -51 -52 0
-50 51 52 0
51 -33 -34 0
-51 33 0
-51 34 0
52 53 -54 0
52 -53 54 0
-52 -53 -54 0
-52 53 54 0
53 -664 -672 -30 0
-53 664 0
-53 672 0
-53 30 0
54 55 -56 0
54 -55 56 0
-54 -55 -56 0
-54 55 56 0
55 -663 -673 -36 0
-55 663 0
-55 673 0
-55 36 0
56 57 -60 0
56 -57 60 0
-56 -57 -60 0
-56 57 60 0
57 58 -59 0
57 -58 59 0
-57 -58 -59 0
-57 58 59 0
58 -663 -674 0
-58 663 0
-58 674 0
59 -664 -673 0
-59 664 0
-59 673 0
60 46 -61 0
60 -46 61 0
-60 -46 -61 0
-60 46 61 0
61 -665 -672 0
-61 665 0
-61 672 0
-62 63 80 98 119 0
-62 -63 -80 -98 -119 0
-62 63 80 -98 -119 0
-62 -63 -80 98 119 0
62 63 -80 0
62 -63 80 0
62 -98 119 0
62 98 -119 0
-63 64 0
63 -64 0
-64 65 0
64 -65 0
-65 66 0
65 -66 0
-66 663 67 0
-66 -663 -675 -67 0
-66 675 67 0
66 663 -67 0
66 675 -67 0
66 -663 -675 67 0
-67 674 69 0
-67 -674 -68 -79 0
-67 -674 68 79 0
67 674 -69 0
67 -674 -68 79 0
67 -674 68 -79 0
68 -663 -43 0
-68 663 0
-68 43 0
-69 673 70 0
-69 -673 75 76 0
-69 -673 -75 -76 0
69 673 -70 0
69 -673 75 -76 0
69 -673 -75 76 0
-70 672 71 0
-70 -672 72 73 0
-70 -672 -72 -73 0
70 672 -71 0
70 -672 72 -73 0
70 -672 -72 73 0
71 -667 -671 0
-71 667 0
-71 671 0
72 666 -71 0
72 -666 71 0
-72 -666 -71 0
-72 666 71 0
-73 31 74 0
-73 29 74 0
-73 47 74 0
73 -74 0
73 -29 -31 -47 0
-74 671 0
-74 665 0
-74 664 666 0
74 -664 -665 -671 0
74 -665 -666 -671 0
75 -665 70 0
75 665 -70 0
-75 665 70 0
-75 -665 -70 0
-76 77 78 0
76 -77 0
76 -78 0
77 -664 -45 0
-77 664 0
-77 45 0
78 -44 -49 0
-78 44 0
-78 49 0
79 -664 69 0
79 664 -69 0
-79 664 69 0
-79 -664 -69 0
80 81 -82 0
80 -81 82 0
-80 -81 -82 0
-80 81 82 0
81 -51 -52 0
-81 51 0
-81 52 0
82 -83 97 0
82 83 -97 0
-82 83 97 0
-82 -83 -97 0
83 84 -85 0
83 -84 85 0
-83 -84 -85 0
-83 84 85 0
84 -665 -672 -46 0
-84 665 0
-84 672 0
-84 46 0
85 86 -87 0
85 -86 87 0
-85 -86 -87 0
-85 86 87 0
86 -57 -60 0
-86 57 0
-86 60 0
87 88 -93 0
87 -88 93 0
-87 -88 -93 0
-87 88 93 0
88 89 -92 0
88 -89 92 0
-88 -89 -92 0
-88 89 92 0
89 90 -91 0
89 -90 91 0
-89 -90 -91 0
-89 90 91 0
90 -663 -675 0
-90 663 0
-90 675 0
91 -664 -674 0
-91 664 0
-91 674 0
92 -665 -673 0
-92 665 0
-92 673 0
93 71 -94 0
93 -71 94 0
-93 -71 -94 0
-93 71 94 0
94 95 -96 0
94 -95 96 0
-94 -95 -96 0
-94 95 96 0
95 -663 -664 -673 -674 0
-95 674 0
-95 663 0
-95 673 0
-95 664 0
96 -666 -672 0
-96 666 0
-96 672 0
-97 56 0
-97 53 55 0
97 -55 -56 0
97 -53 -56 0
-98 99 0
98 -99 0
-99 100 0
99 -100 0
-100 663 101 0
-100 -663 -676 -101 0
-100 676 101 0
100 663 -101 0
100 676 -101 0
100 -663 -676 101 0
-101 675 103 0
-101 664 102 103 0
-101 -664 -102 103 0
-101 664 -675 -102 -103 0
-101 -664 -675 102 -103 0
101 675 -103 0
101 -664 -102 -103 0
101 664 102 -103 0
101 664 -675 -102 103 0
101 -664 -675 102 103 0
102 -663 -67 0
-102 663 0
-102 67 0
-103 674 104 0
-103 -674 115 116 0
-103 -674 -115 -116 0
103 674 -104 0
103 -674 115 -116 0
103 -674 -115 116 0
-104 673 105 0
-104 -673 111 112 0
-104 -673 -111 -112 0
104 673 -105 0
104 -673 111 -112 0
104 -673 -111 112 0
-105 672 106 0
-105 -672 107 108 0
-105 -672 -107 -108 0
105 672 -106 0
105 -672 107 -108 0
105 -672 -107 108 0
106 -668 -671 0
-106 668 0
-106 671 0
107 667 -106 0
107 -667 106 0
-107 -667 -106 0
-107 667 106 0
-108 109 110 0
108 -109 0
108 -110 0
109 -666 -71 0
-109 666 0
-109 71 0
110 -72 -73 0
-110 72 0
-110 73 0
111 -666 105 0
111 666 -105 0
-111 666 105 0
-111 -666 -105 0
-112 113 114 0
112 -113 0
112 -114 0
113 -665 -70 0
-113 665 0
-113 70 0
114 -75 -76 0
-114 75 0
-114 76 0
115 -665 104 0
115 665 -104 0
-115 665 104 0
-115 -665 -104 0
-116 117 118 0
116 -117 0
116 -118 0
117 -664 -69 0
-117 664 0
-117 69 0
118 -68 -79 0
-118 68 0
-118 79 0
119 -120 144 0
119 120 -144 0
-119 120 144 0
-119 -120 -144 0
120 -121 141 0
120 121 -141 0
-120 121 141 0
-120 -121 -141 0
121 -122 138 0
121 122 -138 0
-121 122 138 0
-121 -122 -138 0
122 123 -124 0
122 -123 124 0
-122 -123 -124 0
-122 123 124 0
123 -88 -93 0
-123 88 0
-123 93 0
124 125 -132 0
124 -125 132 0
-124 -125 -132 0
-124 125 132 0
125 126 -127 0
125 -126 127 0
-125 -126 -127 0
-125 126 127 0
126 -663 -676 0
-126 663 0
-126 676 0
127 128 -131 0
127 -128 131 0
-127 -128 -131 0
-127 128 131 0
128 129 -130 0
128 -129 130 0
-128 -129 -130 0
-128 129 130 0
129 -664 -675 0
-129 664 0
-129 675 0
130 -665 -674 0
-130 665 0
-130 674 0
131 -666 -673 0
-131 666 0
-131 673 0
132 106 -133 0
132 -106 133 0
-132 -106 -133 0
-132 106 133 0
133 134 -137 0
133 -134 137 0
-133 -134 -137 0
-133 134 137 0
-134 135 136 0
134 -135 0
134 -136 0
135 -663 -664 -674 -675 0
-135 675 0
-135 663 0
-135 674 0
-135 664 0
136 -665 -673 -89 0
-136 665 0
-136 673 0
-136 89 0
137 -667 -672 0
-137 667 0
-137 672 0
-138 139 140 0
138 -139 0
138 -140 0
139 -666 -672 -95 0
-139 666 0
-139 672 0
-139 95 0
140 -71 -94 0
-140 71 0
-140 94 0
-141 142 143 0
141 -142 0
141 -143 0
142 -86 -87 0
-142 86 0
-142 87 0
143 -84 -85 0
-143 84 0
-143 85 0
-144 145 146 0
144 -145 0
144 -146 0
145 -83 -97 0
-145 83 0
-145 97 0
146 -81 -82 0
-146 81 0
-146 82 0
-147 148 176 209 239 0
-147 -148 -176 -209 -239 0
-147 148 176 -209 -239 0
-147 -148 -176 209 239 0
147 148 -176 0
147 -148 176 0
147 -209 239 0
147 209 -239 0
-148 149 0
148 -149 0
-149 663 150 0
-149 -663 -677 -150 0
-149 677 150 0
149 663 -150 0
149 677 -150 0
149 -663 -677 150 0
-150 676 152 0
-150 -676 -151 -175 0
-150 -676 151 175 0
150 676 -152 0
150 -676 -151 175 0
150 -676 151 -175 0
151 -663 -101 0
-151 663 0
-151 101 0
-152 675 153 0
-152 -665 153 -171 0
-152 665 153 171 0
-152 -665 -675 -153 171 0
-152 665 -675 -153 -171 0
152 675 -153 0
152 665 -675 153 -171 0
152 665 -153 171 0
152 -665 -153 -171 0
152 -665 -675 153 171 0
-153 674 154 0
-153 -674 166 167 0
-153 -674 -166 -167 0
153 674 -154 0
153 -674 166 -167 0
153 -674 -166 167 0
-154 673 155 0
-154 -673 161 162 0
-154 -673 -161 -162 0
154 673 -155 0
154 -673 161 -162 0
154 -673 -161 162 0
-155 672 156 0
-155 -672 157 158 0
-155 -672 -157 -158 0
155 672 -156 0
155 -672 157 -158 0
155 -672 -157 158 0
156 -669 -671 0
-156 669 0
-156 671 0
157 668 -156 0
157 -668 156 0
-157 -668 -156 0
-157 668 156 0
-158 73 159 0
-158 159 160 0
158 -159 0
158 -73 -160 0
-159 671 0
-159 667 0
-159 666 668 0
159 -666 -667 -671 0
159 -667 -668 -671 0
160 -72 -107 0
-160 72 0
-160 107 0
161 -667 155 0
161 667 -155 0
-161 667 155 0
-161 -667 -155 0
-162 76 163 0
-162 163 165 0
162 -163 0
162 -76 -165 0
-163 164 111 0
-163 113 164 0
163 -164 0
163 -113 -111 0
164 -666 -105 0
-164 666 0
-164 105 0
165 -75 -111 0
-165 75 0
-165 111 0
166 -666 154 0
166 666 -154 0
-166 666 154 0
-166 -666 -154 0
-167 68 168 0
-167 168 170 0
167 -168 0
167 -68 -170 0
-168 169 115 0
-168 117 169 0
168 -169 0
168 -117 -115 0
169 -665 -104 0
-169 665 0
-169 104 0
170 -79 -115 0
-170 79 0
-170 115 0
-171 172 173 0
171 -172 0
171 -173 0
172 -664 -103 0
-172 664 0
-172 103 0
173 -102 -174 0
-173 102 0
-173 174 0
174 -664 103 0
174 664 -103 0
-174 664 103 0
-174 -664 -103 0
175 -664 152 0
175 664 -152 0
-175 664 152 0
-175 -664 -152 0
176 -177 205 0
176 177 -205 0
-176 177 205 0
-176 -177 -205 0
177 -178 202 0
177 178 -202 0
-177 178 202 0
-177 -178 -202 0
178 -179 199 0
178 179 -199 0
-178 179 199 0
-178 -179 -199 0
179 180 -181 0
179 -180 181 0
-179 -180 -181 0
-179 180 181 0
180 -125 -132 0
-180 125 0
-180 132 0
181 182 -193 0
181 -182 193 0
-181 -182 -193 0
-181 182 193 0
182 183 -184 0
182 -183 184 0
-182 -183 -184 0
-182 183 184 0
183 -663 -676 -127 0
-183 663 0
-183 676 0
-183 127 0
184 185 -188 0
184 -185 188 0
-184 -185 -188 0
-184 185 188 0
185 186 -187 0
185 -186 187 0
-185 -186 -187 0
-185 186 187 0
186 -663 -677 0
-186 663 0
-186 677 0
187 -664 -676 0
-187 664 0
-187 676 0
188 189 -192 0
188 -189 192 0
-188 -189 -192 0
-188 189 192 0
189 190 -191 0
189 -190 191 0
-189 -190 -191 0
-189 190 191 0
190 -665 -675 0
-190 665 0
-190 675 0
191 -666 -674 0
-191 666 0
-191 674 0
192 -667 -673 0
-192 667 0
-192 673 0
193 156 -194 0
193 -156 194 0
-193 -156 -194 0
-193 156 194 0
194 195 -198 0
194 -195 198 0
-194 -195 -198 0
-194 195 198 0
-195 196 197 0
195 -196 0
195 -197 0
196 -664 -665 -674 -675 0
-196 675 0
-196 664 0
-196 674 0
-196 665 0
197 -666 -673 -128 0
-197 666 0
-197 673 0
-197 128 0
198 -668 -672 0
-198 668 0
-198 672 0
-199 200 201 0
199 -200 0
199 -201 0
200 -667 -672 -134 0
-200 667 0
-200 672 0
-200 134 0
201 -106 -133 0
-201 106 0
-201 133 0
-202 203 204 0
202 -203 0
202 -204 0
203 -123 -124 0
-203 123 0
-203 124 0
204 -122 -138 0
-204 122 0
-204 138 0
-205 81 206 0
-205 206 208 0
205 -206 0
205 -81 -208 0
-206 207 120 0
-206 145 207 0
206 -207 0
206 -145 -120 0
207 -121 -141 0
-207 121 0
-207 141 0
208 -82 -120 0
-208 82 0
-208 120 0
-209 663 210 0
-209 -663 -678 -210 0
-209 678 210 0
209 663 -210 0
209 678 -210 0
209 -663 -678 210 0
-210 677 212 0
-210 664 211 212 0
-210 -664 -211 212 0
-210 664 -677 -211 -212 0
-210 -664 -677 211 -212 0
210 677 -212 0
210 -664 -211 -212 0
210 664 211 -212 0
210 664 -677 -211 212 0
210 -664 -677 211 212 0
211 -663 -150 0
-211 663 0
-211 150 0
-212 676 213 0
-212 -676 235 236 0
-212 -676 -235 -236 0
212 676 -213 0
212 -676 235 -236 0
212 -676 -235 236 0
-213 675 214 0
-213 -675 230 231 0
-213 -675 -230 -231 0
213 675 -214 0
213 -675 230 -231 0
213 -675 -230 231 0
-214 674 215 0
-214 -674 226 227 0
-214 -674 -226 -227 0
214 674 -215 0
214 -674 226 -227 0
214 -674 -226 227 0
-215 673 216 0
-215 -673 222 223 0
-215 -673 -222 -223 0
215 673 -216 0
215 -673 222 -223 0
215 -673 -222 223 0
-216 672 217 0
-216 -672 218 219 0
-216 -672 -218 -219 0
216 672 -217 0
216 -672 218 -219 0
216 -672 -218 219 0
217 -670 -671 0
-217 670 0
-217 671 0
218 669 -217 0
218 -669 217 0
-218 -669 -217 0
-218 669 217 0
-219 220 221 0
219 -220 0
219 -221 0
220 -668 -156 0
-220 668 0
-220 156 0
221 -157 -158 0
-221 157 0
-221 158 0
222 -668 216 0
222 668 -216 0
-222 668 216 0
-222 -668 -216 0
-223 224 225 0
223 -224 0
223 -225 0
224 -667 -155 0
-224 667 0
-224 155 0
225 -161 -162 0
-225 161 0
-225 162 0
226 -667 215 0
226 667 -215 0
-226 667 215 0
-226 -667 -215 0
-227 228 229 0
227 -228 0
227 -229 0
228 -666 -154 0
-228 666 0
-228 154 0
229 -166 -167 0
-229 166 0
-229 167 0
230 -666 214 0
230 666 -214 0
-230 666 214 0
-230 -666 -214 0
-231 232 233 0
231 -232 0
231 -233 0
232 -665 -153 0
-232 665 0
-232 153 0
233 -234 -171 0
-233 234 0
-233 171 0
234 -665 153 0
234 665 -153 0
-234 665 153 0
-234 -665 -153 0
235 -665 213 0
235 665 -213 0
-235 665 213 0
-235 -665 -213 0
-236 237 238 0
236 -237 0
236 -238 0
237 -664 -152 0
-237 664 0
-237 152 0
238 -151 -175 0
-238 151 0
-238 175 0
239 -240 274 0
239 240 -274 0
-239 240 274 0
-239 -240 -274 0
240 -241 271 0
240 241 -271 0
-240 241 271 0
-240 -241 -271 0
241 -242 268 0
241 242 -268 0
-241 242 268 0
-241 -242 -268 0
242 -243 265 0
242 243 -265 0
-242 243 265 0
-242 -243 -265 0
243 244 -259 0
243 -244 259 0
-243 -244 -259 0
-243 244 259 0
244 245 -246 0
244 -245 246 0
-244 -245 -246 0
-244 245 246 0
245 -185 -188 0
-245 185 0
-245 188 0
246 247 -254 0
246 -247 254 0
-246 -247 -254 0
-246 247 254 0
247 248 -249 0
247 -248 249 0
-247 -248 -249 0
-247 248 249 0
248 -663 -664 -676 -677 0
-248 677 0
-248 663 0
-248 676 0
-248 664 0
249 250 -253 0
249 -250 253 0
-249 -250 -253 0
-249 250 253 0
250 251 -252 0
250 -251 252 0
-250 -251 -252 0
-250 251 252 0
251 -663 -678 0
-251 663 0
-251 678 0
252 -664 -677 0
-252 664 0
-252 677 0
253 -665 -676 0
-253 665 0
-253 676 0
254 255 -258 0
254 -255 258 0
-254 -255 -258 0
-254 255 258 0
255 256 -257 0
255 -256 257 0
-255 -256 -257 0
-255 256 257 0
256 -666 -675 0
-256 666 0
-256 675 0
257 -667 -674 0
-257 667 0
-257 674 0
258 -668 -673 0
-258 668 0
-258 673 0
259 217 -260 0
259 -217 260 0
-259 -217 -260 0
-259 217 260 0
260 261 -264 0
260 -261 264 0
-260 -261 -264 0
-260 261 264 0
-261 262 263 0
261 -262 0
261 -263 0
262 -665 -666 -674 -675 0
-262 675 0
-262 665 0
-262 674 0
-262 666 0
263 -667 -673 -189 0
-263 667 0
-263 673 0
-263 189 0
264 -669 -672 0
-264 669 0
-264 672 0
-265 266 267 0
265 -266 0
265 -267 0
266 -183 -184 0
-266 183 0
-266 184 0
267 -182 -193 0
-267 182 0
-267 193 0
-268 269 270 0
268 -269 0
268 -270 0
269 -668 -672 -195 0
-269 668 0
-269 672 0
-269 195 0
270 -156 -194 0
-270 156 0
-270 194 0
-271 272 273 0
271 -272 0
271 -273 0
272 -180 -181 0
-272 180 0
-272 181 0
273 -179 -199 0
-273 179 0
-273 199 0
-274 275 276 0
274 -275 0
274 -276 0
275 -178 -202 0
-275 178 0
-275 202 0
276 -177 -205 0
-276 177 0
-276 205 0
-277 278 428 -489 -517 0
-277 278 428 489 517 0
277 -428 0
277 -489 517 0
277 -278 0
277 489 -517 0
-278 279 311 354 391 0
-278 -279 -311 -354 -391 0
-278 279 311 -354 -391 0
-278 -279 -311 354 391 0
278 279 -311 0
278 -279 311 0
278 -354 391 0
278 354 -391 0
-279 678 281 0
-279 -678 -280 -310 0
-279 -678 280 310 0
279 678 -281 0
279 -678 -280 310 0
279 -678 280 -310 0
280 -663 -210 0
-280 663 0
-280 210 0
-281 677 282 0
-281 -665 282 -306 0
-281 665 282 306 0
-281 -665 -677 -282 306 0
-281 665 -677 -282 -306 0
281 677 -282 0
281 665 -677 282 -306 0
281 665 -282 306 0
281 -665 -282 -306 0
281 -665 -677 282 306 0
-282 676 283 0
-282 -666 283 -304 0
-282 666 283 304 0
-282 -666 -676 -283 304 0
-282 666 -676 -283 -304 0
282 676 -283 0
282 666 -676 283 -304 0
282 666 -283 304 0
282 -666 -283 -304 0
282 -666 -676 283 304 0
-283 675 284 0
-283 -667 284 -302 0
-283 667 284 302 0
-283 -667 -675 -284 302 0
-283 667 -675 -284 -302 0
283 675 -284 0
283 667 -675 284 -302 0
283 667 -284 302 0
283 -667 -284 -302 0
283 -667 -675 284 302 0
-284 674 285 0
-284 -668 285 -297 0
-284 668 285 297 0
-284 -668 -674 -285 297 0
-284 668 -674 -285 -297 0
284 674 -285 0
284 668 -674 285 -297 0
284 668 -285 297 0
284 -668 -285 -297 0
284 -668 -674 285 297 0
-285 673 286 0
-285 -673 291 292 0
-285 -673 -291 -292 0
285 673 -286 0
285 -673 291 -292 0
285 -673 -291 292 0
286 670 -672 -287 0
286 -670 -672 287 0
-286 672 0
-286 -670 -287 0
-286 670 287 0
-287 160 289 0
-287 288 289 0
-287 73 289 0
287 -289 0
287 -73 -160 -288 0
288 -157 -218 0
-288 157 0
-288 218 0
-289 159 290 0
-289 290 288 0
289 -290 0
289 -159 -288 0
-290 671 0
-290 669 0
-290 668 670 0
290 -668 -669 -671 0
290 -669 -670 -671 0
291 669 -286 0
291 -669 286 0
-291 -669 -286 0
-291 669 286 0
-292 165 294 0
-292 293 294 0
-292 76 294 0
292 -294 0
292 -76 -165 -293 0
293 -161 -222 0
-293 161 0
-293 222 0
-294 224 295 296 0
-294 295 222 296 0
294 -296 0
294 -295 0
294 -224 -222 0
295 -668 -216 0
-295 668 0
-295 216 0
296 -163 -293 0
-296 163 0
-296 293 0
-297 170 299 0
-297 68 299 0
-297 298 299 0
297 -299 0
297 -68 -170 -298 0
298 -166 -226 0
-298 166 0
-298 226 0
-299 228 300 301 0
-299 300 226 301 0
299 -301 0
299 -300 0
299 -228 -226 0
300 -667 -215 0
-300 667 0
-300 215 0
301 -168 -298 0
-301 168 0
-301 298 0
-302 666 232 303 0
-302 232 214 303 0
-302 666 214 303 0
302 -666 -232 0
302 -232 -214 0
302 -303 0
302 -666 -214 0
303 -234 -171 -230 0
-303 234 0
-303 171 0
-303 230 0
-304 665 237 305 0
-304 237 213 305 0
-304 665 213 305 0
304 -665 -237 0
304 -237 -213 0
304 -305 0
304 -665 -213 0
305 -151 -175 -235 0
-305 151 0
-305 175 0
-305 235 0
-306 307 308 0
306 -307 0
306 -308 0
307 -664 -212 0
-307 664 0
-307 212 0
308 -211 -309 0
-308 211 0
-308 309 0
309 -664 212 0
309 664 -212 0
-309 664 212 0
-309 -664 -212 0
310 -664 281 0
310 664 -281 0
-310 664 281 0
-310 -664 -281 0
311 -312 349 0
311 312 -349 0
-311 312 349 0
-311 -312 -349 0
312 -313 346 0
312 313 -346 0
-312 313 346 0
-312 -313 -346 0
313 -314 343 0
313 314 -343 0
-313 314 343 0
-313 -314 -343 0
314 -315 340 0
314 315 -340 0
-314 315 340 0
-314 -315 -340 0
315 316 -335 0
315 -316 335 0
-315 -316 -335 0
-315 316 335 0
316 -317 332 0
316 317 -332 0
-316 317 332 0
-316 -317 -332 0
317 318 -327 0
317 -318 327 0
-317 -318 -327 0
-317 318 327 0
318 -319 324 0
318 319 -324 0
-318 319 324 0
-318 -319 -324 0
319 320 -323 0
319 -320 323 0
-319 -320 -323 0
-319 320 323 0
320 321 -322 0
320 -321 322 0
-320 -321 -322 0
-320 321 322 0
321 -664 -678 0
-321 664 0
-321 678 0
322 -665 -677 0
-322 665 0
-322 677 0
323 -666 -676 0
-323 666 0
-323 676 0
-324 325 326 0
324 -325 0
324 -326 0
325 -663 -664 -677 -678 0
-325 678 0
-325 663 0
-325 677 0
-325 664 0
326 -665 -676 -250 0
-326 665 0
-326 676 0
-326 250 0
327 328 -331 0
327 -328 331 0
-327 -328 -331 0
-327 328 331 0
328 329 -330 0
328 -329 330 0
-328 -329 -330 0
-328 329 330 0
329 -667 -675 0
-329 667 0
-329 675 0
330 -668 -674 0
-330 668 0
-330 674 0
331 -669 -673 0
-331 669 0
-331 673 0
-332 333 334 0
332 -333 0
332 -334 0
333 -248 -249 0
-333 248 0
-333 249 0
334 -247 -254 0
-334 247 0
-334 254 0
335 336 -339 0
335 -336 339 0
-335 -336 -339 0
-335 336 339 0
-336 337 338 0
336 -337 0
336 -338 0
337 -666 -667 -674 -675 0
-337 675 0
-337 666 0
-337 674 0
-337 667 0
338 -668 -673 -255 0
-338 668 0
-338 673 0
-338 255 0
339 -670 -672 0
-339 670 0
-339 672 0
-340 341 342 0
340 -341 0
340 -342 0
341 -245 -246 0
-341 245 0
-341 246 0
342 -244 -259 0
-342 244 0
-342 259 0
-343 344 345 0
343 -344 0
343 -345 0
344 -669 -672 -261 0
-344 669 0
-344 672 0
-344 261 0
345 -217 -260 0
-345 217 0
-345 260 0
-346 347 348 0
346 -347 0
346 -348 0
347 -243 -265 0
-347 243 0
-347 265 0
348 -242 -268 0
-348 242 0
-348 268 0
-349 208 351 0
-349 81 351 0
-349 350 351 0
349 -351 0
349 -81 -208 -350 0
350 -177 -240 0
-350 177 0
-350 240 0
-351 275 352 353 0
-351 352 240 353 0
351 -353 0
351 -352 0
351 -275 -240 0
352 -241 -271 0
-352 241 0
-352 271 0
353 -206 -350 0
-353 206 0
-353 350 0
-354 678 355 0
-354 -678 387 388 0
-354 -678 -387 -388 0
354 678 -355 0
354 -678 387 -388 0
354 -678 -387 388 0
-355 677 356 0
-355 -677 382 383 0
-355 -677 -382 -383 0
355 677 -356 0
355 -677 382 -383 0
355 -677 -382 383 0
-356 676 357 0
-356 -676 377 378 0
-356 -676 -377 -378 0
356 676 -357 0
356 -676 377 -378 0
356 -676 -377 378 0
-357 675 358 0
-357 -675 372 373 0
-357 -675 -372 -373 0
357 675 -358 0
357 -675 372 -373 0
357 -675 -372 373 0
-358 674 359 0
-358 -674 367 368 0
-358 -674 -367 -368 0
358 674 -359 0
358 -674 367 -368 0
358 -674 -367 368 0
-359 673 360 0
-359 -673 362 364 0
-359 -673 -362 -364 0
359 673 -360 0
359 -673 362 -364 0
359 -673 -362 364 0
360 -672 -361 0
-360 672 0
-360 361 0
361 -670 -287 0
-361 670 0
-361 287 0
362 -670 363 0
-362 670 0
-362 -363 0
363 -670 -360 0
-363 670 0
-363 360 0
-364 365 366 0
364 -365 0
364 -366 0
365 -669 -286 0
-365 669 0
-365 286 0
366 -291 -292 0
-366 291 0
-366 292 0
367 -669 359 0
367 669 -359 0
-367 669 359 0
-367 -669 -359 0
-368 369 370 0
368 -369 0
368 -370 0
369 -668 -285 0
-369 668 0
-369 285 0
370 -371 -297 0
-370 371 0
-370 297 0
371 -668 285 0
371 668 -285 0
-371 668 285 0
-371 -668 -285 0
372 -668 358 0
372 668 -358 0
-372 668 358 0
-372 -668 -358 0
-373 374 375 0
373 -374 0
373 -375 0
374 -667 -284 0
-374 667 0
-374 284 0
375 -376 -302 0
-375 376 0
-375 302 0
376 -667 284 0
376 667 -284 0
-376 667 284 0
-376 -667 -284 0
377 -667 357 0
377 667 -357 0
-377 667 357 0
-377 -667 -357 0
-378 379 380 0
378 -379 0
378 -380 0
379 -666 -283 0
-379 666 0
-379 283 0
380 -381 -304 0
-380 381 0
-380 304 0
381 -666 283 0
381 666 -283 0
-381 666 283 0
-381 -666 -283 0
382 -666 356 0
382 666 -356 0
-382 666 356 0
-382 -666 -356 0
-383 384 385 0
383 -384 0
383 -385 0
384 -665 -282 0
-384 665 0
-384 282 0
385 -386 -306 0
-385 386 0
-385 306 0
386 -665 282 0
386 665 -282 0
-386 665 282 0
-386 -665 -282 0
387 -665 355 0
387 665 -355 0
-387 665 355 0
-387 -665 -355 0
-388 389 390 0
388 -389 0
388 -390 0
389 -664 -281 0
-389 664 0
-389 281 0
390 -280 -310 0
-390 280 0
-390 310 0
391 -392 425 0
391 392 -425 0
-391 392 425 0
-391 -392 -425 0
392 -393 422 0
392 393 -422 0
-392 393 422 0
-392 -393 -422 0
393 394 -395 0
393 -394 395 0
-393 -394 -395 0
-393 394 395 0
394 -670 -672 -336 0
-394 670 0
-394 672 0
-394 336 0
395 -396 419 0
395 396 -419 0
-395 396 419 0
-395 -396 -419 0
396 -397 416 0
396 397 -416 0
-396 397 416 0
-396 -397 -416 0
397 -398 413 0
397 398 -413 0
-397 398 413 0
-397 -398 -413 0
398 399 -408 0
398 -399 408 0
-398 -399 -408 0
-398 399 408 0
399 -400 405 0
399 400 -405 0
-399 400 405 0
-399 -400 -405 0
400 401 -404 0
400 -401 404 0
-400 -401 -404 0
-400 401 404 0
401 402 -403 0
401 -402 403 0
-401 -402 -403 0
-401 402 403 0
402 -665 -678 0
-402 665 0
-402 678 0
403 -666 -677 0
-403 666 0
-403 677 0
404 -667 -676 0
-404 667 0
-404 676 0
-405 406 407 0
405 -406 0
405 -407 0
406 -664 -665 -677 -678 0
-406 678 0
-406 664 0
-406 677 0
-406 665 0
407 -666 -676 -320 0
-407 666 0
-407 676 0
-407 320 0
408 409 -412 0
408 -409 412 0
-408 -409 -412 0
-408 409 412 0
409 410 -411 0
409 -410 411 0
-409 -410 -411 0
-409 410 411 0
410 -668 -675 0
-410 668 0
-410 675 0
411 -669 -674 0
-411 669 0
-411 674 0
412 -670 -673 0
-412 670 0
-412 673 0
-413 414 415 0
413 -414 0
413 -415 0
414 -319 -324 0
-414 319 0
-414 324 0
415 -318 -327 0
-415 318 0
-415 327 0
-416 417 418 0
416 -417 0
416 -418 0
417 -667 -668 -674 -675 0
-417 675 0
-417 667 0
-417 674 0
-417 668 0
418 -669 -673 -328 0
-418 669 0
-418 673 0
-418 328 0
-419 420 421 0
419 -420 0
419 -421 0
420 -317 -332 0
-420 317 0
-420 332 0
421 -316 -335 0
-421 316 0
-421 335 0
-422 423 424 0
422 -423 0
422 -424 0
423 -315 -340 0
-423 315 0
-423 340 0
424 -314 -343 0
-424 314 0
-424 343 0
-425 426 427 0
425 -426 0
425 -427 0
426 -313 -346 0
-426 313 0
-426 346 0
427 -312 -349 0
-427 312 0
-427 349 0
-428 -429 -455 0
-428 429 455 0
428 429 -455 0
428 -429 455 0
-429 678 430 0
-429 -666 430 -451 0
-429 666 430 451 0
-429 -666 -678 -430 451 0
-429 666 -678 -430 -451 0
429 678 -430 0
429 666 -678 430 -451 0
429 666 -430 451 0
429 -666 -430 -451 0
429 -666 -678 430 451 0
-430 677 431 0
-430 -667 431 -447 0
-430 667 431 447 0
-430 -667 -677 -431 447 0
-430 667 -677 -431 -447 0
430 677 -431 0
430 667 -677 431 -447 0
430 667 -431 447 0
430 -667 -431 -447 0
430 -667 -677 431 447 0
-431 676 432 0
-431 -668 432 -443 0
-431 668 432 443 0
-431 -668 -676 -432 443 0
-431 668 -676 -432 -443 0
431 676 -432 0
431 668 -676 432 -443 0
431 668 -432 443 0
431 -668 -432 -443 0
431 -668 -676 432 443 0
-432 675 433 0
-432 -669 433 -440 0
-432 669 433 440 0
-432 -669 -675 -433 440 0
-432 669 -675 -433 -440 0
432 675 -433 0
432 669 -675 433 -440 0
432 669 -433 440 0
432 -669 -433 -440 0
432 -669 -675 433 440 0
-433 674 434 0
-433 670 -674 -434 -437 0
-433 670 434 437 0
-433 -670 434 -437 0
-433 -670 -674 -434 437 0
433 674 -434 0
433 -670 -434 -437 0
433 670 -434 437 0
433 -670 -674 434 437 0
433 670 -674 434 -437 0
434 -673 -363 0
434 -673 -436 0
434 -673 -435 0
-434 673 0
-434 363 435 436 0
435 -365 -362 0
-435 365 0
-435 362 0
436 -291 -292 -362 0
-436 291 0
-436 292 0
-436 362 0
-437 371 438 0
-437 297 438 0
-437 367 438 0
437 -438 0
437 -371 -297 -367 0
-438 439 367 0
-438 369 439 0
438 -439 0
438 -369 -367 0
439 -669 -359 0
-439 669 0
-439 359 0
-440 302 441 0
-440 441 442 0
440 -441 0
440 -302 -442 0
-441 374 358 0
-441 668 374 0
-441 668 358 0
441 -668 -374 0
441 -374 -358 0
441 -668 -358 0
442 -376 -372 0
-442 376 0
-442 372 0
-443 304 444 0
-443 444 446 0
443 -444 0
443 -304 -446 0
-444 445 377 0
-444 379 445 0
444 -445 0
444 -379 -377 0
445 -667 -357 0
-445 667 0
-445 357 0
446 -381 -377 0
-446 381 0
-446 377 0
-447 306 448 0
-447 448 450 0
447 -448 0
447 -306 -450 0
-448 449 382 0
-448 384 449 0
448 -449 0
448 -384 -382 0
449 -666 -356 0
-449 666 0
-449 356 0
450 -386 -382 0
-450 386 0
-450 382 0
-451 280 452 0
-451 452 454 0
451 -452 0
451 -280 -454 0
-452 453 387 0
-452 389 453 0
452 -453 0
452 -389 -387 0
453 -665 -355 0
-453 665 0
-453 355 0
454 -310 -387 0
-454 310 0
-454 387 0
455 -456 485 0
455 456 -485 0
-455 456 485 0
-455 -456 -485 0
456 -457 482 0
456 457 -482 0
-456 457 482 0
-456 -457 -482 0
457 -458 479 0
457 458 -479 0
-457 458 479 0
-457 -458 -479 0
458 -459 476 0
458 459 -476 0
-458 459 476 0
-458 -459 -476 0
459 -460 473 0
459 460 -473 0
-459 460 473 0
-459 -460 -473 0
460 461 -470 0
460 -461 470 0
-460 -461 -470 0
-460 461 470 0
461 -462 467 0
461 462 -467 0
-461 462 467 0
-461 -462 -467 0
462 463 -466 0
462 -463 466 0
-462 -463 -466 0
-462 463 466 0
463 464 -465 0
463 -464 465 0
-463 -464 -465 0
-463 464 465 0
464 -666 -678 0
-464 666 0
-464 678 0
465 -667 -677 0
-465 667 0
-465 677 0
466 -668 -676 0
-466 668 0
-466 676 0
-467 468 469 0
467 -468 0
467 -469 0
468 -665 -666 -677 -678 0
-468 678 0
-468 665 0
-468 677 0
-468 666 0
469 -667 -676 -401 0
-469 667 0
-469 676 0
-469 401 0
470 471 -472 0
470 -471 472 0
-470 -471 -472 0
-470 471 472 0
471 -669 -675 0
-471 669 0
-471 675 0
472 -670 -674 0
-472 670 0
-472 674 0
-473 474 475 0
473 -474 0
473 -475 0
474 -400 -405 0
-474 400 0
-474 405 0
475 -399 -408 0
-475 399 0
-475 408 0
-476 477 478 0
476 -477 0
476 -478 0
477 -668 -669 -674 -675 0
-477 675 0
-477 668 0
-477 674 0
-477 669 0
478 -670 -673 -409 0
-478 670 0
-478 673 0
-478 409 0
-479 480 481 0
479 -480 0
479 -481 0
480 -398 -413 0
-480 398 0
-480 413 0
481 -397 -416 0
-481 397 0
-481 416 0
-482 483 484 0
482 -483 0
482 -484 0
483 -396 -419 0
-483 396 0
-483 419 0
484 -394 -395 0
-484 394 0
-484 395 0
-485 349 486 0
-485 486 488 0
485 -486 0
485 -349 -488 0
-486 487 392 0
-486 426 487 0
486 -487 0
486 -426 -392 0
487 -393 -422 0
-487 393 0
-487 422 0
488 -312 -392 0
-488 312 0
-488 392 0
-489 678 490 0
-489 -678 512 513 0
-489 -678 -512 -513 0
489 678 -490 0
489 -678 512 -513 0
489 -678 -512 513 0
-490 677 491 0
-490 -677 507 508 0
-490 -677 -507 -508 0
490 677 -491 0
490 -677 507 -508 0
490 -677 -507 508 0
-491 676 492 0
-491 -676 502 503 0
-491 -676 -502 -503 0
491 676 -492 0
491 -676 502 -503 0
491 -676 -502 503 0
-492 675 493 0
-492 -675 497 498 0
-492 -675 -497 -498 0
492 675 -493 0
492 -675 497 -498 0
492 -675 -497 498 0
493 -674 -494 0
493 -674 -495 0
-493 674 0
-493 494 495 0
494 -670 -434 0
-494 670 0
-494 434 0
495 -496 -437 0
-495 496 0
-495 437 0
496 670 -434 0
496 -670 434 0
-496 -670 -434 0
-496 670 434 0
497 670 -493 0
497 -670 493 0
-497 -670 -493 0
-497 670 493 0
-498 499 500 0
498 -499 0
498 -500 0
499 -669 -433 0
-499 669 0
-499 433 0
500 -501 -440 0
-500 501 0
-500 440 0
501 -669 433 0
501 669 -433 0
-501 669 433 0
-501 -669 -433 0
502 -669 492 0
502 669 -492 0
-502 669 492 0
-502 -669 -492 0
-503 504 505 0
503 -504 0
503 -505 0
504 -668 -432 0
-504 668 0
-504 432 0
505 -506 -443 0
-505 506 0
-505 443 0
506 -668 432 0
506 668 -432 0
-506 668 432 0
-506 -668 -432 0
507 -668 491 0
507 668 -491 0
-507 668 491 0
-507 -668 -491 0
-508 509 510 0
508 -509 0
508 -510 0
509 -667 -431 0
-509 667 0
-509 431 0
510 -511 -447 0
-510 511 0
-510 447 0
511 -667 431 0
511 667 -431 0
-511 667 431 0
-511 -667 -431 0
512 -667 490 0
512 667 -490 0
-512 667 490 0
-512 -667 -490 0
-513 514 515 0
513 -514 0
513 -515 0
514 -666 -430 0
-514 666 0
-514 430 0
515 -516 -451 0
-515 516 0
-515 451 0
516 -666 430 0
516 666 -430 0
-516 666 430 0
-516 -666 -430 0
517 -518 541 0
517 518 -541 0
-517 518 541 0
-517 -518 -541 0
518 519 -520 0
518 -519 520 0
-518 -519 -520 0
-518 519 520 0
519 -458 -479 0
-519 458 0
-519 479 0
520 -521 538 0
520 521 -538 0
-520 521 538 0
-520 -521 -538 0
521 522 -523 0
521 -522 523 0
-521 -522 -523 0
-521 522 523 0
522 -669 -670 -674 -675 0
-522 675 0
-522 669 0
-522 674 0
-522 670 0
523 -524 535 0
523 524 -535 0
-523 524 535 0
-523 -524 -535 0
524 525 -534 0
524 -525 534 0
-524 -525 -534 0
-524 525 534 0
525 -526 531 0
525 526 -531 0
-525 526 531 0
-525 -526 -531 0
526 527 -530 0
526 -527 530 0
-526 -527 -530 0
-526 527 530 0
527 528 -529 0
527 -528 529 0
-527 -528 -529 0
-527 528 529 0
528 -667 -678 0
-528 667 0
-528 678 0
529 -668 -677 0
-529 668 0
-529 677 0
530 -669 -676 0
-530 669 0
-530 676 0
-531 532 533 0
531 -532 0
531 -533 0
532 -666 -667 -677 -678 0
-532 678 0
-532 666 0
-532 677 0
-532 667 0
533 -668 -676 -463 0
-533 668 0
-533 676 0
-533 463 0
534 -670 -675 0
-534 670 0
-534 675 0
-535 536 537 0
535 -536 0
535 -537 0
536 -462 -467 0
-536 462 0
-536 467 0
537 -461 -470 0
-537 461 0
-537 470 0
-538 539 540 0
538 -539 0
538 -540 0
539 -460 -473 0
-539 460 0
-539 473 0
540 -459 -476 0
-540 459 0
-540 476 0
-541 542 543 0
541 -542 0
541 -543 0
542 -457 -482 0
-542 457 0
-542 482 0
543 -456 -485 0
-543 456 0
-543 485 0
-544 545 569 594 608 0
-544 -545 -569 -594 -608 0
-544 545 569 -594 -608 0
-544 -545 -569 594 608 0
544 545 -569 0
544 -545 569 0
544 -594 608 0
544 594 -608 0
-545 678 546 0
-545 -668 546 -564 0
-545 668 546 564 0
-545 -668 -678 -546 564 0
-545 668 -678 -546 -564 0
545 678 -546 0
545 668 -678 546 -564 0
545 668 -546 564 0
545 -668 -546 -564 0
545 -668 -678 546 564 0
-546 677 547 0
-546 -669 547 -559 0
-546 669 547 559 0
-546 -669 -677 -547 559 0
-546 669 -677 -547 -559 0
546 677 -547 0
546 669 -677 547 -559 0
546 669 -547 559 0
546 -669 -547 -559 0
546 -669 -677 547 559 0
-547 676 548 0
-547 670 -676 -548 -554 0
-547 670 548 554 0
-547 -670 548 -554 0
-547 -670 -676 -548 554 0
547 676 -548 0
547 -670 -548 -554 0
547 670 -548 554 0
547 -670 -676 548 554 0
547 670 -676 548 -554 0
548 -675 -549 0
548 -675 -302 -553 0
-548 675 0
-548 302 549 0
-548 549 553 0
-549 441 550 551 0
-549 550 551 552 0
549 -551 0
549 -550 0
549 -441 -552 0
550 -670 -493 0
-550 670 0
-550 493 0
551 -499 -497 0
-551 499 0
-551 497 0
552 -501 -497 0
-552 501 0
-552 497 0
553 -442 -552 0
-553 442 0
-553 552 0
-554 446 556 0
-554 555 556 0
-554 304 556 0
554 -556 0
554 -304 -446 -555 0
555 -506 -502 0
-555 506 0
-555 502 0
-556 444 557 558 0
-556 557 558 555 0
556 -558 0
556 -557 0
556 -444 -555 0
557 -669 -492 0
-557 669 0
-557 492 0
558 -504 -502 0
-558 504 0
-558 502 0
-559 450 561 0
-559 560 561 0
-559 306 561 0
559 -561 0
559 -306 -450 -560 0
560 -511 -507 0
-560 511 0
-560 507 0
-561 448 562 563 0
-561 562 563 560 0
561 -563 0
561 -562 0
561 -448 -560 0
562 -668 -491 0
-562 668 0
-562 491 0
563 -509 -507 0
-563 509 0
-563 507 0
-564 454 566 0
-564 280 566 0
-564 565 566 0
564 -566 0
564 -280 -454 -565 0
565 -516 -512 0
-565 516 0
-565 512 0
-566 452 567 568 0
-566 567 568 565 0
566 -568 0
566 -567 0
566 -452 -565 0
567 -667 -490 0
-567 667 0
-567 490 0
568 -514 -512 0
-568 514 0
-568 512 0
569 -570 589 0
569 570 -589 0
-569 570 589 0
-569 -570 -589 0
570 571 -572 0
570 -571 572 0
-570 -571 -572 0
-570 571 572 0
571 -521 -538 0
-571 521 0
-571 538 0
572 -573 586 0
572 573 -586 0
-572 573 586 0
-572 -573 -586 0
573 -574 583 0
573 574 -583 0
-573 574 583 0
-573 -574 -583 0
574 -575 580 0
574 575 -580 0
-574 575 580 0
-574 -575 -580 0
575 576 -579 0
575 -576 579 0
-575 -576 -579 0
-575 576 579 0
576 577 -578 0
576 -577 578 0
-576 -577 -578 0
-576 577 578 0
577 -668 -678 0
-577 668 0
-577 678 0
578 -669 -677 0
-578 669 0
-578 677 0
579 -670 -676 0
-579 670 0
-579 676 0
-580 581 582 0
580 -581 0
580 -582 0
581 -667 -668 -677 -678 0
-581 678 0
-581 667 0
-581 677 0
-581 668 0
582 -669 -676 -527 0
-582 669 0
-582 676 0
-582 527 0
-583 584 585 0
583 -584 0
583 -585 0
584 -526 -531 0
-584 526 0
-584 531 0
585 -670 -675 -525 0
-585 670 0
-585 675 0
-585 525 0
-586 587 588 0
586 -587 0
586 -588 0
587 -524 -535 0
-587 524 0
-587 535 0
588 -522 -523 0
-588 522 0
-588 523 0
-589 488 591 0
-589 590 591 0
-589 349 591 0
589 -591 0
589 -349 -488 -590 0
590 -456 -518 0
-590 456 0
-590 518 0
-591 542 592 593 0
-591 592 518 593 0
591 -593 0
591 -592 0
591 -542 -518 0
592 -519 -520 0
-592 519 0
-592 520 0
593 -486 -590 0
-593 486 0
-593 590 0
-594 678 595 0
-594 -669 595 -604 0
-594 669 595 604 0
-594 -669 -678 -595 604 0
-594 669 -678 -595 -604 0
594 678 -595 0
594 669 -678 595 -604 0
594 669 -595 604 0
594 -669 -595 -604 0
594 -669 -678 595 604 0
-595 677 596 0
-595 670 -677 -596 -600 0
-595 670 596 600 0
-595 -670 596 -600 0
-595 -670 -677 -596 600 0
595 677 -596 0
595 -670 -596 -600 0
595 670 -596 600 0
595 -670 -677 596 600 0
595 670 -677 596 -600 0
596 -676 -597 0
596 -676 -598 0
-596 676 0
-596 597 598 0
597 -670 -548 0
-597 670 0
-597 548 0
598 -599 -554 0
-598 599 0
-598 554 0
599 670 -548 0
599 -670 548 0
-599 -670 -548 0
-599 670 548 0
-600 601 602 0
600 -601 0
600 -602 0
601 -669 -547 0
-601 669 0
-601 547 0
602 -603 -559 0
-602 603 0
-602 559 0
603 -669 547 0
603 669 -547 0
-603 669 547 0
-603 -669 -547 0
-604 605 606 0
604 -605 0
604 -606 0
605 -668 -546 0
-605 668 0
-605 546 0
606 -607 -564 0
-606 607 0
-606 564 0
607 -668 546 0
607 668 -546 0
-607 668 546 0
-607 -668 -546 0
608 -609 622 0
608 609 -622 0
-608 609 622 0
-608 -609 -622 0
609 610 -611 0
609 -610 611 0
-609 -610 -611 0
-609 610 611 0
610 -573 -586 0
-610 573 0
-610 586 0
611 612 -613 0
611 -612 613 0
-611 -612 -613 0
-611 612 613 0
612 -574 -583 0
-612 574 0
-612 583 0
613 614 -615 0
613 -614 615 0
-613 -614 -615 0
-613 614 615 0
614 -575 -580 0
-614 575 0
-614 580 0
615 -616 619 0
615 616 -619 0
-615 616 619 0
-615 -616 -619 0
616 617 -618 0
616 -617 618 0
-616 -617 -618 0
-616 617 618 0
617 -669 -678 0
-617 669 0
-617 678 0
618 -670 -677 0
-618 670 0
-618 677 0
-619 620 621 0
619 -620 0
619 -621 0
620 -668 -669 -677 -678 0
-620 678 0
-620 668 0
-620 677 0
-620 669 0
621 -670 -676 -576 0
-621 670 0
-621 676 0
-621 576 0
-622 623 624 0
622 -623 0
622 -624 0
623 -571 -572 0
-623 571 0
-623 572 0
624 -570 -589 0
-624 570 0
-624 589 0
-625 -626 -637 -649 -653 0
-625 626 637 -649 -653 0
-625 -626 -637 649 653 0
-625 626 637 649 653 0
625 649 -653 0
625 -649 653 0
625 626 -637 0
625 -626 637 0
-626 678 627 0
-626 670 -678 -627 -632 0
-626 670 627 632 0
-626 -670 627 -632 0
-626 -670 -678 -627 632 0
626 678 -627 0
626 -670 -627 -632 0
626 670 -627 632 0
626 -670 -678 627 632 0
626 670 -678 627 -632 0
627 -677 -628 0
627 -677 -631 0
627 -677 -629 0
-627 677 0
-627 628 629 631 0
628 -670 -596 0
-628 670 0
-628 596 0
629 -601 -630 0
-629 601 0
-629 630 0
630 670 -596 0
630 -670 596 0
-630 -670 -596 0
-630 670 596 0
631 -603 -559 -630 0
-631 603 0
-631 559 0
-631 630 0
-632 607 634 0
-632 564 634 0
-632 633 634 0
632 -634 0
632 -607 -564 -633 0
633 -669 595 0
633 669 -595 0
-633 669 595 0
-633 -669 -595 0
-634 635 636 0
634 -635 0
634 -636 0
635 -669 -595 0
-635 669 0
-635 595 0
636 -605 -633 0
-636 605 0
-636 633 0
637 -638 645 0
637 638 -645 0
-637 638 645 0
-637 -638 -645 0
638 639 -640 0
638 -639 640 0
-638 -639 -640 0
-638 639 640 0
639 -612 -613 0
-639 612 0
-639 613 0
640 641 -642 0
640 -641 642 0
-640 -641 -642 0
-640 641 642 0
641 -614 -615 0
-641 614 0
-641 615 0
642 643 -644 0
642 -643 644 0
-642 -643 -644 0
-642 643 644 0
643 -616 -619 0
-643 616 0
-643 619 0
644 669 -670 -678 0
644 -670 677 -678 0
-644 678 0
-644 670 0
-644 -669 -677 0
-645 570 646 0
-645 589 646 0
-645 609 646 0
645 -646 0
645 -570 -589 -609 0
-646 647 648 0
646 -647 0
646 -648 0
647 -610 -611 0
-647 610 0
-647 611 0
648 -623 -609 0
-648 623 0
-648 609 0
649 -678 -650 0
649 -678 -651 0
-649 678 0
-649 650 651 0
650 -670 -627 0
-650 670 0
-650 627 0
651 -652 -632 0
-651 652 0
-651 632 0
652 670 -627 0
652 -670 627 0
-652 -670 -627 0
-652 670 627 0
653 -654 660 0
653 654 -660 0
-653 654 660 0
-653 -654 -660 0
654 655 -656 0
654 -655 656 0
-654 -655 -656 0
-654 655 656 0
655 -641 -642 0
-655 641 0
-655 642 0
656 -657 0
-656 657 0
-657 658 659 0
657 -658 0
657 -659 0
658 -669 -670 -677 -678 0
-658 678 0
-658 669 0
-658 677 0
-658 670 0
659 -643 -644 0
-659 643 0
-659 644 0
-660 661 662 0
660 -661 0
660 -662 0
661 -639 -640 0
-661 639 0
-661 640 0
662 -638 -645 0
-662 638 0
-662 645 0
-679 0
2 0

