c Result of efficient AIG-to-CNF conversion using package CNF
p cnf 132 484
-2 3 13 46 100 0
2 -100 0
2 -3 0
2 -46 0
2 -13 0
-3 -4 -5 7 11 0
-3 4 5 -7 -11 0
-3 -4 -5 -7 -11 0
-3 4 5 7 11 0
3 -4 5 0
3 4 -5 0
3 -7 11 0
3 7 -11 0
4 -124 -128 0
-4 124 0
-4 128 0
-5 6 0
5 -6 0
-6 4 0
6 -4 0
-7 8 0
7 -8 0
-8 9 0
8 -9 0
-9 124 10 0
-9 129 10 0
-9 -124 -129 -10 0
9 124 -10 0
9 -124 -129 10 0
9 129 -10 0
10 -125 -128 0
-10 125 0
-10 128 0
11 10 -12 0
11 -10 12 0
-11 -10 -12 0
-11 10 12 0
12 -124 -129 0
-12 124 0
-12 129 0
-13 14 20 26 34 0
-13 -14 -20 -26 -34 0
-13 14 20 -26 -34 0
-13 -14 -20 26 34 0
13 14 -20 0
13 -14 20 0
13 -26 34 0
13 26 -34 0
-14 15 0
14 -15 0
-15 124 16 0
-15 -124 -130 -16 0
-15 130 16 0
15 124 -16 0
15 130 -16 0
15 -124 -130 16 0
-16 129 18 0
-16 -129 -17 -19 0
-16 -129 17 19 0
16 129 -18 0
16 -129 -17 19 0
16 -129 17 -19 0
17 -124 -10 0
-17 124 0
-17 10 0
18 -126 -128 0
-18 126 0
-18 128 0
19 125 -18 0
19 -125 18 0
-19 -125 -18 0
-19 125 18 0
20 21 -22 0
20 -21 22 0
-20 -21 -22 0
-20 21 22 0
21 -124 -129 -10 0
-21 124 0
-21 129 0
-21 10 0
22 18 -23 0
22 -18 23 0
-22 -18 -23 0
-22 18 23 0
23 24 -25 0
23 -24 25 0
-23 -24 -25 0
-23 24 25 0
24 -124 -130 0
-24 124 0
-24 130 0
25 -125 -129 0
-25 125 0
-25 129 0
-26 124 27 0
-26 -124 -131 -27 0
-26 131 27 0
26 124 -27 0
26 131 -27 0
26 -124 -131 27 0
-27 130 29 0
-27 -130 -28 -33 0
-27 -130 28 33 0
27 130 -29 0
27 -130 -28 33 0
27 -130 28 -33 0
28 -124 -16 0
-28 124 0
-28 16 0
-29 129 30 0
-29 -129 31 32 0
-29 -129 -31 -32 0
29 129 -30 0
29 -129 31 -32 0
29 -129 -31 32 0
30 -127 -128 0
-30 127 0
-30 128 0
31 126 -30 0
31 -126 30 0
-31 -126 -30 0
-31 126 30 0
-32 128 0
-32 125 0
-32 124 126 0
32 -124 -125 -128 0
32 -125 -126 -128 0
33 -125 29 0
33 125 -29 0
-33 125 29 0
-33 -125 -29 0
34 35 -36 0
34 -35 36 0
-34 -35 -36 0
-34 35 36 0
35 -21 -22 0
-35 21 0
-35 22 0
36 37 -38 0
36 -37 38 0
-36 -37 -38 0
-36 37 38 0
37 -18 -23 0
-37 18 0
-37 23 0
38 30 -39 0
38 -30 39 0
-38 -30 -39 0
-38 30 39 0
39 40 -41 0
39 -40 41 0
-39 -40 -41 0
-39 40 41 0
40 -124 -125 -129 -130 0
-40 130 0
-40 124 0
-40 129 0
-40 125 0
41 42 -45 0
41 -42 45 0
-41 -42 -45 0
-41 42 45 0
42 43 -44 0
42 -43 44 0
-42 -43 -44 0
-42 43 44 0
43 -124 -131 0
-43 124 0
-43 131 0
44 -125 -130 0
-44 125 0
-44 130 0
45 -126 -129 0
-45 126 0
-45 129 0
-46 47 58 75 87 0
-46 -47 -58 -75 -87 0
-46 47 58 -75 -87 0
-46 -47 -58 75 87 0
46 47 -58 0
46 -47 58 0
46 -75 87 0
46 75 -87 0
-47 131 49 0
-47 -131 -48 -57 0
-47 -131 48 57 0
47 131 -49 0
47 -131 -48 57 0
47 -131 48 -57 0
48 -124 -27 0
-48 124 0
-48 27 0
-49 130 50 0
-49 -130 53 54 0
-49 -130 -53 -54 0
49 130 -50 0
49 -130 53 -54 0
49 -130 -53 54 0
50 127 -129 -51 0
50 -127 -129 51 0
-50 129 0
-50 -127 -51 0
-50 127 51 0
-51 19 52 0
-51 17 52 0
-51 31 52 0
51 -52 0
51 -17 -19 -31 0
-52 128 0
-52 126 0
-52 125 127 0
52 -125 -126 -128 0
52 -126 -127 -128 0
53 126 -50 0
53 -126 50 0
-53 -126 -50 0
-53 126 50 0
-54 55 56 0
54 -55 0
54 -56 0
55 -125 -29 0
-55 125 0
-55 29 0
56 -28 -33 0
-56 28 0
-56 33 0
57 -125 49 0
57 125 -49 0
-57 125 49 0
-57 -125 -49 0
58 -59 72 0
58 59 -72 0
-58 59 72 0
-58 -59 -72 0
59 -60 69 0
59 60 -69 0
-59 60 69 0
-59 -60 -69 0
60 -61 66 0
60 61 -66 0
-60 61 66 0
-60 -61 -66 0
61 62 -65 0
61 -62 65 0
-61 -62 -65 0
-61 62 65 0
62 63 -64 0
62 -63 64 0
-62 -63 -64 0
-62 63 64 0
63 -125 -131 0
-63 125 0
-63 131 0
64 -126 -130 0
-64 126 0
-64 130 0
65 -127 -129 0
-65 127 0
-65 129 0
-66 67 68 0
66 -67 0
66 -68 0
67 -124 -125 -130 -131 0
-67 131 0
-67 124 0
-67 130 0
-67 125 0
68 -126 -129 -42 0
-68 126 0
-68 129 0
-68 42 0
-69 70 71 0
69 -70 0
69 -71 0
70 -40 -41 0
-70 40 0
-70 41 0
71 -30 -39 0
-71 30 0
-71 39 0
-72 73 74 0
72 -73 0
72 -74 0
73 -37 -38 0
-73 37 0
-73 38 0
74 -35 -36 0
-74 35 0
-74 36 0
-75 131 76 0
-75 -131 83 84 0
-75 -131 -83 -84 0
75 131 -76 0
75 -131 83 -84 0
75 -131 -83 84 0
-76 130 77 0
-76 -130 79 80 0
-76 -130 -79 -80 0
76 130 -77 0
76 -130 79 -80 0
76 -130 -79 80 0
77 -129 -78 0
-77 129 0
-77 78 0
78 -127 -51 0
-78 127 0
-78 51 0
79 -127 77 0
-79 127 0
-79 -77 0
-80 81 82 0
80 -81 0
80 -82 0
81 -126 -50 0
-81 126 0
-81 50 0
82 -53 -54 0
-82 53 0
-82 54 0
83 -126 76 0
83 126 -76 0
-83 126 76 0
-83 -126 -76 0
-84 85 86 0
84 -85 0
84 -86 0
85 -125 -49 0
-85 125 0
-85 49 0
86 -48 -57 0
-86 48 0
-86 57 0
87 -88 97 0
87 88 -97 0
-87 88 97 0
-87 -88 -97 0
88 89 -90 0
88 -89 90 0
-88 -89 -90 0
-88 89 90 0
89 -61 -66 0
-89 61 0
-89 66 0
90 -91 94 0
90 91 -94 0
-90 91 94 0
-90 -91 -94 0
91 92 -93 0
91 -92 93 0
-91 -92 -93 0
-91 92 93 0
92 -126 -131 0
-92 126 0
-92 131 0
93 -127 -130 0
-93 127 0
-93 130 0
-94 95 96 0
94 -95 0
94 -96 0
95 -125 -126 -130 -131 0
-95 131 0
-95 125 0
-95 130 0
-95 126 0
96 -127 -129 -62 0
-96 127 0
-96 129 0
-96 62 0
-97 98 99 0
97 -98 0
97 -99 0
98 -60 -69 0
-98 60 0
-98 69 0
99 -59 -72 0
-99 59 0
-99 72 0
-100 -101 -108 -115 -119 0
-100 101 108 -115 -119 0
-100 -101 -108 115 119 0
-100 101 108 115 119 0
100 115 -119 0
100 -115 119 0
100 101 -108 0
100 -101 108 0
-101 131 102 0
-101 127 -131 -102 -106 0
-101 127 102 106 0
-101 -127 102 -106 0
-101 -127 -131 -102 106 0
101 131 -102 0
101 -127 -102 -106 0
101 127 -102 106 0
101 -127 -131 102 106 0
101 127 -131 102 -106 0
102 -130 -103 0
102 -130 -105 0
102 -130 -104 0
-102 130 0
-102 103 104 105 0
103 -127 -77 0
-103 127 0
-103 77 0
104 -81 -79 0
-104 81 0
-104 79 0
105 -53 -54 -79 0
-105 53 0
-105 54 0
-105 79 0
-106 126 85 107 0
-106 85 76 107 0
-106 126 76 107 0
106 -126 -85 0
106 -85 -76 0
106 -107 0
106 -126 -76 0
107 -48 -57 -83 0
-107 48 0
-107 57 0
-107 83 0
108 -109 112 0
108 109 -112 0
-108 109 112 0
-108 -109 -112 0
109 110 -111 0
109 -110 111 0
-109 -110 -111 0
-109 110 111 0
110 -91 -94 0
-110 91 0
-110 94 0
111 126 -127 -131 0
111 -127 130 -131 0
-111 131 0
-111 127 0
-111 -126 -130 0
-112 59 113 0
-112 72 113 0
-112 88 113 0
112 -113 0
112 -59 -72 -88 0
-113 114 88 0
-113 98 114 0
113 -114 0
113 -98 -88 0
114 -89 -90 0
-114 89 0
-114 90 0
115 -131 -116 0
115 -131 -117 0
-115 131 0
-115 116 117 0
116 -127 -102 0
-116 127 0
-116 102 0
117 -118 -106 0
-117 118 0
-117 106 0
118 127 -102 0
118 -127 102 0
-118 -127 -102 0
-118 127 102 0
119 -120 121 0
119 120 -121 0
-119 120 121 0
-119 -120 -121 0
120 -126 -127 -130 -131 0
-120 131 0
-120 126 0
-120 130 0
-120 127 0
-121 122 123 0
121 -122 0
121 -123 0
122 -110 -111 0
-122 110 0
-122 111 0
123 -109 -112 0
-123 109 0
-123 112 0
-132 0
2 0

