c Result of efficient AIG-to-CNF conversion using package CNF
p cnf 218 885
-2 3 89 177 194 0
2 -194 0
2 -3 0
2 -177 0
2 -89 0
-3 -4 -23 31 0
-3 4 23 31 0
3 -31 0
3 -4 23 0
3 4 -23 0
4 5 -6 0
4 -5 6 0
-4 -5 -6 0
-4 5 6 0
5 -209 -212 0
-5 209 0
-5 212 0
6 -7 8 0
6 7 -8 0
-6 7 8 0
-6 -7 -8 0
7 -208 -213 0
-7 208 0
-7 213 0
-8 -9 -18 0
-8 9 18 0
8 9 -18 0
8 -9 18 0
9 -10 -11 0
-9 10 0
-9 11 0
10 -208 -212 0
-10 208 0
-10 212 0
11 -12 13 0
11 12 -13 0
-11 12 13 0
-11 -12 -13 0
12 -207 -213 0
-12 207 0
-12 213 0
-13 -14 -17 0
-13 14 17 0
13 14 -17 0
13 -14 17 0
14 -15 -16 0
-14 15 0
-14 16 0
15 -207 -212 0
-15 207 0
-15 212 0
16 -206 -213 0
-16 206 0
-16 213 0
17 -206 -214 0
-17 206 0
-17 214 0
18 19 -20 0
18 -19 20 0
-18 -19 -20 0
-18 19 20 0
19 -207 -214 0
-19 207 0
-19 214 0
20 -21 22 0
20 21 -22 0
-20 21 22 0
-20 -21 -22 0
21 -206 -215 0
-21 206 0
-21 215 0
-22 14 17 0
-22 12 17 0
-22 14 12 0
22 -14 -12 0
22 -12 -17 0
22 -14 -17 0
23 -24 26 0
23 24 -26 0
-23 24 26 0
-23 -24 -26 0
-24 10 25 0
-24 14 10 0
-24 14 25 0
24 -14 -10 0
24 -10 -25 0
24 -14 -25 0
-25 -12 -17 0
-25 12 17 0
25 12 -17 0
25 -12 17 0
-26 27 28 0
-26 -27 -28 0
26 -27 28 0
26 27 -28 0
27 -12 -17 0
-27 12 0
-27 17 0
-28 -29 -30 0
-28 29 30 0
28 29 -30 0
28 -29 30 0
-29 -19 -21 0
-29 19 21 0
29 19 -21 0
29 -19 21 0
30 5 -7 0
30 -5 7 0
-30 -5 -7 0
-30 5 7 0
-31 32 47 -57 -76 0
-31 -32 -47 -57 -76 0
-31 32 47 57 76 0
-31 -32 -47 57 76 0
31 32 -47 0
31 -32 47 0
31 57 -76 0
31 -57 76 0
32 33 -34 0
32 -33 34 0
-32 -33 -34 0
-32 33 34 0
33 -210 -212 0
-33 210 0
-33 212 0
34 -35 36 0
34 35 -36 0
-34 35 36 0
-34 -35 -36 0
35 -209 -213 0
-35 209 0
-35 213 0
-36 37 38 0
-36 -37 -38 0
36 -37 38 0
36 37 -38 0
37 -5 -6 0
-37 5 0
-37 6 0
-38 39 40 0
-38 -39 -40 0
38 -39 40 0
38 39 -40 0
39 -208 -214 0
-39 208 0
-39 214 0
-40 41 46 0
-40 -41 -46 0
40 -41 46 0
40 41 -46 0
-41 -42 -43 0
-41 42 43 0
41 42 -43 0
41 -42 43 0
42 -207 -215 0
-42 207 0
-42 215 0
43 -44 45 0
43 44 -45 0
-43 44 45 0
-43 -44 -45 0
44 -206 -216 0
-44 206 0
-44 216 0
-45 21 22 0
-45 19 21 0
-45 19 22 0
45 -19 -21 0
45 -21 -22 0
45 -19 -22 0
-46 9 18 0
-46 7 18 0
-46 9 7 0
46 -9 -7 0
46 -7 -18 0
46 -9 -18 0
47 -48 49 0
47 48 -49 0
-47 48 49 0
-47 -48 -49 0
-48 27 24 0
-48 24 28 0
-48 27 28 0
48 -24 -28 0
48 -27 -24 0
48 -27 -28 0
-49 50 56 0
-49 -50 -56 0
49 -50 56 0
49 50 -56 0
-50 -51 -53 0
-50 51 53 0
50 51 -53 0
50 -51 53 0
-51 33 52 0
-51 -33 -52 0
51 -33 52 0
51 33 -52 0
-52 -35 -39 0
-52 35 39 0
52 35 -39 0
52 -35 39 0
53 54 -55 0
53 -54 55 0
-53 -54 -55 0
-53 54 55 0
54 -19 -21 0
-54 19 0
-54 21 0
55 42 -44 0
55 -42 44 0
-55 -42 -44 0
-55 42 44 0
-56 7 29 0
-56 5 7 0
-56 5 29 0
56 -5 -7 0
56 -7 -29 0
56 -5 -29 0
57 58 -59 0
57 -58 59 0
-57 -58 -59 0
-57 58 59 0
58 -211 -212 0
-58 211 0
-58 212 0
59 60 -61 0
59 -60 61 0
-59 -60 -61 0
-59 60 61 0
60 -210 -213 0
-60 210 0
-60 213 0
61 62 -63 0
61 -62 63 0
-61 -62 -63 0
-61 62 63 0
62 -33 -34 0
-62 33 0
-62 34 0
63 -64 65 0
63 64 -65 0
-63 64 65 0
-63 -64 -65 0
64 -209 -214 0
-64 209 0
-64 214 0
-65 66 75 0
-65 -66 -75 0
65 -66 75 0
65 66 -75 0
-66 67 68 0
-66 -67 -68 0
66 -67 68 0
66 67 -68 0
67 -208 -215 0
-67 208 0
-67 215 0
-68 69 74 0
-68 -69 -74 0
68 -69 74 0
68 69 -74 0
-69 -70 -71 0
-69 70 71 0
69 70 -71 0
69 -70 71 0
70 -207 -216 0
-70 207 0
-70 216 0
71 -72 73 0
71 72 -73 0
-71 72 73 0
-71 -72 -73 0
72 -206 -217 0
-72 206 0
-72 217 0
-73 44 45 0
-73 42 44 0
-73 42 45 0
73 -42 -44 0
73 -44 -45 0
73 -42 -45 0
-74 39 41 0
-74 41 46 0
-74 39 46 0
74 -41 -46 0
74 -39 -41 0
74 -39 -46 0
-75 35 38 0
-75 37 35 0
-75 37 38 0
75 -37 -35 0
75 -35 -38 0
75 -37 -38 0
76 77 -78 0
76 -77 78 0
-76 -77 -78 0
-76 77 78 0
-77 48 50 0
-77 50 56 0
-77 48 56 0
77 -48 -56 0
77 -50 -56 0
77 -48 -50 0
78 -79 88 0
78 79 -88 0
-78 79 88 0
-78 -79 -88 0
79 -80 85 0
79 80 -85 0
-79 80 85 0
-79 -80 -85 0
-80 -81 -83 0
-80 81 83 0
80 81 -83 0
80 -81 83 0
-81 -67 -82 0
-81 67 82 0
81 67 -82 0
81 -67 82 0
82 70 -72 0
82 -70 72 0
-82 -70 -72 0
-82 70 72 0
83 84 -58 0
83 -84 58 0
-83 -84 -58 0
-83 84 58 0
84 -42 -44 0
-84 42 0
-84 44 0
-85 -86 -87 0
-85 86 87 0
85 86 -87 0
85 -86 87 0
-86 33 39 0
-86 35 39 0
-86 33 35 0
86 -33 -35 0
86 -35 -39 0
86 -33 -39 0
87 60 -64 0
87 -60 64 0
-87 -60 -64 0
-87 60 64 0
-88 51 55 0
-88 54 55 0
-88 54 51 0
88 -54 -55 0
88 -54 -51 0
88 -51 -55 0
-89 -90 -109 123 0
-89 90 109 123 0
89 -123 0
89 -90 109 0
89 90 -109 0
90 -91 92 0
90 91 -92 0
-90 91 92 0
-90 -91 -92 0
91 -211 -213 0
-91 211 0
-91 213 0
-92 93 94 0
-92 -93 -94 0
92 -93 94 0
92 93 -94 0
93 -210 -214 0
-93 210 0
-93 214 0
-94 95 96 0
-94 -95 -96 0
94 -95 96 0
94 95 -96 0
95 -58 -59 0
-95 58 0
-95 59 0
-96 97 98 0
-96 -97 -98 0
96 -97 98 0
96 97 -98 0
97 -209 -215 0
-97 209 0
-97 215 0
-98 99 108 0
-98 -99 -108 0
98 -99 108 0
98 99 -108 0
-99 100 101 0
-99 -100 -101 0
99 -100 101 0
99 100 -101 0
100 -208 -216 0
-100 208 0
-100 216 0
-101 102 107 0
-101 -102 -107 0
101 -102 107 0
101 102 -107 0
-102 103 104 0
-102 -103 -104 0
102 -103 104 0
102 103 -104 0
103 -207 -217 0
-103 207 0
-103 217 0
-104 105 106 0
-104 -105 -106 0
104 -105 106 0
104 105 -106 0
-105 72 73 0
-105 70 72 0
-105 70 73 0
105 -70 -72 0
105 -72 -73 0
105 -70 -73 0
-106 67 69 0
-106 69 74 0
-106 67 74 0
106 -69 -74 0
106 -67 -69 0
106 -67 -74 0
-107 64 66 0
-107 66 75 0
-107 64 75 0
107 -66 -75 0
107 -64 -66 0
107 -64 -75 0
-108 62 63 0
-108 60 63 0
-108 62 60 0
108 -62 -60 0
108 -60 -63 0
108 -62 -63 0
109 -110 111 0
109 110 -111 0
-109 110 111 0
-109 -110 -111 0
-110 77 88 0
-110 77 79 0
-110 79 88 0
110 -79 -88 0
110 -77 -88 0
110 -77 -79 0
-111 112 122 0
-111 -112 -122 0
111 -112 122 0
111 112 -122 0
112 -113 119 0
112 113 -119 0
-112 113 119 0
-112 -113 -119 0
-113 -114 -116 0
-113 114 116 0
113 114 -116 0
113 -114 116 0
-114 -97 -115 0
-114 97 115 0
114 97 -115 0
114 -97 115 0
115 100 -103 0
115 -100 103 0
-115 -100 -103 0
-115 100 103 0
116 -117 118 0
116 117 -118 0
-116 117 118 0
-116 -117 -118 0
117 -60 -64 0
-117 60 0
-117 64 0
-118 67 72 0
-118 70 72 0
-118 67 70 0
118 -67 -70 0
118 -70 -72 0
118 -67 -72 0
-119 -120 -121 0
-119 120 121 0
119 120 -121 0
119 -120 121 0
-120 211 81 0
-120 84 81 0
-120 211 84 0
-120 212 81 0
-120 212 84 0
120 -84 -81 0
120 -211 -212 -81 0
120 -211 -212 -84 0
121 91 -93 0
121 -91 93 0
-121 -91 -93 0
-121 91 93 0
-122 80 86 0
-122 86 87 0
-122 80 87 0
122 -86 -87 0
122 -80 -86 0
122 -80 -87 0
-123 124 141 -154 -167 0
-123 -124 -141 -154 -167 0
-123 124 141 154 167 0
-123 -124 -141 154 167 0
123 124 -141 0
123 -124 141 0
123 154 -167 0
123 -154 167 0
124 125 -126 0
124 -125 126 0
-124 -125 -126 0
-124 125 126 0
125 -91 -92 0
-125 91 0
-125 92 0
126 127 -128 0
126 -127 128 0
-126 -127 -128 0
-126 127 128 0
127 -211 -214 0
-127 211 0
-127 214 0
128 -129 130 0
128 129 -130 0
-128 129 130 0
-128 -129 -130 0
129 -210 -215 0
-129 210 0
-129 215 0
-130 131 140 0
-130 -131 -140 0
130 -131 140 0
130 131 -140 0
-131 132 133 0
-131 -132 -133 0
131 -132 133 0
131 132 -133 0
132 -209 -216 0
-132 209 0
-132 216 0
-133 134 139 0
-133 -134 -139 0
133 -134 139 0
133 134 -139 0
-134 135 136 0
-134 -135 -136 0
134 -135 136 0
134 135 -136 0
135 -208 -217 0
-135 208 0
-135 217 0
-136 137 138 0
-136 -137 -138 0
136 -137 138 0
136 137 -138 0
-137 103 105 0
-137 105 106 0
-137 103 106 0
137 -105 -106 0
137 -103 -105 0
137 -103 -106 0
-138 100 102 0
-138 102 107 0
-138 100 107 0
138 -102 -107 0
138 -100 -102 0
138 -100 -107 0
-139 97 99 0
-139 99 108 0
-139 97 108 0
139 -99 -108 0
139 -97 -99 0
139 -97 -108 0
-140 93 96 0
-140 95 93 0
-140 95 96 0
140 -95 -93 0
140 -93 -96 0
140 -95 -96 0
141 142 -143 0
141 -142 143 0
-141 -142 -143 0
-141 142 143 0
-142 110 122 0
-142 110 112 0
-142 112 122 0
142 -112 -122 0
142 -110 -122 0
142 -110 -112 0
143 -144 153 0
143 144 -153 0
-143 144 153 0
-143 -144 -153 0
144 -145 149 0
144 145 -149 0
-144 145 149 0
-144 -145 -149 0
-145 146 147 0
-145 -146 -147 0
145 -146 147 0
145 146 -147 0
146 -91 -93 0
-146 91 0
-146 93 0
-147 127 148 0
-147 -127 -148 0
147 -127 148 0
147 127 -148 0
-148 97 103 0
-148 100 103 0
-148 97 100 0
148 -97 -100 0
148 -100 -103 0
148 -97 -103 0
-149 -150 -151 0
-149 150 151 0
149 150 -151 0
149 -150 151 0
-150 117 114 0
-150 114 118 0
-150 117 118 0
150 -114 -118 0
150 -117 -114 0
150 -117 -118 0
151 129 -152 0
151 -129 152 0
-151 -129 -152 0
-151 129 152 0
152 132 -135 0
152 -132 135 0
-152 -132 -135 0
-152 132 135 0
-153 113 120 0
-153 120 121 0
-153 113 121 0
153 -120 -121 0
153 -113 -120 0
153 -113 -121 0
154 155 -156 0
154 -155 156 0
-154 -155 -156 0
-154 155 156 0
-155 125 128 0
-155 127 128 0
-155 125 127 0
155 -125 -127 0
155 -127 -128 0
155 -125 -128 0
156 157 -158 0
156 -157 158 0
-156 -157 -158 0
-156 157 158 0
157 -211 -215 0
-157 211 0
-157 215 0
158 -159 160 0
158 159 -160 0
-158 159 160 0
-158 -159 -160 0
159 -210 -216 0
-159 210 0
-159 216 0
-160 161 166 0
-160 -161 -166 0
160 -161 166 0
160 161 -166 0
-161 162 163 0
-161 -162 -163 0
161 -162 163 0
161 162 -163 0
162 -209 -217 0
-162 209 0
-162 217 0
-163 164 165 0
-163 -164 -165 0
163 -164 165 0
163 164 -165 0
-164 135 137 0
-164 137 138 0
-164 135 138 0
164 -137 -138 0
164 -135 -137 0
164 -135 -138 0
-165 132 134 0
-165 134 139 0
-165 132 139 0
165 -134 -139 0
165 -132 -134 0
165 -132 -139 0
-166 129 131 0
-166 131 140 0
-166 129 140 0
166 -131 -140 0
166 -129 -131 0
166 -129 -140 0
167 -168 169 0
167 168 -169 0
-167 168 169 0
-167 -168 -169 0
-168 142 153 0
-168 142 144 0
-168 144 153 0
168 -144 -153 0
168 -142 -153 0
168 -142 -144 0
-169 170 176 0
-169 -170 -176 0
169 -170 176 0
169 170 -176 0
170 -171 173 0
170 171 -173 0
-170 171 173 0
-170 -171 -173 0
-171 -157 -172 0
-171 157 172 0
171 157 -172 0
171 -157 172 0
172 159 -162 0
172 -159 162 0
-172 -159 -162 0
-172 159 162 0
-173 174 175 0
-173 -174 -175 0
173 -174 175 0
173 174 -175 0
-174 127 148 0
-174 146 127 0
-174 146 148 0
174 -146 -127 0
174 -127 -148 0
174 -146 -148 0
-175 129 135 0
-175 132 135 0
-175 129 132 0
175 -129 -132 0
175 -132 -135 0
175 -129 -135 0
-176 145 150 0
-176 150 151 0
-176 145 151 0
176 -150 -151 0
176 -145 -150 0
176 -145 -151 0
-177 -178 -187 0
-177 178 187 0
177 178 -187 0
177 -178 187 0
178 179 -180 0
178 -179 180 0
-178 -179 -180 0
-178 179 180 0
-179 157 158 0
-179 155 157 0
-179 155 158 0
179 -155 -157 0
179 -157 -158 0
179 -155 -158 0
180 181 -182 0
180 -181 182 0
-180 -181 -182 0
-180 181 182 0
181 -211 -216 0
-181 211 0
-181 216 0
182 -183 184 0
182 183 -184 0
-182 183 184 0
-182 -183 -184 0
183 -210 -217 0
-183 210 0
-183 217 0
-184 185 186 0
-184 -185 -186 0
184 -185 186 0
184 185 -186 0
-185 162 164 0
-185 164 165 0
-185 162 165 0
185 -164 -165 0
185 -162 -164 0
185 -162 -165 0
-186 159 161 0
-186 161 166 0
-186 159 166 0
186 -161 -166 0
186 -159 -161 0
186 -159 -166 0
187 -188 189 0
187 188 -189 0
-187 188 189 0
-187 -188 -189 0
-188 168 176 0
-188 168 170 0
-188 170 176 0
188 -170 -176 0
188 -168 -176 0
188 -168 -170 0
-189 190 193 0
-189 -190 -193 0
189 -190 193 0
189 190 -193 0
190 191 -192 0
190 -191 192 0
-190 -191 -192 0
-190 191 192 0
-191 157 162 0
-191 159 162 0
-191 157 159 0
191 -157 -159 0
191 -159 -162 0
191 -157 -162 0
192 181 -183 0
192 -181 183 0
-192 -181 -183 0
-192 181 183 0
-193 171 174 0
-193 174 175 0
-193 171 175 0
193 -171 -175 0
193 -174 -175 0
193 -171 -174 0
-194 195 200 204 205 0
-194 -195 -200 204 205 0
-194 195 200 -204 -205 0
-194 -195 -200 -204 -205 0
194 195 -200 0
194 -195 200 0
194 -204 205 0
194 204 -205 0
195 196 -197 0
195 -196 197 0
-195 -196 -197 0
-195 196 197 0
-196 181 182 0
-196 179 181 0
-196 179 182 0
196 -179 -181 0
196 -181 -182 0
196 -179 -182 0
197 -198 199 0
197 198 -199 0
-197 198 199 0
-197 -198 -199 0
198 -211 -217 0
-198 211 0
-198 217 0
-199 183 185 0
-199 185 186 0
-199 183 186 0
199 -185 -186 0
199 -183 -185 0
199 -183 -186 0
200 -201 202 0
200 201 -202 0
-200 201 202 0
-200 -201 -202 0
-201 188 193 0
-201 188 190 0
-201 190 193 0
201 -190 -193 0
201 -188 -193 0
201 -188 -190 0
-202 198 203 0
-202 -198 -203 0
202 -198 203 0
202 198 -203 0
-203 183 191 0
-203 181 183 0
-203 181 191 0
203 -181 -183 0
203 -183 -191 0
203 -181 -191 0
-204 196 199 0
-204 196 198 0
-204 198 199 0
204 -198 -199 0
204 -196 -199 0
204 -196 -198 0
-205 198 201 0
-205 201 203 0
-205 198 203 0
205 -201 -203 0
205 -198 -201 0
205 -198 -203 0
-218 0
2 0

