c Result of efficient AIG-to-CNF conversion using package CNF
p cnf 780 3260
-2 3 54 353 617 0
2 -617 0
2 -3 0
2 -353 0
2 -54 0
-3 4 20 -29 -44 0
-3 -4 -20 -29 -44 0
-3 4 20 29 44 0
-3 -4 -20 29 44 0
3 4 -20 0
3 -4 20 0
3 29 -44 0
3 -29 44 0
4 -5 11 0
4 5 -11 0
-4 5 11 0
-4 -5 -11 0
-5 7 10 0
-5 6 10 0
-5 6 7 0
5 -6 -10 0
5 -6 -7 0
5 -7 -10 0
6 -758 -759 -769 -770 0
-6 770 0
-6 758 0
-6 769 0
-6 759 0
-7 -8 -9 0
-7 8 9 0
7 8 -9 0
7 -8 9 0
8 -759 -770 0
-8 759 0
-8 770 0
9 -758 -771 0
-9 758 0
-9 771 0
10 -760 -769 0
-10 760 0
-10 769 0
-11 12 13 0
-11 -12 -13 0
11 -12 13 0
11 12 -13 0
12 -8 -9 0
-12 8 0
-12 9 0
-13 -14 -17 0
-13 14 17 0
13 14 -17 0
13 -14 17 0
-14 -15 -16 0
-14 15 16 0
14 15 -16 0
14 -15 16 0
15 -759 -771 0
-15 759 0
-15 771 0
16 -758 -772 0
-16 758 0
-16 772 0
17 18 -19 0
17 -18 19 0
-17 -18 -19 0
-17 18 19 0
18 -761 -769 0
-18 761 0
-18 769 0
19 -760 -770 0
-19 760 0
-19 770 0
20 21 -26 0
20 -21 26 0
-20 -21 -26 0
-20 21 26 0
-21 22 24 0
-21 -22 -24 0
21 -22 24 0
21 22 -24 0
-22 -19 -23 0
-22 19 23 0
22 19 -23 0
22 -19 23 0
23 15 -16 0
23 -15 16 0
-23 -15 -16 0
-23 15 16 0
-24 18 25 0
-24 -18 -25 0
24 -18 25 0
24 18 -25 0
-25 10 12 0
-25 8 9 12 0
25 -12 0
25 -9 -10 0
25 -8 -10 0
26 -6 -27 0
-26 6 0
-26 27 0
-27 -10 -28 0
-27 10 28 0
27 10 -28 0
27 -10 28 0
28 8 -9 0
28 -8 9 0
-28 -8 -9 0
-28 8 9 0
29 -30 31 0
29 30 -31 0
-29 30 31 0
-29 -30 -31 0
-30 12 5 0
-30 5 13 0
-30 12 13 0
30 -5 -13 0
30 -12 -5 0
30 -12 -13 0
-31 32 43 0
-31 -32 -43 0
31 -32 43 0
31 32 -43 0
-32 -33 -38 0
-32 33 38 0
32 33 -38 0
32 -33 38 0
-33 34 35 0
-33 -34 -35 0
33 -34 35 0
33 34 -35 0
34 -762 -769 0
-34 762 0
-34 769 0
-35 -36 -37 0
-35 36 37 0
35 36 -37 0
35 -36 37 0
36 -761 -770 0
-36 761 0
-36 770 0
37 -760 -771 0
-37 760 0
-37 771 0
38 39 -40 0
38 -39 40 0
-38 -39 -40 0
-38 39 40 0
39 -15 -16 0
-39 15 0
-39 16 0
40 41 -42 0
40 -41 42 0
-40 -41 -42 0
-40 41 42 0
41 -759 -772 0
-41 759 0
-41 772 0
42 -758 -773 0
-42 758 0
-42 773 0
-43 18 19 0
-43 14 18 0
-43 14 19 0
43 -14 -18 0
43 -18 -19 0
43 -14 -19 0
44 -45 46 0
44 45 -46 0
-44 45 46 0
-44 -45 -46 0
45 -21 -26 0
-45 21 0
-45 26 0
-46 47 53 0
-46 -47 -53 0
46 -47 53 0
46 47 -53 0
-47 -48 -49 0
-47 48 49 0
47 48 -49 0
47 -48 49 0
-48 -34 -36 0
-48 34 36 0
48 34 -36 0
48 -34 36 0
49 -50 52 0
49 50 -52 0
-49 50 52 0
-49 -50 -52 0
50 -37 51 0
50 37 -51 0
-50 37 51 0
-50 -37 -51 0
-51 -41 -42 0
-51 41 42 0
51 41 -42 0
51 -41 42 0
-52 15 19 0
-52 16 19 0
-52 15 16 0
52 -15 -16 0
52 -16 -19 0
52 -15 -19 0
-53 18 22 0
-53 22 25 0
-53 18 25 0
53 -22 -25 0
53 -18 -22 0
53 -18 -25 0
-54 55 74 86 174 0
-54 -55 -74 86 174 0
54 -174 0
54 -55 74 0
54 -86 0
54 55 -74 0
55 56 -57 0
55 -56 57 0
-55 -56 -57 0
-55 56 57 0
-56 30 32 0
-56 32 43 0
-56 30 43 0
56 -30 -43 0
56 -32 -43 0
56 -30 -32 0
57 -58 73 0
57 58 -73 0
-57 58 73 0
-57 -58 -73 0
58 -59 68 0
58 59 -68 0
-58 59 68 0
-58 -59 -68 0
-59 -60 -65 0
-59 60 65 0
59 60 -65 0
59 -60 65 0
-60 -61 -62 0
-60 61 62 0
60 61 -62 0
60 -61 62 0
61 -760 -772 0
-61 760 0
-61 772 0
62 63 -64 0
62 -63 64 0
-62 -63 -64 0
-62 63 64 0
63 -759 -773 0
-63 759 0
-63 773 0
64 -758 -774 0
-64 758 0
-64 774 0
65 66 -67 0
65 -66 67 0
-65 -66 -67 0
-65 66 67 0
66 -41 -42 0
-66 41 0
-66 42 0
67 -763 -769 0
-67 763 0
-67 769 0
-68 -69 -70 0
-68 69 70 0
68 69 -70 0
68 -69 70 0
-69 34 37 0
-69 36 37 0
-69 34 36 0
69 -34 -36 0
69 -36 -37 0
69 -34 -37 0
70 71 -72 0
70 -71 72 0
-70 -71 -72 0
-70 71 72 0
71 -762 -770 0
-71 762 0
-71 770 0
72 -761 -771 0
-72 761 0
-72 771 0
-73 33 40 0
-73 39 40 0
-73 39 33 0
73 -39 -40 0
73 -39 -33 0
73 -33 -40 0
74 -75 76 0
74 75 -76 0
-74 75 76 0
-74 -75 -76 0
75 -45 -46 0
-75 45 0
-75 46 0
-76 -77 -85 0
-76 77 85 0
76 77 -85 0
76 -77 85 0
-77 78 82 0
-77 -78 -82 0
77 -78 82 0
77 78 -82 0
-78 -60 -79 0
-78 60 79 0
78 60 -79 0
78 -60 79 0
79 -80 81 0
79 80 -81 0
-79 80 81 0
-79 -80 -81 0
80 -34 -36 0
-80 34 0
-80 36 0
-81 37 42 0
-81 41 42 0
-81 37 41 0
81 -37 -41 0
81 -41 -42 0
81 -37 -42 0
-82 83 84 0
-82 -83 -84 0
82 -83 84 0
82 83 -84 0
-83 48 52 0
-83 48 50 0
-83 50 52 0
83 -50 -52 0
83 -48 -52 0
83 -48 -50 0
-84 -67 -70 0
-84 67 70 0
84 67 -70 0
84 -67 70 0
85 -47 -53 0
-85 47 0
-85 53 0
-86 87 110 -127 -154 0
-86 -87 -110 -127 -154 0
-86 87 110 127 154 0
-86 -87 -110 127 154 0
86 87 -110 0
86 -87 110 0
86 127 -154 0
86 -127 154 0
87 -88 89 0
87 88 -89 0
-87 88 89 0
-87 -88 -89 0
-88 56 73 0
-88 56 58 0
-88 58 73 0
88 -58 -73 0
88 -56 -73 0
88 -56 -58 0
-89 90 109 0
-89 -90 -109 0
89 -90 109 0
89 90 -109 0
90 -91 100 0
90 91 -100 0
-90 91 100 0
-90 -91 -100 0
-91 -92 -97 0
-91 92 97 0
91 92 -97 0
91 -92 97 0
-92 -93 -94 0
-92 93 94 0
92 93 -94 0
92 -93 94 0
93 -762 -771 0
-93 762 0
-93 771 0
94 95 -96 0
94 -95 96 0
-94 -95 -96 0
-94 95 96 0
95 -761 -772 0
-95 761 0
-95 772 0
96 -760 -773 0
-96 760 0
-96 773 0
97 -98 99 0
97 98 -99 0
-97 98 99 0
-97 -98 -99 0
98 -761 -762 -770 -771 0
-98 771 0
-98 761 0
-98 770 0
-98 762 0
-99 61 64 0
-99 63 64 0
-99 61 63 0
99 -61 -63 0
99 -63 -64 0
99 -61 -64 0
-100 -101 -102 0
-100 101 102 0
100 101 -102 0
100 -101 102 0
-101 60 67 0
-101 66 67 0
-101 66 60 0
101 -66 -67 0
101 -66 -60 0
101 -60 -67 0
102 103 -106 0
102 -103 106 0
-102 -103 -106 0
-102 103 106 0
103 104 -105 0
103 -104 105 0
-103 -104 -105 0
-103 104 105 0
104 -759 -774 0
-104 759 0
-104 774 0
105 -758 -775 0
-105 758 0
-105 775 0
106 107 -108 0
106 -107 108 0
-106 -107 -108 0
-106 107 108 0
107 -764 -769 0
-107 764 0
-107 769 0
108 -763 -770 0
-108 763 0
-108 770 0
-109 59 69 0
-109 69 70 0
-109 59 70 0
109 -69 -70 0
109 -59 -69 0
109 -59 -70 0
110 -111 112 0
110 111 -112 0
-110 111 112 0
-110 -111 -112 0
111 -75 -76 0
-111 75 0
-111 76 0
-112 -113 -126 0
-112 113 126 0
112 113 -126 0
112 -113 126 0
-113 114 125 0
-113 -114 -125 0
113 -114 125 0
113 114 -125 0
-114 -115 -120 0
-114 115 120 0
114 115 -120 0
114 -115 120 0
-115 -116 -118 0
-115 116 118 0
115 116 -118 0
115 -116 118 0
-116 -108 -117 0
-116 108 117 0
116 108 -117 0
116 -108 117 0
117 93 -95 0
117 -93 95 0
-117 -93 -95 0
-117 93 95 0
118 -96 119 0
118 96 -119 0
-118 96 119 0
-118 -96 -119 0
-119 -104 -105 0
-119 104 105 0
119 104 -105 0
119 -104 105 0
120 -121 124 0
120 121 -124 0
-120 121 124 0
-120 -121 -124 0
-121 122 123 0
-121 -122 -123 0
121 -122 123 0
121 122 -123 0
-122 67 98 0
-122 71 72 98 0
122 -98 0
122 -67 -72 0
122 -67 -71 0
-123 -99 -107 0
-123 99 107 0
123 99 -107 0
123 -99 107 0
-124 60 81 0
-124 60 80 0
-124 80 81 0
124 -80 -81 0
124 -60 -81 0
124 -60 -80 0
-125 78 83 0
-125 83 84 0
-125 78 84 0
125 -78 -84 0
125 -83 -84 0
125 -78 -83 0
126 -77 -85 0
-126 77 0
-126 85 0
127 128 -129 0
127 -128 129 0
-127 -128 -129 0
-127 128 129 0
-128 88 109 0
-128 88 90 0
-128 90 109 0
128 -90 -109 0
128 -88 -109 0
128 -88 -90 0
129 -130 153 0
129 130 -153 0
-129 130 153 0
-129 -130 -153 0
130 -131 140 0
130 131 -140 0
-130 131 140 0
-130 -131 -140 0
-131 -132 -137 0
-131 132 137 0
131 132 -137 0
131 -132 137 0
-132 -133 -134 0
-132 133 134 0
132 133 -134 0
132 -133 134 0
133 -765 -769 0
-133 765 0
-133 769 0
134 135 -136 0
134 -135 136 0
-134 -135 -136 0
-134 135 136 0
135 -764 -770 0
-135 764 0
-135 770 0
136 -763 -771 0
-136 763 0
-136 771 0
137 -138 139 0
137 138 -139 0
-137 138 139 0
-137 -138 -139 0
-138 770 107 0
-138 763 103 0
-138 103 107 0
-138 770 103 0
-138 763 107 0
138 -103 -107 0
138 -763 -770 -107 0
138 -763 -770 -103 0
-139 772 96 0
-139 761 93 0
-139 93 96 0
-139 772 93 0
-139 761 96 0
139 -93 -96 0
139 -761 -772 -96 0
139 -761 -772 -93 0
-140 -141 -142 0
-140 141 142 0
140 141 -142 0
140 -141 142 0
-141 98 92 0
-141 92 99 0
-141 98 99 0
141 -92 -99 0
141 -98 -92 0
141 -98 -99 0
142 -143 146 0
142 143 -146 0
-142 143 146 0
-142 -143 -146 0
143 144 -145 0
143 -144 145 0
-143 -144 -145 0
-143 144 145 0
144 -762 -772 0
-144 762 0
-144 772 0
145 -761 -773 0
-145 761 0
-145 773 0
-146 147 148 0
-146 -147 -148 0
146 -147 148 0
146 147 -148 0
147 -104 -105 0
-147 104 0
-147 105 0
-148 -149 -150 0
-148 149 150 0
148 149 -150 0
148 -149 150 0
149 -760 -774 0
-149 760 0
-149 774 0
150 151 -152 0
150 -151 152 0
-150 -151 -152 0
-150 151 152 0
151 -759 -775 0
-151 759 0
-151 775 0
152 -758 -776 0
-152 758 0
-152 776 0
-153 91 101 0
-153 101 102 0
-153 91 102 0
153 -101 -102 0
153 -91 -101 0
153 -91 -102 0
154 -155 156 0
154 155 -156 0
-154 155 156 0
-154 -155 -156 0
155 -111 -112 0
-155 111 0
-155 112 0
-156 -157 -173 0
-156 157 173 0
156 157 -173 0
156 -157 173 0
-157 -158 -172 0
-157 158 172 0
157 158 -172 0
157 -158 172 0
-158 -159 -167 0
-158 159 167 0
158 159 -167 0
158 -159 167 0
-159 -160 -164 0
-159 160 164 0
159 160 -164 0
159 -160 164 0
-160 -148 -161 0
-160 148 161 0
160 148 -161 0
160 -148 161 0
161 -162 163 0
161 162 -163 0
-161 162 163 0
-161 -162 -163 0
-162 93 108 0
-162 95 108 0
-162 93 95 0
162 -93 -95 0
162 -95 -108 0
162 -93 -108 0
-163 96 147 0
-163 104 105 147 0
163 -147 0
163 -96 -105 0
163 -96 -104 0
164 -165 166 0
164 165 -166 0
-164 165 166 0
-164 -165 -166 0
165 -116 -118 0
-165 116 0
-165 118 0
-166 99 122 0
-166 99 107 0
-166 107 122 0
166 -107 -122 0
166 -99 -122 0
166 -99 -107 0
167 168 -169 0
167 -168 169 0
-167 -168 -169 0
-167 168 169 0
-168 115 121 0
-168 121 124 0
-168 115 124 0
168 -115 -124 0
168 -121 -124 0
168 -115 -121 0
169 -170 171 0
169 170 -171 0
-169 170 171 0
-169 -170 -171 0
170 133 -135 0
170 -133 135 0
-170 -133 -135 0
-170 133 135 0
-171 -136 -143 0
-171 136 143 0
171 136 -143 0
171 -136 143 0
172 -114 -125 0
-172 114 0
-172 125 0
173 -113 -126 0
-173 113 0
-173 126 0
-174 -175 -208 227 0
-174 175 208 227 0
174 -227 0
174 -175 208 0
174 175 -208 0
175 176 -177 0
175 -176 177 0
-175 -176 -177 0
-175 176 177 0
-176 128 153 0
-176 128 130 0
-176 130 153 0
176 -130 -153 0
176 -128 -153 0
176 -128 -130 0
177 -178 207 0
177 178 -207 0
-177 178 207 0
-177 -178 -207 0
178 -179 190 0
178 179 -190 0
-178 179 190 0
-178 -179 -190 0
-179 -180 -185 0
-179 180 185 0
179 180 -185 0
179 -180 185 0
-180 181 182 0
-180 -181 -182 0
180 -181 182 0
180 181 -182 0
181 -761 -762 -772 -773 0
-181 773 0
-181 761 0
-181 772 0
-181 762 0
-182 -183 -184 0
-182 183 184 0
182 183 -184 0
182 -183 184 0
-183 149 152 0
-183 151 152 0
-183 149 151 0
183 -149 -151 0
183 -151 -152 0
183 -149 -152 0
184 -766 -769 0
-184 766 0
-184 769 0
185 -186 187 0
185 186 -187 0
-185 186 187 0
-185 -186 -187 0
-186 143 148 0
-186 147 143 0
-186 147 148 0
186 -147 -143 0
186 -143 -148 0
186 -147 -148 0
-187 133 188 189 0
-187 136 188 189 0
187 -189 0
187 -188 0
187 -133 -136 0
188 -135 -136 0
-188 135 0
-188 136 0
189 -133 -135 0
-189 133 0
-189 135 0
-190 -191 -192 0
-190 191 192 0
190 191 -192 0
190 -191 192 0
-191 132 138 0
-191 138 139 0
-191 132 139 0
191 -132 -139 0
191 -138 -139 0
191 -132 -138 0
192 193 -196 0
192 -193 196 0
-192 -193 -196 0
-192 193 196 0
193 194 -195 0
193 -194 195 0
-193 -194 -195 0
-193 194 195 0
194 -765 -770 0
-194 765 0
-194 770 0
195 -764 -771 0
-195 764 0
-195 771 0
196 -197 202 0
196 197 -202 0
-196 197 202 0
-196 -197 -202 0
-197 -198 -199 0
-197 198 199 0
197 198 -199 0
197 -198 199 0
198 -763 -772 0
-198 763 0
-198 772 0
199 200 -201 0
199 -200 201 0
-199 -200 -201 0
-199 200 201 0
200 -762 -773 0
-200 762 0
-200 773 0
201 -761 -774 0
-201 761 0
-201 774 0
-202 -203 -204 0
-202 203 204 0
202 203 -204 0
202 -203 204 0
203 -760 -775 0
-203 760 0
-203 775 0
204 205 -206 0
204 -205 206 0
-204 -205 -206 0
-204 205 206 0
205 -759 -776 0
-205 759 0
-205 776 0
206 -758 -777 0
-206 758 0
-206 777 0
-207 131 141 0
-207 141 142 0
-207 131 142 0
207 -141 -142 0
207 -131 -141 0
207 -131 -142 0
208 -209 211 0
208 209 -211 0
-208 209 211 0
-208 -209 -211 0
-209 210 0
209 -210 0
-210 157 0
-210 155 173 0
210 -155 -157 0
210 -157 -173 0
-211 -212 -226 0
-211 212 226 0
211 212 -226 0
211 -212 226 0
-212 213 225 0
-212 -213 -225 0
212 -213 225 0
212 213 -225 0
-213 -214 -221 0
-213 214 221 0
213 214 -221 0
213 -214 221 0
-214 -215 -218 0
-214 215 218 0
214 215 -218 0
214 -215 218 0
-215 189 216 0
-215 -189 -216 0
215 -189 216 0
215 189 -216 0
-216 183 217 0
-216 -183 -217 0
216 -183 217 0
216 183 -217 0
-217 772 145 0
-217 762 136 0
-217 136 145 0
-217 772 136 0
-217 762 145 0
217 -136 -145 0
217 -762 -772 -145 0
217 -762 -772 -136 0
218 -219 220 0
218 219 -220 0
-218 219 220 0
-218 -219 -220 0
219 -170 -171 0
-219 170 0
-219 171 0
-220 148 162 0
-220 162 163 0
-220 148 163 0
220 -148 -163 0
220 -162 -163 0
220 -148 -162 0
221 222 -223 0
221 -222 223 0
-221 -222 -223 0
-221 222 223 0
-222 160 166 0
-222 160 165 0
-222 165 166 0
222 -165 -166 0
222 -160 -166 0
222 -160 -165 0
223 -196 224 0
223 196 -224 0
-223 196 224 0
-223 -196 -224 0
-224 -184 -193 0
-224 184 193 0
224 184 -193 0
224 -184 193 0
-225 159 168 0
-225 168 169 0
-225 159 169 0
225 -168 -169 0
225 -159 -168 0
225 -159 -169 0
226 -158 -172 0
-226 158 0
-226 172 0
-227 228 263 -287 -326 0
-227 -228 -263 -287 -326 0
-227 228 263 287 326 0
-227 -228 -263 287 326 0
227 228 -263 0
227 -228 263 0
227 287 -326 0
227 -287 326 0
228 229 -230 0
228 -229 230 0
-228 -229 -230 0
-228 229 230 0
-229 176 207 0
-229 176 178 0
-229 178 207 0
229 -178 -207 0
229 -176 -207 0
229 -176 -178 0
230 -231 262 0
230 231 -262 0
-230 231 262 0
-230 -231 -262 0
231 -232 241 0
231 232 -241 0
-231 232 241 0
-231 -232 -241 0
-232 -233 -238 0
-232 233 238 0
232 233 -238 0
232 -233 238 0
-233 234 235 0
-233 -234 -235 0
233 -234 235 0
233 234 -235 0
234 -764 -765 -770 -771 0
-234 771 0
-234 764 0
-234 770 0
-234 765 0
-235 236 237 0
-235 -236 -237 0
235 -236 237 0
235 236 -237 0
-236 198 201 0
-236 200 201 0
-236 198 200 0
236 -198 -200 0
236 -200 -201 0
236 -198 -201 0
-237 203 206 0
-237 205 206 0
-237 203 205 0
237 -203 -205 0
237 -205 -206 0
237 -203 -206 0
238 -239 240 0
238 239 -240 0
-238 239 240 0
-238 -239 -240 0
-239 193 197 0
-239 197 202 0
-239 193 202 0
239 -197 -202 0
239 -193 -197 0
239 -193 -202 0
-240 183 184 0
-240 181 184 0
-240 181 183 0
240 -181 -184 0
240 -181 -183 0
240 -183 -184 0
-241 -242 -243 0
-241 242 243 0
241 242 -243 0
241 -242 243 0
-242 180 186 0
-242 186 187 0
-242 180 187 0
242 -180 -187 0
242 -186 -187 0
242 -180 -186 0
243 244 -251 0
243 -244 251 0
-243 -244 -251 0
-243 244 251 0
-244 -245 -248 0
-244 245 248 0
244 245 -248 0
244 -245 248 0
245 246 -247 0
245 -246 247 0
-245 -246 -247 0
-245 246 247 0
246 -759 -777 0
-246 759 0
-246 777 0
247 -758 -778 0
-247 758 0
-247 778 0
248 249 -250 0
248 -249 250 0
-248 -249 -250 0
-248 249 250 0
249 -767 -769 0
-249 767 0
-249 769 0
250 -766 -770 0
-250 766 0
-250 770 0
251 -252 257 0
251 252 -257 0
-251 252 257 0
-251 -252 -257 0
-252 -253 -254 0
-252 253 254 0
252 253 -254 0
252 -253 254 0
253 -765 -771 0
-253 765 0
-253 771 0
254 255 -256 0
254 -255 256 0
-254 -255 -256 0
-254 255 256 0
255 -764 -772 0
-255 764 0
-255 772 0
256 -763 -773 0
-256 763 0
-256 773 0
-257 -258 -259 0
-257 258 259 0
257 258 -259 0
257 -258 259 0
258 -762 -774 0
-258 762 0
-258 774 0
259 260 -261 0
259 -260 261 0
-259 -260 -261 0
-259 260 261 0
260 -761 -775 0
-260 761 0
-260 775 0
261 -760 -776 0
-261 760 0
-261 776 0
-262 179 191 0
-262 191 192 0
-262 179 192 0
262 -191 -192 0
262 -179 -191 0
262 -179 -192 0
263 -264 265 0
263 264 -265 0
-263 264 265 0
-263 -264 -265 0
-264 209 212 0
-264 212 226 0
-264 209 226 0
264 -212 -226 0
264 -209 -212 0
264 -209 -226 0
-265 -266 -286 0
-265 266 286 0
265 266 -286 0
265 -266 286 0
266 -267 285 0
266 267 -285 0
-266 267 285 0
-266 -267 -285 0
-267 -268 -277 0
-267 268 277 0
267 268 -277 0
267 -268 277 0
-268 -269 -275 0
-268 269 275 0
268 269 -275 0
268 -269 275 0
-269 -270 -272 0
-269 270 272 0
269 270 -272 0
269 -270 272 0
-270 -256 -271 0
-270 256 271 0
270 256 -271 0
270 -256 271 0
271 258 -260 0
271 -258 260 0
-271 -258 -260 0
-271 258 260 0
272 -273 274 0
272 273 -274 0
-272 273 274 0
-272 -273 -274 0
-273 -245 -261 0
-273 245 261 0
273 245 -261 0
273 -245 261 0
-274 770 195 0
-274 765 184 0
-274 184 195 0
-274 770 184 0
-274 765 195 0
274 -184 -195 0
274 -765 -770 -195 0
274 -765 -770 -184 0
275 -236 276 0
275 236 -276 0
-275 236 276 0
-275 -236 -276 0
-276 -237 -249 0
-276 237 249 0
276 237 -249 0
276 -237 249 0
277 -278 284 0
277 278 -284 0
-277 278 284 0
-277 -278 -284 0
278 -279 280 0
278 279 -280 0
-278 279 280 0
-278 -279 -280 0
-279 197 202 0
-279 202 224 0
-279 197 224 0
279 -197 -224 0
279 -202 -224 0
279 -197 -202 0
-280 -281 -282 0
-280 281 282 0
280 281 -282 0
280 -281 282 0
-281 189 183 0
-281 183 217 0
-281 189 217 0
281 -183 -217 0
281 -189 -183 0
281 -189 -217 0
282 250 -283 0
282 -250 283 0
-282 -250 -283 0
-282 250 283 0
283 253 -255 0
283 -253 255 0
-283 -253 -255 0
-283 253 255 0
-284 219 215 0
-284 215 220 0
-284 219 220 0
284 -215 -220 0
284 -219 -215 0
284 -219 -220 0
-285 214 222 0
-285 222 223 0
-285 214 223 0
285 -222 -223 0
285 -214 -222 0
285 -214 -223 0
286 -213 -225 0
-286 213 0
-286 225 0
287 288 -289 0
287 -288 289 0
-287 -288 -289 0
-287 288 289 0
-288 229 262 0
-288 229 231 0
-288 231 262 0
288 -231 -262 0
288 -229 -262 0
288 -229 -231 0
289 -290 325 0
289 290 -325 0
-289 290 325 0
-289 -290 -325 0
290 -291 300 0
290 291 -300 0
-290 291 300 0
-290 -291 -300 0
-291 -292 -297 0
-291 292 297 0
291 292 -297 0
291 -292 297 0
-292 -293 -294 0
-292 293 294 0
292 293 -294 0
292 -293 294 0
-293 245 250 0
-293 249 250 0
-293 245 249 0
293 -245 -249 0
293 -249 -250 0
293 -245 -250 0
294 -295 296 0
294 295 -296 0
-294 295 296 0
-294 -295 -296 0
-295 253 256 0
-295 255 256 0
-295 253 255 0
295 -253 -255 0
295 -255 -256 0
295 -253 -256 0
-296 258 261 0
-296 260 261 0
-296 258 260 0
296 -258 -260 0
296 -260 -261 0
296 -258 -261 0
297 -298 299 0
297 298 -299 0
-297 298 299 0
-297 -298 -299 0
-298 244 252 0
-298 252 257 0
-298 244 257 0
298 -244 -257 0
298 -252 -257 0
298 -244 -252 0
-299 234 236 0
-299 236 237 0
-299 234 237 0
299 -236 -237 0
299 -234 -236 0
299 -234 -237 0
-300 -301 -302 0
-300 301 302 0
300 301 -302 0
300 -301 302 0
-301 233 239 0
-301 239 240 0
-301 233 240 0
301 -233 -240 0
301 -239 -240 0
301 -233 -239 0
302 303 -314 0
302 -303 314 0
-302 -303 -314 0
-302 303 314 0
-303 -304 -307 0
-303 304 307 0
303 304 -307 0
303 -304 307 0
304 305 -306 0
304 -305 306 0
-304 -305 -306 0
-304 305 306 0
305 -762 -775 0
-305 762 0
-305 775 0
306 -761 -776 0
-306 761 0
-306 776 0
307 -308 309 0
307 308 -309 0
-307 308 309 0
-307 -308 -309 0
308 -758 -759 -777 -778 0
-308 778 0
-308 758 0
-308 777 0
-308 759 0
-309 -310 -311 0
-309 310 311 0
309 310 -311 0
309 -310 311 0
310 -760 -777 0
-310 760 0
-310 777 0
311 312 -313 0
311 -312 313 0
-311 -312 -313 0
-311 312 313 0
312 -759 -778 0
-312 759 0
-312 778 0
313 -758 -779 0
-313 758 0
-313 779 0
314 -315 320 0
314 315 -320 0
-314 315 320 0
-314 -315 -320 0
-315 -316 -317 0
-315 316 317 0
315 316 -317 0
315 -316 317 0
316 -768 -769 0
-316 768 0
-316 769 0
317 318 -319 0
317 -318 319 0
-317 -318 -319 0
-317 318 319 0
318 -767 -770 0
-318 767 0
-318 770 0
319 -766 -771 0
-319 766 0
-319 771 0
-320 -321 -322 0
-320 321 322 0
320 321 -322 0
320 -321 322 0
321 -765 -772 0
-321 765 0
-321 772 0
322 323 -324 0
322 -323 324 0
-322 -323 -324 0
-322 323 324 0
323 -764 -773 0
-323 764 0
-323 773 0
324 -763 -774 0
-324 763 0
-324 774 0
-325 232 242 0
-325 242 243 0
-325 232 243 0
325 -242 -243 0
325 -232 -242 0
325 -232 -243 0
326 -327 328 0
326 327 -328 0
-326 327 328 0
-326 -327 -328 0
-327 266 286 0
-327 264 266 0
-327 264 286 0
327 -264 -266 0
327 -266 -286 0
327 -264 -286 0
-328 -329 -330 0
-328 329 330 0
328 329 -330 0
328 -329 330 0
329 -267 -285 0
-329 267 0
-329 285 0
330 -331 340 0
330 331 -340 0
-330 331 340 0
-330 -331 -340 0
-331 -332 -337 0
-331 332 337 0
331 332 -337 0
331 -332 337 0
-332 -333 -334 0
-332 333 334 0
332 333 -334 0
332 -333 334 0
-333 270 273 0
-333 273 274 0
-333 270 274 0
333 -270 -274 0
333 -273 -274 0
333 -270 -273 0
334 335 -336 0
334 -335 336 0
-334 -335 -336 0
-334 335 336 0
-335 236 237 0
-335 237 249 0
-335 236 249 0
335 -237 -249 0
335 -236 -237 0
335 -236 -249 0
336 316 -318 0
336 -316 318 0
-336 -316 -318 0
-336 316 318 0
337 -338 339 0
337 338 -339 0
-337 338 339 0
-337 -338 -339 0
338 -269 -275 0
-338 269 0
-338 275 0
-339 279 281 0
-339 281 282 0
-339 279 282 0
339 -281 -282 0
339 -279 -281 0
339 -279 -282 0
-340 -341 -342 0
-340 341 342 0
340 341 -342 0
340 -341 342 0
-341 268 284 0
-341 268 278 0
-341 278 284 0
341 -278 -284 0
341 -268 -284 0
341 -268 -278 0
342 343 -348 0
342 -343 348 0
-342 -343 -348 0
-342 343 348 0
-343 -344 -346 0
-343 344 346 0
343 344 -346 0
343 -344 346 0
-344 -319 -345 0
-344 319 345 0
344 319 -345 0
344 -319 345 0
345 321 -323 0
345 -321 323 0
-345 -321 -323 0
-345 321 323 0
346 -309 347 0
346 309 -347 0
-346 309 347 0
-346 -309 -347 0
-347 -304 -324 0
-347 304 324 0
347 304 -324 0
347 -304 324 0
348 -349 350 0
348 349 -350 0
-348 349 350 0
-348 -349 -350 0
-349 250 255 0
-349 253 255 0
-349 250 253 0
349 -250 -253 0
349 -253 -255 0
349 -250 -255 0
-350 351 352 0
-350 -351 -352 0
350 -351 352 0
350 351 -352 0
-351 256 260 0
-351 258 260 0
-351 256 258 0
351 -256 -258 0
351 -258 -260 0
351 -256 -260 0
-352 308 261 0
-352 246 247 308 0
352 -308 0
352 -247 -261 0
352 -246 -261 0
-353 354 481 514 532 0
-353 354 -481 -514 532 0
353 -532 0
353 -481 514 0
353 -354 0
353 481 -514 0
-354 355 394 -421 -458 0
-354 -355 -394 -421 -458 0
-354 355 394 421 458 0
-354 -355 -394 421 458 0
354 355 -394 0
354 -355 394 0
354 421 -458 0
354 -421 458 0
355 -356 357 0
355 356 -357 0
-355 356 357 0
-355 -356 -357 0
-356 288 325 0
-356 288 290 0
-356 290 325 0
356 -290 -325 0
356 -288 -325 0
356 -288 -290 0
-357 358 393 0
-357 -358 -393 0
357 -358 393 0
357 358 -393 0
358 -359 368 0
358 359 -368 0
-358 359 368 0
-358 -359 -368 0
-359 -360 -365 0
-359 360 365 0
359 360 -365 0
359 -360 365 0
-360 -361 -362 0
-360 361 362 0
360 361 -362 0
360 -361 362 0
-361 304 309 0
-361 308 304 0
-361 308 309 0
361 -308 -304 0
361 -304 -309 0
361 -308 -309 0
362 -363 364 0
362 363 -364 0
-362 363 364 0
-362 -363 -364 0
-363 316 319 0
-363 318 319 0
-363 316 318 0
363 -316 -318 0
363 -318 -319 0
363 -316 -319 0
-364 321 324 0
-364 323 324 0
-364 321 323 0
364 -321 -323 0
364 -323 -324 0
364 -321 -324 0
365 -366 367 0
365 366 -367 0
-365 366 367 0
-365 -366 -367 0
-366 303 315 0
-366 315 320 0
-366 303 320 0
366 -303 -320 0
366 -315 -320 0
366 -303 -315 0
-367 293 295 0
-367 295 296 0
-367 293 296 0
367 -293 -296 0
367 -295 -296 0
367 -293 -295 0
-368 -369 -370 0
-368 369 370 0
368 369 -370 0
368 -369 370 0
-369 292 298 0
-369 298 299 0
-369 292 299 0
369 -292 -299 0
369 -298 -299 0
369 -292 -298 0
370 -371 382 0
370 371 -382 0
-370 371 382 0
-370 -371 -382 0
-371 -372 -375 0
-371 372 375 0
371 372 -375 0
371 -372 375 0
372 373 -374 0
372 -373 374 0
-372 -373 -374 0
-372 373 374 0
373 -763 -775 0
-373 763 0
-373 775 0
374 -762 -776 0
-374 762 0
-374 776 0
375 -376 377 0
375 376 -377 0
-375 376 377 0
-375 -376 -377 0
376 -761 -762 -775 -776 0
-376 776 0
-376 761 0
-376 775 0
-376 762 0
-377 -378 -379 0
-377 378 379 0
377 378 -379 0
377 -378 379 0
378 -761 -777 0
-378 761 0
-378 777 0
379 380 -381 0
379 -380 381 0
-379 -380 -381 0
-379 380 381 0
380 -760 -778 0
-380 760 0
-380 778 0
381 -759 -779 0
-381 759 0
-381 779 0
-382 383 388 0
-382 -383 -388 0
382 -383 388 0
382 383 -388 0
383 384 -385 0
383 -384 385 0
-383 -384 -385 0
-383 384 385 0
-384 778 313 0
-384 759 310 0
-384 310 313 0
-384 778 310 0
-384 759 313 0
384 -310 -313 0
384 -759 -778 -313 0
384 -759 -778 -310 0
385 386 -387 0
385 -386 387 0
-385 -386 -387 0
-385 386 387 0
386 -768 -770 0
-386 768 0
-386 770 0
387 -767 -771 0
-387 767 0
-387 771 0
-388 -389 -390 0
-388 389 390 0
388 389 -390 0
388 -389 390 0
389 -766 -772 0
-389 766 0
-389 772 0
390 391 -392 0
390 -391 392 0
-390 -391 -392 0
-390 391 392 0
391 -765 -773 0
-391 765 0
-391 773 0
392 -764 -774 0
-392 764 0
-392 774 0
-393 291 301 0
-393 301 302 0
-393 291 302 0
393 -301 -302 0
393 -291 -301 0
393 -291 -302 0
394 -395 396 0
394 395 -396 0
-394 395 396 0
-394 -395 -396 0
-395 327 330 0
-395 329 330 0
-395 329 327 0
395 -329 -330 0
395 -329 -327 0
395 -327 -330 0
-396 397 420 0
-396 -397 -420 0
396 -397 420 0
396 397 -420 0
397 -398 409 0
397 398 -409 0
-397 398 409 0
-397 -398 -409 0
-398 -399 -406 0
-398 399 406 0
398 399 -406 0
398 -399 406 0
-399 -400 -403 0
-399 400 403 0
399 400 -403 0
399 -400 403 0
-400 401 402 0
-400 -401 -402 0
400 -401 402 0
400 401 -402 0
-401 376 324 0
-401 305 306 376 0
401 -376 0
401 -306 -324 0
401 -305 -324 0
-402 -384 -386 0
-402 384 386 0
402 384 -386 0
402 -384 386 0
403 -404 405 0
403 404 -405 0
-403 404 405 0
-403 -404 -405 0
-404 309 344 0
-404 344 347 0
-404 309 347 0
404 -309 -347 0
404 -344 -347 0
404 -309 -344 0
-405 349 351 0
-405 351 352 0
-405 349 352 0
405 -349 -352 0
405 -351 -352 0
405 -349 -351 0
406 -407 408 0
406 407 -408 0
-406 407 408 0
-406 -407 -408 0
407 -343 -348 0
-407 343 0
-407 348 0
-408 333 335 0
-408 335 336 0
-408 333 336 0
408 -335 -336 0
408 -333 -335 0
408 -333 -336 0
-409 -410 -411 0
-409 410 411 0
409 410 -411 0
409 -410 411 0
-410 332 339 0
-410 332 338 0
-410 338 339 0
410 -338 -339 0
410 -332 -339 0
410 -332 -338 0
411 412 -416 0
411 -412 416 0
-411 -412 -416 0
-411 412 416 0
412 -413 415 0
412 413 -415 0
-412 413 415 0
-412 -413 -415 0
-413 -387 -414 0
-413 387 414 0
413 387 -414 0
413 -387 414 0
414 389 -391 0
414 -389 391 0
-414 -389 -391 0
-414 389 391 0
-415 -372 -392 0
-415 372 392 0
415 372 -392 0
415 -372 392 0
416 377 -417 0
416 -377 417 0
-416 -377 -417 0
-416 377 417 0
417 -418 419 0
417 418 -419 0
-417 418 419 0
-417 -418 -419 0
418 -316 -318 0
-418 316 0
-418 318 0
-419 319 323 0
-419 321 323 0
-419 319 321 0
419 -319 -321 0
419 -321 -323 0
419 -319 -323 0
-420 331 341 0
-420 341 342 0
-420 331 342 0
420 -341 -342 0
420 -331 -341 0
420 -331 -342 0
421 422 -423 0
421 -422 423 0
-421 -422 -423 0
-421 422 423 0
-422 356 393 0
-422 356 358 0
-422 358 393 0
422 -358 -393 0
422 -356 -393 0
422 -356 -358 0
423 -424 457 0
423 424 -457 0
-423 424 457 0
-423 -424 -457 0
424 -425 434 0
424 425 -434 0
-424 425 434 0
-424 -425 -434 0
-425 -426 -431 0
-425 426 431 0
425 426 -431 0
425 -426 431 0
-426 -427 -428 0
-426 427 428 0
426 427 -428 0
426 -427 428 0
-427 372 377 0
-427 376 372 0
-427 376 377 0
427 -376 -372 0
427 -372 -377 0
427 -376 -377 0
428 -429 430 0
428 429 -430 0
-428 429 430 0
-428 -429 -430 0
-429 386 387 0
-429 384 386 0
-429 384 387 0
429 -384 -386 0
429 -386 -387 0
429 -384 -387 0
-430 389 392 0
-430 391 392 0
-430 389 391 0
430 -389 -391 0
430 -391 -392 0
430 -389 -392 0
431 -432 433 0
431 432 -433 0
-431 432 433 0
-431 -432 -433 0
-432 371 388 0
-432 371 383 0
-432 383 388 0
432 -383 -388 0
432 -371 -388 0
432 -371 -383 0
-433 361 363 0
-433 363 364 0
-433 361 364 0
433 -361 -364 0
433 -363 -364 0
433 -361 -363 0
-434 -435 -436 0
-434 435 436 0
434 435 -436 0
434 -435 436 0
-435 360 366 0
-435 366 367 0
-435 360 367 0
435 -360 -367 0
435 -366 -367 0
435 -360 -366 0
436 437 -446 0
436 -437 446 0
-436 -437 -446 0
-436 437 446 0
-437 -438 -443 0
-437 438 443 0
437 438 -443 0
437 -438 443 0
-438 -439 -440 0
-438 439 440 0
438 439 -440 0
438 -439 440 0
439 -762 -777 0
-439 762 0
-439 777 0
440 441 -442 0
440 -441 442 0
-440 -441 -442 0
-440 441 442 0
441 -761 -778 0
-441 761 0
-441 778 0
442 -760 -779 0
-442 760 0
-442 779 0
443 -444 445 0
443 444 -445 0
-443 444 445 0
-443 -444 -445 0
444 -762 -763 -775 -776 0
-444 776 0
-444 762 0
-444 775 0
-444 763 0
-445 378 381 0
-445 380 381 0
-445 378 380 0
445 -378 -380 0
445 -380 -381 0
445 -378 -381 0
446 -447 452 0
446 447 -452 0
-446 447 452 0
-446 -447 -452 0
-447 -448 -449 0
-447 448 449 0
447 448 -449 0
447 -448 449 0
448 -768 -771 0
-448 768 0
-448 771 0
449 450 -451 0
449 -450 451 0
-449 -450 -451 0
-449 450 451 0
450 -767 -772 0
-450 767 0
-450 772 0
451 -766 -773 0
-451 766 0
-451 773 0
-452 -453 -454 0
-452 453 454 0
452 453 -454 0
452 -453 454 0
453 -765 -774 0
-453 765 0
-453 774 0
454 455 -456 0
454 -455 456 0
-454 -455 -456 0
-454 455 456 0
455 -764 -775 0
-455 764 0
-455 775 0
456 -763 -776 0
-456 763 0
-456 776 0
-457 359 369 0
-457 369 370 0
-457 359 370 0
457 -369 -370 0
457 -359 -369 0
457 -359 -370 0
458 -459 460 0
458 459 -460 0
-458 459 460 0
-458 -459 -460 0
-459 395 420 0
-459 395 397 0
-459 397 420 0
459 -397 -420 0
459 -395 -420 0
459 -395 -397 0
-460 461 480 0
-460 -461 -480 0
460 -461 480 0
460 461 -480 0
461 -462 471 0
461 462 -471 0
-461 462 471 0
-461 -462 -471 0
-462 -463 -468 0
-462 463 468 0
462 463 -468 0
462 -463 468 0
-463 464 465 0
-463 -464 -465 0
463 -464 465 0
463 464 -465 0
464 -413 -415 0
-464 413 0
-464 415 0
-465 466 467 0
-465 -466 -467 0
465 -466 467 0
465 466 -467 0
-466 418 377 0
-466 377 419 0
-466 418 419 0
466 -377 -419 0
466 -418 -377 0
466 -418 -419 0
-467 384 401 0
-467 384 386 0
-467 386 401 0
467 -386 -401 0
467 -384 -401 0
467 -384 -386 0
468 -469 470 0
468 469 -470 0
-468 469 470 0
-468 -469 -470 0
469 -412 -416 0
-469 412 0
-469 416 0
-470 400 404 0
-470 404 405 0
-470 400 405 0
470 -400 -405 0
470 -404 -405 0
470 -400 -404 0
-471 -472 -473 0
-471 472 473 0
471 472 -473 0
471 -472 473 0
-472 407 399 0
-472 399 408 0
-472 407 408 0
472 -399 -408 0
472 -407 -399 0
472 -407 -408 0
473 474 -476 0
473 -474 476 0
-473 -474 -476 0
-473 474 476 0
-474 -447 -475 0
-474 447 475 0
474 447 -475 0
474 -447 475 0
475 -438 452 0
475 438 -452 0
-475 438 452 0
-475 -438 -452 0
476 -477 478 0
476 477 -478 0
-476 477 478 0
-476 -477 -478 0
-477 387 391 0
-477 389 391 0
-477 387 389 0
477 -387 -389 0
477 -389 -391 0
477 -387 -391 0
-478 445 479 0
-478 -445 -479 0
478 -445 479 0
478 445 -479 0
-479 444 392 0
-479 373 374 444 0
479 -444 0
479 -374 -392 0
479 -373 -392 0
-480 398 410 0
-480 410 411 0
-480 398 411 0
480 -410 -411 0
480 -398 -410 0
480 -398 -411 0
481 482 -483 0
481 -482 483 0
-481 -482 -483 0
-481 482 483 0
-482 422 457 0
-482 422 424 0
-482 424 457 0
482 -424 -457 0
482 -422 -457 0
482 -422 -424 0
483 -484 513 0
483 484 -513 0
-483 484 513 0
-483 -484 -513 0
484 -485 494 0
484 485 -494 0
-484 485 494 0
-484 -485 -494 0
-485 -486 -491 0
-485 486 491 0
485 486 -491 0
485 -486 491 0
-486 -487 -488 0
-486 487 488 0
486 487 -488 0
486 -487 488 0
-487 444 438 0
-487 438 445 0
-487 444 445 0
487 -438 -445 0
487 -444 -438 0
487 -444 -445 0
488 -489 490 0
488 489 -490 0
-488 489 490 0
-488 -489 -490 0
-489 448 451 0
-489 450 451 0
-489 448 450 0
489 -448 -450 0
489 -450 -451 0
489 -448 -451 0
-490 453 456 0
-490 455 456 0
-490 453 455 0
490 -453 -455 0
490 -455 -456 0
490 -453 -456 0
491 -492 493 0
491 492 -493 0
-491 492 493 0
-491 -492 -493 0
-492 437 447 0
-492 447 452 0
-492 437 452 0
492 -437 -452 0
492 -447 -452 0
492 -437 -447 0
-493 427 429 0
-493 429 430 0
-493 427 430 0
493 -427 -430 0
493 -429 -430 0
493 -427 -429 0
-494 -495 -496 0
-494 495 496 0
494 495 -496 0
494 -495 496 0
-495 426 432 0
-495 432 433 0
-495 426 433 0
495 -426 -433 0
495 -432 -433 0
495 -426 -432 0
496 497 -502 0
496 -497 502 0
-496 -497 -502 0
-496 497 502 0
-497 -498 -499 0
-497 498 499 0
497 498 -499 0
497 -498 499 0
-498 778 442 0
-498 761 439 0
-498 439 442 0
-498 778 439 0
-498 761 442 0
498 -439 -442 0
498 -761 -778 -442 0
498 -761 -778 -439 0
499 500 -501 0
499 -500 501 0
-499 -500 -501 0
-499 500 501 0
500 -768 -772 0
-500 768 0
-500 772 0
501 -767 -773 0
-501 767 0
-501 773 0
502 -503 508 0
502 503 -508 0
-502 503 508 0
-502 -503 -508 0
-503 -504 -505 0
-503 504 505 0
503 504 -505 0
503 -504 505 0
504 -766 -774 0
-504 766 0
-504 774 0
505 506 -507 0
505 -506 507 0
-505 -506 -507 0
-505 506 507 0
506 -765 -775 0
-506 765 0
-506 775 0
507 -764 -776 0
-507 764 0
-507 776 0
-508 -509 -510 0
-508 509 510 0
508 509 -510 0
508 -509 510 0
509 -763 -777 0
-509 763 0
-509 777 0
510 511 -512 0
510 -511 512 0
-510 -511 -512 0
-510 511 512 0
511 -762 -778 0
-511 762 0
-511 778 0
512 -761 -779 0
-512 761 0
-512 779 0
-513 425 435 0
-513 435 436 0
-513 425 436 0
513 -435 -436 0
513 -425 -435 0
513 -425 -436 0
514 -515 516 0
514 515 -516 0
-514 515 516 0
-514 -515 -516 0
-515 459 480 0
-515 459 461 0
-515 461 480 0
515 -461 -480 0
515 -459 -480 0
515 -459 -461 0
-516 517 531 0
-516 -517 -531 0
516 -517 531 0
516 517 -531 0
517 -518 523 0
517 518 -523 0
-517 518 523 0
-517 -518 -523 0
-518 519 520 0
-518 -519 -520 0
518 -519 520 0
518 519 -520 0
519 -474 -476 0
-519 474 0
-519 476 0
-520 -521 -522 0
-520 521 522 0
520 521 -522 0
520 -521 522 0
-521 464 466 0
-521 466 467 0
-521 464 467 0
521 -466 -467 0
521 -464 -466 0
521 -464 -467 0
522 499 -502 0
522 -499 502 0
-522 -499 -502 0
-522 499 502 0
-523 -524 -525 0
-523 524 525 0
523 524 -525 0
523 -524 525 0
-524 469 463 0
-524 463 470 0
-524 469 470 0
524 -463 -470 0
524 -469 -463 0
524 -469 -470 0
525 -526 528 0
525 526 -528 0
-525 526 528 0
-525 -526 -528 0
-526 -489 -527 0
-526 489 527 0
526 489 -527 0
526 -489 527 0
527 -490 498 0
527 490 -498 0
-527 490 498 0
-527 -490 -498 0
-528 529 530 0
-528 -529 -530 0
528 -529 530 0
528 529 -530 0
-529 438 447 0
-529 447 452 0
-529 438 452 0
529 -438 -452 0
529 -447 -452 0
529 -438 -447 0
-530 445 477 0
-530 477 479 0
-530 445 479 0
530 -445 -479 0
530 -477 -479 0
530 -445 -477 0
-531 462 472 0
-531 472 473 0
-531 462 473 0
531 -472 -473 0
531 -462 -472 0
531 -462 -473 0
-532 533 562 -580 -605 0
-532 -533 -562 -580 -605 0
-532 533 562 580 605 0
-532 -533 -562 580 605 0
532 533 -562 0
532 -533 562 0
532 580 -605 0
532 -580 605 0
533 534 -535 0
533 -534 535 0
-533 -534 -535 0
-533 534 535 0
-534 482 513 0
-534 482 484 0
-534 484 513 0
534 -484 -513 0
534 -482 -513 0
534 -482 -484 0
535 -536 561 0
535 536 -561 0
-535 536 561 0
-535 -536 -561 0
536 -537 546 0
536 537 -546 0
-536 537 546 0
-536 -537 -546 0
-537 -538 -543 0
-537 538 543 0
537 538 -543 0
537 -538 543 0
-538 539 540 0
-538 -539 -540 0
538 -539 540 0
538 539 -540 0
-539 504 507 0
-539 506 507 0
-539 504 506 0
539 -504 -506 0
539 -506 -507 0
539 -504 -507 0
-540 -541 -542 0
-540 541 542 0
540 541 -542 0
540 -541 542 0
-541 509 512 0
-541 511 512 0
-541 509 511 0
541 -509 -511 0
541 -511 -512 0
541 -509 -512 0
542 -768 -773 0
-542 768 0
-542 773 0
543 -544 545 0
543 544 -545 0
-543 544 545 0
-543 -544 -545 0
-544 497 503 0
-544 503 508 0
-544 497 508 0
544 -497 -508 0
544 -503 -508 0
544 -497 -503 0
-545 487 489 0
-545 489 490 0
-545 487 490 0
545 -487 -490 0
545 -489 -490 0
545 -487 -489 0
-546 -547 -548 0
-546 547 548 0
546 547 -548 0
546 -547 548 0
-547 486 492 0
-547 492 493 0
-547 486 493 0
547 -486 -493 0
547 -492 -493 0
547 -486 -492 0
548 -549 554 0
548 549 -554 0
-548 549 554 0
-548 -549 -554 0
-549 -550 -551 0
-549 550 551 0
549 550 -551 0
549 -550 551 0
550 -767 -774 0
-550 767 0
-550 774 0
551 552 -553 0
551 -552 553 0
-551 -552 -553 0
-551 552 553 0
552 -766 -775 0
-552 766 0
-552 775 0
553 -765 -776 0
-553 765 0
-553 776 0
-554 555 560 0
-554 -555 -560 0
554 -555 560 0
554 555 -560 0
-555 -556 -557 0
-555 556 557 0
555 556 -557 0
555 -556 557 0
556 -764 -777 0
-556 764 0
-556 777 0
557 558 -559 0
557 -558 559 0
-557 -558 -559 0
-557 558 559 0
558 -763 -778 0
-558 763 0
-558 778 0
559 -762 -779 0
-559 762 0
-559 779 0
-560 500 501 0
-560 498 500 0
-560 498 501 0
560 -498 -500 0
560 -500 -501 0
560 -498 -501 0
-561 485 495 0
-561 495 496 0
-561 485 496 0
561 -495 -496 0
561 -485 -495 0
561 -485 -496 0
562 -563 564 0
562 563 -564 0
-562 563 564 0
-562 -563 -564 0
-563 515 531 0
-563 515 517 0
-563 517 531 0
563 -517 -531 0
563 -515 -531 0
563 -515 -517 0
-564 565 579 0
-564 -565 -579 0
564 -565 579 0
564 565 -579 0
565 -566 578 0
565 566 -578 0
-565 566 578 0
-565 -566 -578 0
-566 -567 -573 0
-566 567 573 0
566 567 -573 0
566 -567 573 0
-567 -568 -570 0
-567 568 570 0
567 568 -570 0
567 -568 570 0
-568 -539 -569 0
-568 539 569 0
568 539 -569 0
568 -539 569 0
569 541 -542 0
569 -541 542 0
-569 -541 -542 0
-569 541 542 0
570 -571 572 0
570 571 -572 0
-570 571 572 0
-570 -571 -572 0
-571 499 503 0
-571 503 508 0
-571 499 508 0
571 -503 -508 0
571 -499 -503 0
571 -499 -508 0
-572 489 490 0
-572 490 498 0
-572 489 498 0
572 -489 -498 0
572 -490 -498 0
572 -489 -490 0
573 574 -575 0
573 -574 575 0
-573 -574 -575 0
-573 574 575 0
-574 526 529 0
-574 529 530 0
-574 526 530 0
574 -526 -530 0
574 -529 -530 0
574 -526 -529 0
575 -549 576 0
575 549 -576 0
-575 549 576 0
-575 -549 -576 0
-576 577 555 0
-576 -577 -555 0
576 -577 555 0
576 577 -555 0
577 -767 -768 -772 -773 0
-577 773 0
-577 767 0
-577 772 0
-577 768 0
-578 521 522 0
-578 519 522 0
-578 519 521 0
578 -519 -522 0
578 -519 -521 0
578 -521 -522 0
-579 518 524 0
-579 524 525 0
-579 518 525 0
579 -524 -525 0
579 -518 -524 0
579 -518 -525 0
580 -581 582 0
580 581 -582 0
-580 581 582 0
-580 -581 -582 0
-581 534 561 0
-581 534 536 0
-581 536 561 0
581 -536 -561 0
581 -534 -561 0
581 -534 -536 0
-582 583 604 0
-582 -583 -604 0
582 -583 604 0
582 583 -604 0
583 -584 593 0
583 584 -593 0
-583 584 593 0
-583 -584 -593 0
-584 -585 -590 0
-584 585 590 0
584 585 -590 0
584 -585 590 0
-585 -586 -587 0
-585 586 587 0
585 586 -587 0
585 -586 587 0
586 -768 -774 0
-586 768 0
-586 774 0
587 588 -589 0
587 -588 589 0
-587 -588 -589 0
-587 588 589 0
588 -767 -775 0
-588 767 0
-588 775 0
589 -766 -776 0
-589 766 0
-589 776 0
590 -591 592 0
590 591 -592 0
-590 591 592 0
-590 -591 -592 0
-591 549 555 0
-591 555 560 0
-591 549 560 0
591 -549 -560 0
591 -555 -560 0
591 -549 -555 0
-592 539 541 0
-592 541 542 0
-592 539 542 0
592 -541 -542 0
592 -539 -541 0
592 -539 -542 0
-593 -594 -595 0
-593 594 595 0
593 594 -595 0
593 -594 595 0
-594 538 544 0
-594 544 545 0
-594 538 545 0
594 -538 -545 0
594 -544 -545 0
594 -538 -544 0
595 -596 601 0
595 596 -601 0
-595 596 601 0
-595 -596 -601 0
-596 -597 -598 0
-596 597 598 0
596 597 -598 0
596 -597 598 0
597 -765 -777 0
-597 765 0
-597 777 0
598 599 -600 0
598 -599 600 0
-598 -599 -600 0
-598 599 600 0
599 -764 -778 0
-599 764 0
-599 778 0
600 -763 -779 0
-600 763 0
-600 779 0
-601 602 603 0
-601 -602 -603 0
601 -602 603 0
601 602 -603 0
-602 550 553 0
-602 552 553 0
-602 550 552 0
602 -550 -552 0
602 -552 -553 0
602 -550 -553 0
-603 556 559 0
-603 558 559 0
-603 556 558 0
603 -556 -558 0
603 -558 -559 0
603 -556 -559 0
-604 537 547 0
-604 547 548 0
-604 537 548 0
604 -547 -548 0
604 -537 -547 0
604 -537 -548 0
605 -606 607 0
605 606 -607 0
-605 606 607 0
-605 -606 -607 0
-606 563 579 0
-606 563 565 0
-606 565 579 0
606 -565 -579 0
606 -563 -579 0
606 -563 -565 0
-607 -608 -609 0
-607 608 609 0
607 608 -609 0
607 -608 609 0
608 -566 -578 0
-608 566 0
-608 578 0
609 -610 616 0
609 610 -616 0
-609 610 616 0
-609 -610 -616 0
-610 -611 -614 0
-610 611 614 0
610 611 -614 0
610 -611 614 0
-611 -612 -613 0
-611 612 613 0
611 612 -613 0
611 -612 613 0
-612 577 549 0
-612 549 555 0
-612 577 555 0
612 -549 -555 0
612 -577 -549 0
612 -577 -555 0
613 -585 592 0
613 585 -592 0
-613 585 592 0
-613 -585 -592 0
614 -595 615 0
614 595 -615 0
-614 595 615 0
-614 -595 -615 0
-615 568 571 0
-615 571 572 0
-615 568 572 0
615 -568 -572 0
615 -571 -572 0
615 -568 -571 0
-616 567 574 0
-616 574 575 0
-616 567 575 0
616 -574 -575 0
616 -567 -574 0
616 -567 -575 0
-617 618 639 651 708 0
-617 -618 -639 651 708 0
617 -708 0
617 -618 639 0
617 -651 0
617 618 -639 0
618 -619 620 0
618 619 -620 0
-618 619 620 0
-618 -619 -620 0
-619 581 604 0
-619 581 583 0
-619 583 604 0
619 -583 -604 0
619 -581 -604 0
619 -581 -583 0
-620 621 638 0
-620 -621 -638 0
620 -621 638 0
620 621 -638 0
621 -622 631 0
621 622 -631 0
-621 622 631 0
-621 -622 -631 0
-622 -623 -628 0
-622 623 628 0
622 623 -628 0
622 -623 628 0
-623 -624 -625 0
-623 624 625 0
623 624 -625 0
623 -624 625 0
624 -766 -777 0
-624 766 0
-624 777 0
625 626 -627 0
625 -626 627 0
-625 -626 -627 0
-625 626 627 0
626 -765 -778 0
-626 765 0
-626 778 0
627 -764 -779 0
-627 764 0
-627 779 0
628 -629 630 0
628 629 -630 0
-628 629 630 0
-628 -629 -630 0
-629 596 602 0
-629 602 603 0
-629 596 603 0
629 -596 -603 0
629 -602 -603 0
629 -596 -602 0
-630 586 589 0
-630 588 589 0
-630 586 588 0
630 -586 -588 0
630 -588 -589 0
630 -586 -589 0
-631 -632 -633 0
-631 632 633 0
631 632 -633 0
631 -632 633 0
-632 585 591 0
-632 591 592 0
-632 585 592 0
632 -585 -592 0
632 -591 -592 0
632 -585 -591 0
633 634 -635 0
633 -634 635 0
-633 -634 -635 0
-633 634 635 0
-634 597 600 0
-634 599 600 0
-634 597 599 0
634 -597 -599 0
634 -599 -600 0
634 -597 -600 0
635 636 -637 0
635 -636 637 0
-635 -636 -637 0
-635 636 637 0
636 -768 -775 0
-636 768 0
-636 775 0
637 -767 -776 0
-637 767 0
-637 776 0
-638 584 594 0
-638 594 595 0
-638 584 595 0
638 -594 -595 0
638 -584 -594 0
638 -584 -595 0
639 -640 641 0
639 640 -641 0
-639 640 641 0
-639 -640 -641 0
-640 606 609 0
-640 608 609 0
-640 608 606 0
640 -608 -609 0
640 -608 -606 0
640 -606 -609 0
-641 -642 -643 0
-641 642 643 0
641 642 -643 0
641 -642 643 0
642 -610 -616 0
-642 610 0
-642 616 0
643 -644 650 0
643 644 -650 0
-643 644 650 0
-643 -644 -650 0
-644 645 649 0
-644 -645 -649 0
644 -645 649 0
644 645 -649 0
-645 -646 -648 0
-645 646 648 0
645 646 -648 0
645 -646 648 0
-646 -623 -647 0
-646 623 647 0
646 623 -647 0
646 -623 647 0
647 -630 634 0
647 630 -634 0
-647 630 634 0
-647 -630 -634 0
648 629 -635 0
648 -629 635 0
-648 -629 -635 0
-648 629 635 0
-649 585 592 0
-649 592 612 0
-649 585 612 0
649 -585 -612 0
649 -592 -612 0
649 -585 -592 0
-650 595 611 0
-650 611 615 0
-650 595 615 0
650 -611 -615 0
650 -595 -611 0
650 -595 -615 0
-651 652 669 -684 -697 0
-651 -652 -669 -684 -697 0
-651 652 669 684 697 0
-651 -652 -669 684 697 0
651 652 -669 0
651 -652 669 0
651 684 -697 0
651 -684 697 0
652 -653 654 0
652 653 -654 0
-652 653 654 0
-652 -653 -654 0
-653 619 638 0
-653 619 621 0
-653 621 638 0
653 -621 -638 0
653 -619 -638 0
653 -619 -621 0
-654 655 668 0
-654 -655 -668 0
654 -655 668 0
654 655 -668 0
655 -656 661 0
655 656 -661 0
-655 656 661 0
-655 -656 -661 0
-656 -657 -658 0
-656 657 658 0
656 657 -658 0
656 -657 658 0
-657 636 637 0
-657 634 636 0
-657 634 637 0
657 -634 -636 0
657 -636 -637 0
657 -634 -637 0
658 659 -660 0
658 -659 660 0
-658 -659 -660 0
-658 659 660 0
-659 778 627 0
-659 765 624 0
-659 624 627 0
-659 778 624 0
-659 765 627 0
659 -624 -627 0
659 -765 -778 -627 0
659 -765 -778 -624 0
660 -768 -776 0
-660 768 0
-660 776 0
-661 -662 -663 0
-661 662 663 0
661 662 -663 0
661 -662 663 0
-662 623 629 0
-662 629 630 0
-662 623 630 0
662 -623 -630 0
662 -629 -630 0
662 -623 -629 0
663 664 -665 0
663 -664 665 0
-663 -664 -665 0
-663 664 665 0
664 -767 -777 0
-664 767 0
-664 777 0
665 666 -667 0
665 -666 667 0
-665 -666 -667 0
-665 666 667 0
666 -766 -778 0
-666 766 0
-666 778 0
667 -765 -779 0
-667 765 0
-667 779 0
-668 622 632 0
-668 632 633 0
-668 622 633 0
668 -632 -633 0
668 -622 -632 0
668 -622 -633 0
669 -670 671 0
669 670 -671 0
-669 670 671 0
-669 -670 -671 0
-670 640 643 0
-670 642 643 0
-670 642 640 0
670 -642 -643 0
670 -642 -640 0
670 -640 -643 0
-671 672 673 0
-671 -672 -673 0
671 -672 673 0
671 672 -673 0
672 -644 -650 0
-672 644 0
-672 650 0
-673 -674 -683 0
-673 674 683 0
673 674 -683 0
673 -674 683 0
-674 675 682 0
-674 -675 -682 0
674 -675 682 0
674 675 -682 0
-675 -676 -679 0
-675 676 679 0
675 676 -679 0
675 -676 679 0
-676 677 678 0
-676 -677 -678 0
676 -677 678 0
676 677 -678 0
677 -767 -768 -775 -776 0
-677 776 0
-677 767 0
-677 775 0
-677 768 0
-678 -659 -660 0
-678 659 660 0
678 659 -660 0
678 -659 660 0
679 -680 681 0
679 680 -681 0
-679 680 681 0
-679 -680 -681 0
-680 623 630 0
-680 630 634 0
-680 623 634 0
680 -623 -634 0
680 -630 -634 0
680 -623 -630 0
-681 -664 -665 0
-681 664 665 0
681 664 -665 0
681 -664 665 0
-682 629 646 0
-682 629 635 0
-682 635 646 0
682 -635 -646 0
682 -629 -646 0
682 -629 -635 0
683 -645 -649 0
-683 645 0
-683 649 0
684 -685 686 0
684 685 -686 0
-684 685 686 0
-684 -685 -686 0
-685 653 668 0
-685 653 655 0
-685 655 668 0
685 -655 -668 0
685 -653 -668 0
685 -653 -655 0
-686 687 696 0
-686 -687 -696 0
686 -687 696 0
686 687 -696 0
687 -688 693 0
687 688 -693 0
-687 688 693 0
-687 -688 -693 0
-688 -689 -690 0
-688 689 690 0
688 689 -690 0
688 -689 690 0
689 -768 -777 0
-689 768 0
-689 777 0
690 691 -692 0
690 -691 692 0
-690 -691 -692 0
-690 691 692 0
691 -767 -778 0
-691 767 0
-691 778 0
692 -766 -779 0
-692 766 0
-692 779 0
-693 694 695 0
-693 -694 -695 0
693 -694 695 0
693 694 -695 0
-694 657 659 0
-694 659 660 0
-694 657 660 0
694 -659 -660 0
694 -657 -659 0
694 -657 -660 0
-695 664 667 0
-695 666 667 0
-695 664 666 0
695 -664 -666 0
695 -666 -667 0
695 -664 -667 0
-696 656 662 0
-696 662 663 0
-696 656 663 0
696 -662 -663 0
696 -656 -662 0
696 -656 -663 0
697 -698 699 0
697 698 -699 0
-697 698 699 0
-697 -698 -699 0
-698 672 670 0
-698 670 673 0
-698 672 673 0
698 -670 -673 0
698 -672 -670 0
698 -672 -673 0
-699 -700 -707 0
-699 700 707 0
699 700 -707 0
699 -700 707 0
-700 -701 -706 0
-700 701 706 0
700 701 -706 0
700 -701 706 0
-701 702 705 0
-701 -702 -705 0
701 -702 705 0
701 702 -705 0
-702 703 704 0
-702 -703 -704 0
702 -703 704 0
702 703 -704 0
-703 688 695 0
-703 -688 -695 0
703 -688 695 0
703 688 -695 0
-704 659 660 0
-704 677 660 0
-704 677 659 0
704 -677 -660 0
704 -677 -659 0
704 -659 -660 0
-705 676 680 0
-705 680 681 0
-705 676 681 0
705 -676 -681 0
705 -680 -681 0
705 -676 -680 0
706 -675 -682 0
-706 675 0
-706 682 0
707 -674 -683 0
-707 674 0
-707 683 0
-708 -709 -718 729 0
-708 709 718 729 0
708 -729 0
708 -709 718 0
708 709 -718 0
709 -710 711 0
709 710 -711 0
-709 710 711 0
-709 -710 -711 0
-710 685 696 0
-710 685 687 0
-710 687 696 0
710 -687 -696 0
710 -685 -696 0
710 -685 -687 0
-711 712 717 0
-711 -712 -717 0
711 -712 717 0
711 712 -717 0
712 713 -714 0
712 -713 714 0
-712 -713 -714 0
-712 713 714 0
-713 778 692 0
-713 767 689 0
-713 689 692 0
-713 778 689 0
-713 767 692 0
713 -689 -692 0
713 -767 -778 -692 0
713 -767 -778 -689 0
714 715 -716 0
714 -715 716 0
-714 -715 -716 0
-714 715 716 0
715 -768 -778 0
-715 768 0
-715 778 0
716 -767 -779 0
-716 767 0
-716 779 0
-717 688 694 0
-717 694 695 0
-717 688 695 0
717 -688 -695 0
717 -694 -695 0
717 -688 -694 0
718 -719 720 0
718 719 -720 0
-718 719 720 0
-718 -719 -720 0
-719 698 700 0
-719 700 707 0
-719 698 707 0
719 -700 -707 0
719 -698 -700 0
719 -698 -707 0
-720 -721 -728 0
-720 721 728 0
720 721 -728 0
720 -721 728 0
-721 -722 -727 0
-721 722 727 0
721 722 -727 0
721 -722 727 0
-722 -723 -726 0
-722 723 726 0
722 723 -726 0
722 -723 726 0
-723 724 725 0
-723 -724 -725 0
723 -724 725 0
723 724 -725 0
724 -688 -695 0
-724 688 0
-724 695 0
-725 -713 -714 0
-725 713 714 0
725 713 -714 0
725 -713 714 0
726 -703 -704 0
-726 703 0
-726 704 0
727 -702 -705 0
-727 702 0
-727 705 0
728 -701 -706 0
-728 701 0
-728 706 0
-729 730 735 748 749 0
-729 -730 -735 -748 -749 0
-729 730 735 -748 -749 0
-729 -730 -735 748 749 0
729 730 -735 0
729 -730 735 0
729 -748 749 0
729 748 -749 0
730 -731 732 0
730 731 -732 0
-730 731 732 0
-730 -731 -732 0
-731 710 717 0
-731 710 712 0
-731 712 717 0
731 -712 -717 0
731 -710 -717 0
731 -710 -712 0
-732 -733 -734 0
-732 733 734 0
732 733 -734 0
732 -733 734 0
-733 715 716 0
-733 713 715 0
-733 713 716 0
733 -713 -715 0
733 -715 -716 0
733 -713 -716 0
734 -768 -779 0
-734 768 0
-734 779 0
735 -736 737 0
735 736 -737 0
-735 736 737 0
-735 -736 -737 0
-736 719 721 0
-736 721 728 0
-736 719 728 0
736 -721 -728 0
736 -719 -721 0
736 -719 -728 0
-737 -738 -747 0
-737 738 747 0
737 738 -747 0
737 -738 747 0
-738 -739 -746 0
-738 739 746 0
738 739 -746 0
738 -739 746 0
-739 -740 -745 0
-739 740 745 0
739 740 -745 0
739 -740 745 0
-740 741 742 0
-740 -741 -742 0
740 -741 742 0
740 741 -742 0
741 -713 -714 0
-741 713 0
-741 714 0
-742 743 0
742 -743 0
743 744 -734 0
-743 -744 0
-743 734 0
744 -767 -768 -778 -779 0
-744 779 0
-744 767 0
-744 778 0
-744 768 0
745 -724 -725 0
-745 724 0
-745 725 0
746 -723 -726 0
-746 723 0
-746 726 0
747 -722 -727 0
-747 722 0
-747 727 0
-748 731 733 0
-748 733 734 0
-748 731 734 0
748 -733 -734 0
748 -731 -733 0
748 -731 -734 0
749 -750 751 0
749 750 -751 0
-749 750 751 0
-749 -750 -751 0
-750 736 738 0
-750 738 747 0
-750 736 747 0
750 -738 -747 0
750 -736 -738 0
750 -736 -747 0
-751 -752 -757 0
-751 752 757 0
751 752 -757 0
751 -752 757 0
-752 -753 -756 0
-752 753 756 0
752 753 -756 0
752 -753 756 0
-753 -754 -755 0
-753 754 755 0
753 754 -755 0
753 -754 755 0
754 -741 -742 0
-754 741 0
-754 742 0
755 -744 -734 0
-755 744 0
-755 734 0
756 -740 -745 0
-756 740 0
-756 745 0
757 -739 -746 0
-757 739 0
-757 746 0
-780 0
2 0

