c Result of efficient AIG-to-CNF conversion using package CNF
p cnf 2299 8724
-2 3 1029 1915 2124 0
2 -2124 0
2 -3 0
2 -1915 0
2 -1029 0
-3 4 56 128 251 0
3 -251 0
3 -4 0
3 -128 0
3 -56 0
-4 5 6 19 0
-4 -5 -6 19 0
4 -19 0
4 5 -6 0
4 -5 6 0
5 -2271 -2285 0
-5 2271 0
-5 2285 0
-6 7 0
6 -7 0
-7 8 0
7 -8 0
-8 9 0
8 -9 0
-9 10 0
9 -10 0
-10 11 0
10 -11 0
-11 12 0
11 -12 0
-12 13 0
12 -13 0
-13 14 0
13 -14 0
-14 15 0
14 -15 0
-15 16 0
15 -16 0
-16 17 0
16 -17 0
-17 18 0
17 -18 0
-18 5 0
18 -5 0
-19 20 33 35 50 0
-19 -20 -33 -35 -50 0
-19 20 33 -35 -50 0
-19 -20 -33 35 50 0
19 20 -33 0
19 -20 33 0
19 -35 50 0
19 35 -50 0
-20 21 0
20 -21 0
-21 22 0
21 -22 0
-22 23 0
22 -23 0
-23 24 0
23 -24 0
-24 25 0
24 -25 0
-25 26 0
25 -26 0
-26 27 0
26 -27 0
-27 28 0
27 -28 0
-28 29 0
28 -29 0
-29 30 0
29 -30 0
-30 31 0
30 -31 0
-31 2271 32 0
-31 2286 32 0
-31 -2271 -2286 -32 0
31 2271 -32 0
31 -2271 -2286 32 0
31 2286 -32 0
32 -2272 -2285 0
-32 2272 0
-32 2285 0
33 32 -34 0
33 -32 34 0
-33 -32 -34 0
-33 32 34 0
34 -2271 -2286 0
-34 2271 0
-34 2286 0
-35 36 0
35 -36 0
-36 37 0
36 -37 0
-37 38 0
37 -38 0
-38 39 0
38 -39 0
-39 40 0
39 -40 0
-40 41 0
40 -41 0
-41 42 0
41 -42 0
-42 43 0
42 -43 0
-43 44 0
43 -44 0
-44 45 0
44 -45 0
-45 2271 46 0
-45 -2271 -2287 -46 0
-45 2287 46 0
45 2271 -46 0
45 2287 -46 0
45 -2271 -2287 46 0
-46 2286 48 0
-46 -2286 -47 -49 0
-46 -2286 47 49 0
46 2286 -48 0
46 -2286 -47 49 0
46 -2286 47 -49 0
47 -2271 -32 0
-47 2271 0
-47 32 0
48 -2273 -2285 0
-48 2273 0
-48 2285 0
49 2272 -48 0
49 -2272 48 0
-49 -2272 -48 0
-49 2272 48 0
50 51 -52 0
50 -51 52 0
-50 -51 -52 0
-50 51 52 0
51 -2271 -2286 -32 0
-51 2271 0
-51 2286 0
-51 32 0
52 48 -53 0
52 -48 53 0
-52 -48 -53 0
-52 48 53 0
53 54 -55 0
53 -54 55 0
-53 -54 -55 0
-53 54 55 0
54 -2271 -2287 0
-54 2271 0
-54 2287 0
55 -2272 -2286 0
-55 2272 0
-55 2286 0
-56 57 74 86 108 0
-56 -57 -74 -86 -108 0
-56 57 74 -86 -108 0
-56 -57 -74 86 108 0
56 57 -74 0
56 -57 74 0
56 -86 108 0
56 86 -108 0
-57 58 0
57 -58 0
-58 59 0
58 -59 0
-59 60 0
59 -60 0
-60 61 0
60 -61 0
-61 62 0
61 -62 0
-62 63 0
62 -63 0
-63 64 0
63 -64 0
-64 65 0
64 -65 0
-65 66 0
65 -66 0
-66 2271 67 0
-66 -2271 -2288 -67 0
-66 2288 67 0
66 2271 -67 0
66 2288 -67 0
66 -2271 -2288 67 0
-67 2287 69 0
-67 -2287 -68 -73 0
-67 -2287 68 73 0
67 2287 -69 0
67 -2287 -68 73 0
67 -2287 68 -73 0
68 -2271 -46 0
-68 2271 0
-68 46 0
-69 2286 70 0
-69 -2286 71 72 0
-69 -2286 -71 -72 0
69 2286 -70 0
69 -2286 71 -72 0
69 -2286 -71 72 0
70 -2274 -2285 0
-70 2274 0
-70 2285 0
71 2273 -70 0
71 -2273 70 0
-71 -2273 -70 0
-71 2273 70 0
-72 2285 0
-72 2272 0
-72 2271 2273 0
72 -2271 -2272 -2285 0
72 -2272 -2273 -2285 0
73 -2272 69 0
73 2272 -69 0
-73 2272 69 0
-73 -2272 -69 0
74 75 -76 0
74 -75 76 0
-74 -75 -76 0
-74 75 76 0
75 -51 -52 0
-75 51 0
-75 52 0
76 77 -78 0
76 -77 78 0
-76 -77 -78 0
-76 77 78 0
77 -48 -53 0
-77 48 0
-77 53 0
78 70 -79 0
78 -70 79 0
-78 -70 -79 0
-78 70 79 0
79 80 -81 0
79 -80 81 0
-79 -80 -81 0
-79 80 81 0
80 -2271 -2272 -2286 -2287 0
-80 2287 0
-80 2271 0
-80 2286 0
-80 2272 0
81 82 -85 0
81 -82 85 0
-81 -82 -85 0
-81 82 85 0
82 83 -84 0
82 -83 84 0
-82 -83 -84 0
-82 83 84 0
83 -2271 -2288 0
-83 2271 0
-83 2288 0
84 -2272 -2287 0
-84 2272 0
-84 2287 0
85 -2273 -2286 0
-85 2273 0
-85 2286 0
-86 87 0
86 -87 0
-87 88 0
87 -88 0
-88 89 0
88 -89 0
-89 90 0
89 -90 0
-90 91 0
90 -91 0
-91 92 0
91 -92 0
-92 93 0
92 -93 0
-93 94 0
93 -94 0
-94 2271 95 0
-94 -2271 -2289 -95 0
-94 2289 95 0
94 2271 -95 0
94 2289 -95 0
94 -2271 -2289 95 0
-95 2288 97 0
-95 -2288 -96 -107 0
-95 -2288 96 107 0
95 2288 -97 0
95 -2288 -96 107 0
95 -2288 96 -107 0
96 -2271 -67 0
-96 2271 0
-96 67 0
-97 2287 98 0
-97 -2287 103 104 0
-97 -2287 -103 -104 0
97 2287 -98 0
97 -2287 103 -104 0
97 -2287 -103 104 0
-98 2286 99 0
-98 -2286 100 101 0
-98 -2286 -100 -101 0
98 2286 -99 0
98 -2286 100 -101 0
98 -2286 -100 101 0
99 -2275 -2285 0
-99 2275 0
-99 2285 0
100 2274 -99 0
100 -2274 99 0
-100 -2274 -99 0
-100 2274 99 0
-101 49 102 0
-101 47 102 0
-101 71 102 0
101 -102 0
101 -47 -49 -71 0
-102 2285 0
-102 2273 0
-102 2272 2274 0
102 -2272 -2273 -2285 0
102 -2273 -2274 -2285 0
103 -2273 98 0
103 2273 -98 0
-103 2273 98 0
-103 -2273 -98 0
-104 105 106 0
104 -105 0
104 -106 0
105 -2272 -69 0
-105 2272 0
-105 69 0
106 -68 -73 0
-106 68 0
-106 73 0
107 -2272 97 0
107 2272 -97 0
-107 2272 97 0
-107 -2272 -97 0
108 -109 125 0
108 109 -125 0
-108 109 125 0
-108 -109 -125 0
109 110 -111 0
109 -110 111 0
-109 -110 -111 0
-109 110 111 0
110 -70 -79 0
-110 70 0
-110 79 0
111 99 -112 0
111 -99 112 0
-111 -99 -112 0
-111 99 112 0
112 113 -114 0
112 -113 114 0
-112 -113 -114 0
-112 113 114 0
113 -80 -81 0
-113 80 0
-113 81 0
114 115 -116 0
114 -115 116 0
-114 -115 -116 0
-114 115 116 0
115 -2273 -2286 -82 0
-115 2273 0
-115 2286 0
-115 82 0
116 117 -124 0
116 -117 124 0
-116 -117 -124 0
-116 117 124 0
117 118 -119 0
117 -118 119 0
-117 -118 -119 0
-117 118 119 0
118 -2271 -2272 -2287 -2288 0
-118 2288 0
-118 2271 0
-118 2287 0
-118 2272 0
119 120 -123 0
119 -120 123 0
-119 -120 -123 0
-119 120 123 0
120 121 -122 0
120 -121 122 0
-120 -121 -122 0
-120 121 122 0
121 -2271 -2289 0
-121 2271 0
-121 2289 0
122 -2272 -2288 0
-122 2272 0
-122 2288 0
123 -2273 -2287 0
-123 2273 0
-123 2287 0
124 -2274 -2286 0
-124 2274 0
-124 2286 0
-125 126 127 0
125 -126 0
125 -127 0
126 -77 -78 0
-126 77 0
-126 78 0
127 -75 -76 0
-127 75 0
-127 76 0
-128 129 156 184 216 0
-128 -129 -156 -184 -216 0
-128 129 156 -184 -216 0
-128 -129 -156 184 216 0
128 129 -156 0
128 -129 156 0
128 -184 216 0
128 184 -216 0
-129 130 0
129 -130 0
-130 131 0
130 -131 0
-131 132 0
131 -132 0
-132 133 0
132 -133 0
-133 134 0
133 -134 0
-134 135 0
134 -135 0
-135 136 0
135 -136 0
-136 137 0
136 -137 0
-137 2271 138 0
-137 -2271 -2290 -138 0
-137 2290 138 0
137 2271 -138 0
137 2290 -138 0
137 -2271 -2290 138 0
-138 2289 140 0
-138 2272 139 140 0
-138 -2272 -139 140 0
-138 2272 -2289 -139 -140 0
-138 -2272 -2289 139 -140 0
138 2289 -140 0
138 -2272 -139 -140 0
138 2272 139 -140 0
138 2272 -2289 -139 140 0
138 -2272 -2289 139 140 0
139 -2271 -95 0
-139 2271 0
-139 95 0
-140 2288 141 0
-140 -2288 152 153 0
-140 -2288 -152 -153 0
140 2288 -141 0
140 -2288 152 -153 0
140 -2288 -152 153 0
-141 2287 142 0
-141 -2287 148 149 0
-141 -2287 -148 -149 0
141 2287 -142 0
141 -2287 148 -149 0
141 -2287 -148 149 0
-142 2286 143 0
-142 -2286 144 145 0
-142 -2286 -144 -145 0
142 2286 -143 0
142 -2286 144 -145 0
142 -2286 -144 145 0
143 -2276 -2285 0
-143 2276 0
-143 2285 0
144 2275 -143 0
144 -2275 143 0
-144 -2275 -143 0
-144 2275 143 0
-145 146 147 0
145 -146 0
145 -147 0
146 -2274 -99 0
-146 2274 0
-146 99 0
147 -100 -101 0
-147 100 0
-147 101 0
148 -2274 142 0
148 2274 -142 0
-148 2274 142 0
-148 -2274 -142 0
-149 150 151 0
149 -150 0
149 -151 0
150 -2273 -98 0
-150 2273 0
-150 98 0
151 -103 -104 0
-151 103 0
-151 104 0
152 -2273 141 0
152 2273 -141 0
-152 2273 141 0
-152 -2273 -141 0
-153 154 155 0
153 -154 0
153 -155 0
154 -2272 -97 0
-154 2272 0
-154 97 0
155 -96 -107 0
-155 96 0
-155 107 0
156 -157 181 0
156 157 -181 0
-156 157 181 0
-156 -157 -181 0
157 158 -159 0
157 -158 159 0
-157 -158 -159 0
-157 158 159 0
158 -99 -112 0
-158 99 0
-158 112 0
159 143 -160 0
159 -143 160 0
-159 -143 -160 0
-159 143 160 0
160 161 -162 0
160 -161 162 0
-160 -161 -162 0
-160 161 162 0
161 -113 -114 0
-161 113 0
-161 114 0
162 163 -164 0
162 -163 164 0
-162 -163 -164 0
-162 163 164 0
163 -115 -116 0
-163 115 0
-163 116 0
164 165 -166 0
164 -165 166 0
-164 -165 -166 0
-164 165 166 0
165 -2271 -2290 0
-165 2271 0
-165 2290 0
166 -167 178 0
166 167 -178 0
-166 167 178 0
-166 -167 -178 0
167 168 -177 0
167 -168 177 0
-167 -168 -177 0
-167 168 177 0
168 -169 174 0
168 169 -174 0
-168 169 174 0
-168 -169 -174 0
169 170 -173 0
169 -170 173 0
-169 -170 -173 0
-169 170 173 0
170 171 -172 0
170 -171 172 0
-170 -171 -172 0
-170 171 172 0
171 -2272 -2289 0
-171 2272 0
-171 2289 0
172 -2273 -2288 0
-172 2273 0
-172 2288 0
173 -2274 -2287 0
-173 2274 0
-173 2287 0
-174 175 176 0
174 -175 0
174 -176 0
175 -2271 -2272 -2288 -2289 0
-175 2289 0
-175 2271 0
-175 2288 0
-175 2272 0
176 -2273 -2287 -120 0
-176 2273 0
-176 2287 0
-176 120 0
177 -2275 -2286 0
-177 2275 0
-177 2286 0
-178 179 180 0
178 -179 0
178 -180 0
179 -118 -119 0
-179 118 0
-179 119 0
180 -2274 -2286 -117 0
-180 2274 0
-180 2286 0
-180 117 0
-181 182 183 0
181 -182 0
181 -183 0
182 -110 -111 0
-182 110 0
-182 111 0
183 -109 -125 0
-183 109 0
-183 125 0
-184 185 0
184 -185 0
-185 186 0
185 -186 0
-186 187 0
186 -187 0
-187 188 0
187 -188 0
-188 189 0
188 -189 0
-189 190 0
189 -190 0
-190 191 0
190 -191 0
-191 2271 192 0
-191 -2271 -2291 -192 0
-191 2291 192 0
191 2271 -192 0
191 2291 -192 0
191 -2271 -2291 192 0
-192 2290 194 0
-192 -2290 -193 -215 0
-192 -2290 193 215 0
192 2290 -194 0
192 -2290 -193 215 0
192 -2290 193 -215 0
193 -2271 -138 0
-193 2271 0
-193 138 0
-194 2289 195 0
-194 -2273 195 -211 0
-194 2273 195 211 0
-194 -2273 -2289 -195 211 0
-194 2273 -2289 -195 -211 0
194 2289 -195 0
194 2273 -2289 195 -211 0
194 2273 -195 211 0
194 -2273 -195 -211 0
194 -2273 -2289 195 211 0
-195 2288 196 0
-195 -2288 207 208 0
-195 -2288 -207 -208 0
195 2288 -196 0
195 -2288 207 -208 0
195 -2288 -207 208 0
-196 2287 197 0
-196 -2287 203 204 0
-196 -2287 -203 -204 0
196 2287 -197 0
196 -2287 203 -204 0
196 -2287 -203 204 0
-197 2286 198 0
-197 -2286 199 200 0
-197 -2286 -199 -200 0
197 2286 -198 0
197 -2286 199 -200 0
197 -2286 -199 200 0
198 -2277 -2285 0
-198 2277 0
-198 2285 0
199 2276 -198 0
199 -2276 198 0
-199 -2276 -198 0
-199 2276 198 0
-200 101 201 0
-200 201 202 0
200 -201 0
200 -101 -202 0
-201 2285 0
-201 2275 0
-201 2274 2276 0
201 -2274 -2275 -2285 0
201 -2275 -2276 -2285 0
202 -100 -144 0
-202 100 0
-202 144 0
203 -2275 197 0
203 2275 -197 0
-203 2275 197 0
-203 -2275 -197 0
-204 104 205 0
-204 205 206 0
204 -205 0
204 -104 -206 0
-205 150 142 0
-205 2274 150 0
-205 2274 142 0
205 -2274 -150 0
205 -150 -142 0
205 -2274 -142 0
206 -103 -148 0
-206 103 0
-206 148 0
207 -2274 196 0
207 2274 -196 0
-207 2274 196 0
-207 -2274 -196 0
-208 96 209 0
-208 209 210 0
208 -209 0
208 -96 -210 0
-209 154 141 0
-209 2273 154 0
-209 2273 141 0
209 -2273 -154 0
209 -154 -141 0
209 -2273 -141 0
210 -107 -152 0
-210 107 0
-210 152 0
-211 212 213 0
211 -212 0
211 -213 0
212 -2272 -140 0
-212 2272 0
-212 140 0
213 -139 -214 0
-213 139 0
-213 214 0
214 -2272 140 0
214 2272 -140 0
-214 2272 140 0
-214 -2272 -140 0
215 -2272 194 0
215 2272 -194 0
-215 2272 194 0
-215 -2272 -194 0
216 -217 247 0
216 217 -247 0
-216 217 247 0
-216 -217 -247 0
217 -218 244 0
217 218 -244 0
-217 218 244 0
-217 -218 -244 0
218 198 -219 0
218 -198 219 0
-218 -198 -219 0
-218 198 219 0
219 220 -221 0
219 -220 221 0
-219 -220 -221 0
-219 220 221 0
220 -163 -164 0
-220 163 0
-220 164 0
221 222 -223 0
221 -222 223 0
-221 -222 -223 0
-221 222 223 0
222 -167 -178 0
-222 167 0
-222 178 0
223 224 -225 0
223 -224 225 0
-223 -224 -225 0
-223 224 225 0
224 -2271 -2290 -166 0
-224 2271 0
-224 2290 0
-224 166 0
225 226 -229 0
225 -226 229 0
-225 -226 -229 0
-225 226 229 0
226 227 -228 0
226 -227 228 0
-226 -227 -228 0
-226 227 228 0
227 -2271 -2291 0
-227 2271 0
-227 2291 0
228 -2272 -2290 0
-228 2272 0
-228 2290 0
229 -230 241 0
229 230 -241 0
-229 230 241 0
-229 -230 -241 0
230 231 -240 0
230 -231 240 0
-230 -231 -240 0
-230 231 240 0
231 -232 237 0
231 232 -237 0
-231 232 237 0
-231 -232 -237 0
232 233 -236 0
232 -233 236 0
-232 -233 -236 0
-232 233 236 0
233 234 -235 0
233 -234 235 0
-233 -234 -235 0
-233 234 235 0
234 -2273 -2289 0
-234 2273 0
-234 2289 0
235 -2274 -2288 0
-235 2274 0
-235 2288 0
236 -2275 -2287 0
-236 2275 0
-236 2287 0
-237 238 239 0
237 -238 0
237 -239 0
238 -2272 -2273 -2288 -2289 0
-238 2289 0
-238 2272 0
-238 2288 0
-238 2273 0
239 -2274 -2287 -170 0
-239 2274 0
-239 2287 0
-239 170 0
240 -2276 -2286 0
-240 2276 0
-240 2286 0
-241 242 243 0
241 -242 0
241 -243 0
242 -169 -174 0
-242 169 0
-242 174 0
243 -2275 -2286 -168 0
-243 2275 0
-243 2286 0
-243 168 0
-244 245 246 0
244 -245 0
244 -246 0
245 -161 -162 0
-245 161 0
-245 162 0
246 -143 -160 0
-246 143 0
-246 160 0
-247 125 248 0
-247 248 250 0
247 -248 0
247 -125 -250 0
-248 249 157 0
-248 182 249 0
248 -249 0
248 -182 -157 0
249 -158 -159 0
-249 158 0
-249 159 0
250 -109 -157 0
-250 109 0
-250 157 0
-251 -252 -288 328 518 0
-251 252 288 328 518 0
251 -518 0
251 -252 288 0
251 -328 0
251 252 -288 0
-252 253 0
252 -253 0
-253 254 0
253 -254 0
-254 255 0
254 -255 0
-255 256 0
255 -256 0
-256 257 0
256 -257 0
-257 258 0
257 -258 0
-258 2271 259 0
-258 -2271 -2292 -259 0
-258 2292 259 0
258 2271 -259 0
258 2292 -259 0
258 -2271 -2292 259 0
-259 2291 261 0
-259 2272 260 261 0
-259 -2272 -260 261 0
-259 2272 -2291 -260 -261 0
-259 -2272 -2291 260 -261 0
259 2291 -261 0
259 -2272 -260 -261 0
259 2272 260 -261 0
259 2272 -2291 -260 261 0
259 -2272 -2291 260 261 0
260 -2271 -192 0
-260 2271 0
-260 192 0
-261 2290 262 0
-261 -2290 284 285 0
-261 -2290 -284 -285 0
261 2290 -262 0
261 -2290 284 -285 0
261 -2290 -284 285 0
-262 2289 263 0
-262 -2289 279 280 0
-262 -2289 -279 -280 0
262 2289 -263 0
262 -2289 279 -280 0
262 -2289 -279 280 0
-263 2288 264 0
-263 -2288 275 276 0
-263 -2288 -275 -276 0
263 2288 -264 0
263 -2288 275 -276 0
263 -2288 -275 276 0
-264 2287 265 0
-264 -2287 271 272 0
-264 -2287 -271 -272 0
264 2287 -265 0
264 -2287 271 -272 0
264 -2287 -271 272 0
-265 2286 266 0
-265 -2286 267 268 0
-265 -2286 -267 -268 0
265 2286 -266 0
265 -2286 267 -268 0
265 -2286 -267 268 0
266 -2278 -2285 0
-266 2278 0
-266 2285 0
267 2277 -266 0
267 -2277 266 0
-267 -2277 -266 0
-267 2277 266 0
-268 269 270 0
268 -269 0
268 -270 0
269 -2276 -198 0
-269 2276 0
-269 198 0
270 -199 -200 0
-270 199 0
-270 200 0
271 -2276 265 0
271 2276 -265 0
-271 2276 265 0
-271 -2276 -265 0
-272 273 274 0
272 -273 0
272 -274 0
273 -2275 -197 0
-273 2275 0
-273 197 0
274 -203 -204 0
-274 203 0
-274 204 0
275 -2275 264 0
275 2275 -264 0
-275 2275 264 0
-275 -2275 -264 0
-276 277 278 0
276 -277 0
276 -278 0
277 -2274 -196 0
-277 2274 0
-277 196 0
278 -207 -208 0
-278 207 0
-278 208 0
279 -2274 263 0
279 2274 -263 0
-279 2274 263 0
-279 -2274 -263 0
-280 281 282 0
280 -281 0
280 -282 0
281 -2273 -195 0
-281 2273 0
-281 195 0
282 -283 -211 0
-282 283 0
-282 211 0
283 -2273 195 0
283 2273 -195 0
-283 2273 195 0
-283 -2273 -195 0
284 -2273 262 0
284 2273 -262 0
-284 2273 262 0
-284 -2273 -262 0
-285 286 287 0
285 -286 0
285 -287 0
286 -2272 -194 0
-286 2272 0
-286 194 0
287 -193 -215 0
-287 193 0
-287 215 0
288 -289 325 0
288 289 -325 0
-288 289 325 0
-288 -289 -325 0
289 -290 322 0
289 290 -322 0
-289 290 322 0
-289 -290 -322 0
290 266 -291 0
290 -266 291 0
-290 -266 -291 0
-290 266 291 0
291 -292 319 0
291 292 -319 0
-291 292 319 0
-291 -292 -319 0
292 293 -294 0
292 -293 294 0
-292 -293 -294 0
-292 293 294 0
293 -230 -241 0
-293 230 0
-293 241 0
294 295 -296 0
294 -295 296 0
-294 -295 -296 0
-294 295 296 0
295 -226 -229 0
-295 226 0
-295 229 0
296 297 -304 0
296 -297 304 0
-296 -297 -304 0
-296 297 304 0
297 298 -299 0
297 -298 299 0
-297 -298 -299 0
-297 298 299 0
298 -2271 -2272 -2290 -2291 0
-298 2291 0
-298 2271 0
-298 2290 0
-298 2272 0
299 300 -303 0
299 -300 303 0
-299 -300 -303 0
-299 300 303 0
300 301 -302 0
300 -301 302 0
-300 -301 -302 0
-300 301 302 0
301 -2271 -2292 0
-301 2271 0
-301 2292 0
302 -2272 -2291 0
-302 2272 0
-302 2291 0
303 -2273 -2290 0
-303 2273 0
-303 2290 0
304 -305 316 0
304 305 -316 0
-304 305 316 0
-304 -305 -316 0
305 306 -315 0
305 -306 315 0
-305 -306 -315 0
-305 306 315 0
306 -307 312 0
306 307 -312 0
-306 307 312 0
-306 -307 -312 0
307 308 -311 0
307 -308 311 0
-307 -308 -311 0
-307 308 311 0
308 309 -310 0
308 -309 310 0
-308 -309 -310 0
-308 309 310 0
309 -2274 -2289 0
-309 2274 0
-309 2289 0
310 -2275 -2288 0
-310 2275 0
-310 2288 0
311 -2276 -2287 0
-311 2276 0
-311 2287 0
-312 313 314 0
312 -313 0
312 -314 0
313 -2273 -2274 -2288 -2289 0
-313 2289 0
-313 2273 0
-313 2288 0
-313 2274 0
314 -2275 -2287 -233 0
-314 2275 0
-314 2287 0
-314 233 0
315 -2277 -2286 0
-315 2277 0
-315 2286 0
-316 317 318 0
316 -317 0
316 -318 0
317 -232 -237 0
-317 232 0
-317 237 0
318 -2276 -2286 -231 0
-318 2276 0
-318 2286 0
-318 231 0
-319 320 321 0
319 -320 0
319 -321 0
320 -224 -225 0
-320 224 0
-320 225 0
321 -222 -223 0
-321 222 0
-321 223 0
-322 323 324 0
322 -323 0
322 -324 0
323 -220 -221 0
-323 220 0
-323 221 0
324 -198 -219 0
-324 198 0
-324 219 0
-325 326 327 0
325 -326 0
325 -327 0
326 -218 -244 0
-326 218 0
-326 244 0
327 -217 -247 0
-327 217 0
-327 247 0
-328 329 372 420 466 0
-328 -329 -372 -420 -466 0
-328 329 372 -420 -466 0
-328 -329 -372 420 466 0
328 329 -372 0
328 -329 372 0
328 -420 466 0
328 420 -466 0
-329 330 0
329 -330 0
-330 331 0
330 -331 0
-331 332 0
331 -332 0
-332 333 0
332 -333 0
-333 334 0
333 -334 0
-334 2271 335 0
-334 -2271 -2293 -335 0
-334 2293 335 0
334 2271 -335 0
334 2293 -335 0
334 -2271 -2293 335 0
-335 2292 337 0
-335 -2292 -336 -371 0
-335 -2292 336 371 0
335 2292 -337 0
335 -2292 -336 371 0
335 -2292 336 -371 0
336 -2271 -259 0
-336 2271 0
-336 259 0
-337 2291 338 0
-337 -2273 338 -367 0
-337 2273 338 367 0
-337 -2273 -2291 -338 367 0
-337 2273 -2291 -338 -367 0
337 2291 -338 0
337 2273 -2291 338 -367 0
337 2273 -338 367 0
337 -2273 -338 -367 0
337 -2273 -2291 338 367 0
-338 2290 339 0
-338 -2274 339 -364 0
-338 2274 339 364 0
-338 -2274 -2290 -339 364 0
-338 2274 -2290 -339 -364 0
338 2290 -339 0
338 2274 -2290 339 -364 0
338 2274 -339 364 0
338 -2274 -339 -364 0
338 -2274 -2290 339 364 0
-339 2289 340 0
-339 -2275 340 -361 0
-339 2275 340 361 0
-339 -2275 -2289 -340 361 0
-339 2275 -2289 -340 -361 0
339 2289 -340 0
339 2275 -2289 340 -361 0
339 2275 -340 361 0
339 -2275 -340 -361 0
339 -2275 -2289 340 361 0
-340 2288 341 0
-340 -2288 355 356 0
-340 -2288 -355 -356 0
340 2288 -341 0
340 -2288 355 -356 0
340 -2288 -355 356 0
-341 2287 342 0
-341 -2287 349 350 0
-341 -2287 -349 -350 0
341 2287 -342 0
341 -2287 349 -350 0
341 -2287 -349 350 0
-342 2286 343 0
-342 -2286 344 345 0
-342 -2286 -344 -345 0
342 2286 -343 0
342 -2286 344 -345 0
342 -2286 -344 345 0
343 -2279 -2285 0
-343 2279 0
-343 2285 0
344 2278 -343 0
344 -2278 343 0
-344 -2278 -343 0
-344 2278 343 0
-345 202 347 0
-345 346 347 0
-345 101 347 0
345 -347 0
345 -101 -202 -346 0
346 -199 -267 0
-346 199 0
-346 267 0
-347 201 348 0
-347 348 346 0
347 -348 0
347 -201 -346 0
-348 2285 0
-348 2277 0
-348 2276 2278 0
348 -2276 -2277 -2285 0
348 -2277 -2278 -2285 0
349 -2277 342 0
349 2277 -342 0
-349 2277 342 0
-349 -2277 -342 0
-350 206 352 0
-350 351 352 0
-350 104 352 0
350 -352 0
350 -104 -206 -351 0
351 -203 -271 0
-351 203 0
-351 271 0
-352 273 353 354 0
-352 353 271 354 0
352 -354 0
352 -353 0
352 -273 -271 0
353 -2276 -265 0
-353 2276 0
-353 265 0
354 -205 -351 0
-354 205 0
-354 351 0
355 -2276 341 0
355 2276 -341 0
-355 2276 341 0
-355 -2276 -341 0
-356 210 358 0
-356 96 358 0
-356 357 358 0
356 -358 0
356 -96 -210 -357 0
357 -207 -275 0
-357 207 0
-357 275 0
-358 277 359 360 0
-358 359 275 360 0
358 -360 0
358 -359 0
358 -277 -275 0
359 -2275 -264 0
-359 2275 0
-359 264 0
360 -209 -357 0
-360 209 0
-360 357 0
-361 283 362 0
-361 211 362 0
-361 279 362 0
361 -362 0
361 -283 -211 -279 0
-362 363 279 0
-362 281 363 0
362 -363 0
362 -281 -279 0
363 -2274 -263 0
-363 2274 0
-363 263 0
-364 215 365 0
-364 193 365 0
-364 284 365 0
364 -365 0
364 -193 -215 -284 0
-365 366 284 0
-365 286 366 0
365 -366 0
365 -286 -284 0
366 -2273 -262 0
-366 2273 0
-366 262 0
-367 368 369 0
367 -368 0
367 -369 0
368 -2272 -261 0
-368 2272 0
-368 261 0
369 -260 -370 0
-369 260 0
-369 370 0
370 -2272 261 0
370 2272 -261 0
-370 2272 261 0
-370 -2272 -261 0
371 -2272 337 0
371 2272 -337 0
-371 2272 337 0
-371 -2272 -337 0
372 -373 415 0
372 373 -415 0
-372 373 415 0
-372 -373 -415 0
373 -374 412 0
373 374 -412 0
-373 374 412 0
-373 -374 -412 0
374 343 -375 0
374 -343 375 0
-374 -343 -375 0
-374 343 375 0
375 -376 409 0
375 376 -409 0
-375 376 409 0
-375 -376 -409 0
376 377 -378 0
376 -377 378 0
-376 -377 -378 0
-376 377 378 0
377 -305 -316 0
-377 305 0
-377 316 0
378 379 -380 0
378 -379 380 0
-378 -379 -380 0
-378 379 380 0
379 -297 -304 0
-379 297 0
-379 304 0
380 381 -392 0
380 -381 392 0
-380 -381 -392 0
-380 381 392 0
381 382 -383 0
381 -382 383 0
-381 -382 -383 0
-381 382 383 0
382 -2271 -2293 0
-382 2271 0
-382 2293 0
383 -384 389 0
383 384 -389 0
-383 384 389 0
-383 -384 -389 0
384 385 -388 0
384 -385 388 0
-384 -385 -388 0
-384 385 388 0
385 386 -387 0
385 -386 387 0
-385 -386 -387 0
-385 386 387 0
386 -2272 -2292 0
-386 2272 0
-386 2292 0
387 -2273 -2291 0
-387 2273 0
-387 2291 0
388 -2274 -2290 0
-388 2274 0
-388 2290 0
-389 390 391 0
389 -390 0
389 -391 0
390 -2271 -2272 -2291 -2292 0
-390 2292 0
-390 2271 0
-390 2291 0
-390 2272 0
391 -2273 -2290 -300 0
-391 2273 0
-391 2290 0
-391 300 0
392 -393 406 0
392 393 -406 0
-392 393 406 0
-392 -393 -406 0
393 394 -395 0
393 -394 395 0
-393 -394 -395 0
-393 394 395 0
394 -298 -299 0
-394 298 0
-394 299 0
395 396 -405 0
395 -396 405 0
-395 -396 -405 0
-395 396 405 0
396 -397 402 0
396 397 -402 0
-396 397 402 0
-396 -397 -402 0
397 398 -401 0
397 -398 401 0
-397 -398 -401 0
-397 398 401 0
398 399 -400 0
398 -399 400 0
-398 -399 -400 0
-398 399 400 0
399 -2275 -2289 0
-399 2275 0
-399 2289 0
400 -2276 -2288 0
-400 2276 0
-400 2288 0
401 -2277 -2287 0
-401 2277 0
-401 2287 0
-402 403 404 0
402 -403 0
402 -404 0
403 -2274 -2275 -2288 -2289 0
-403 2289 0
-403 2274 0
-403 2288 0
-403 2275 0
404 -2276 -2287 -308 0
-404 2276 0
-404 2287 0
-404 308 0
405 -2278 -2286 0
-405 2278 0
-405 2286 0
-406 407 408 0
406 -407 0
406 -408 0
407 -307 -312 0
-407 307 0
-407 312 0
408 -2277 -2286 -306 0
-408 2277 0
-408 2286 0
-408 306 0
-409 410 411 0
409 -410 0
409 -411 0
410 -295 -296 0
-410 295 0
-410 296 0
411 -293 -294 0
-411 293 0
-411 294 0
-412 413 414 0
412 -413 0
412 -414 0
413 -292 -319 0
-413 292 0
-413 319 0
414 -266 -291 0
-414 266 0
-414 291 0
-415 250 417 0
-415 416 417 0
-415 125 417 0
415 -417 0
415 -125 -250 -416 0
416 -217 -289 0
-416 217 0
-416 289 0
-417 326 418 419 0
-417 418 289 419 0
417 -419 0
417 -418 0
417 -326 -289 0
418 -290 -322 0
-418 290 0
-418 322 0
419 -248 -416 0
-419 248 0
-419 416 0
-420 421 0
420 -421 0
-421 422 0
421 -422 0
-422 423 0
422 -423 0
-423 424 0
423 -424 0
-424 2271 425 0
-424 -2271 -2294 -425 0
-424 2294 425 0
424 2271 -425 0
424 2294 -425 0
424 -2271 -2294 425 0
-425 2293 427 0
-425 2272 426 427 0
-425 -2272 -426 427 0
-425 2272 -2293 -426 -427 0
-425 -2272 -2293 426 -427 0
425 2293 -427 0
425 -2272 -426 -427 0
425 2272 426 -427 0
425 2272 -2293 -426 427 0
425 -2272 -2293 426 427 0
426 -2271 -335 0
-426 2271 0
-426 335 0
-427 2292 428 0
-427 -2292 462 463 0
-427 -2292 -462 -463 0
427 2292 -428 0
427 -2292 462 -463 0
427 -2292 -462 463 0
-428 2291 429 0
-428 -2291 457 458 0
-428 -2291 -457 -458 0
428 2291 -429 0
428 -2291 457 -458 0
428 -2291 -457 458 0
-429 2290 430 0
-429 -2290 452 453 0
-429 -2290 -452 -453 0
429 2290 -430 0
429 -2290 452 -453 0
429 -2290 -452 453 0
-430 2289 431 0
-430 -2289 447 448 0
-430 -2289 -447 -448 0
430 2289 -431 0
430 -2289 447 -448 0
430 -2289 -447 448 0
-431 2288 432 0
-431 -2288 443 444 0
-431 -2288 -443 -444 0
431 2288 -432 0
431 -2288 443 -444 0
431 -2288 -443 444 0
-432 2287 433 0
-432 -2287 439 440 0
-432 -2287 -439 -440 0
432 2287 -433 0
432 -2287 439 -440 0
432 -2287 -439 440 0
-433 2286 434 0
-433 -2286 435 436 0
-433 -2286 -435 -436 0
433 2286 -434 0
433 -2286 435 -436 0
433 -2286 -435 436 0
434 -2280 -2285 0
-434 2280 0
-434 2285 0
435 2279 -434 0
435 -2279 434 0
-435 -2279 -434 0
-435 2279 434 0
-436 437 438 0
436 -437 0
436 -438 0
437 -2278 -343 0
-437 2278 0
-437 343 0
438 -344 -345 0
-438 344 0
-438 345 0
439 -2278 433 0
439 2278 -433 0
-439 2278 433 0
-439 -2278 -433 0
-440 441 442 0
440 -441 0
440 -442 0
441 -2277 -342 0
-441 2277 0
-441 342 0
442 -349 -350 0
-442 349 0
-442 350 0
443 -2277 432 0
443 2277 -432 0
-443 2277 432 0
-443 -2277 -432 0
-444 445 446 0
444 -445 0
444 -446 0
445 -2276 -341 0
-445 2276 0
-445 341 0
446 -355 -356 0
-446 355 0
-446 356 0
447 -2276 431 0
447 2276 -431 0
-447 2276 431 0
-447 -2276 -431 0
-448 449 450 0
448 -449 0
448 -450 0
449 -2275 -340 0
-449 2275 0
-449 340 0
450 -451 -361 0
-450 451 0
-450 361 0
451 -2275 340 0
451 2275 -340 0
-451 2275 340 0
-451 -2275 -340 0
452 -2275 430 0
452 2275 -430 0
-452 2275 430 0
-452 -2275 -430 0
-453 454 455 0
453 -454 0
453 -455 0
454 -2274 -339 0
-454 2274 0
-454 339 0
455 -456 -364 0
-455 456 0
-455 364 0
456 -2274 339 0
456 2274 -339 0
-456 2274 339 0
-456 -2274 -339 0
457 -2274 429 0
457 2274 -429 0
-457 2274 429 0
-457 -2274 -429 0
-458 459 460 0
458 -459 0
458 -460 0
459 -2273 -338 0
-459 2273 0
-459 338 0
460 -461 -367 0
-460 461 0
-460 367 0
461 -2273 338 0
461 2273 -338 0
-461 2273 338 0
-461 -2273 -338 0
462 -2273 428 0
462 2273 -428 0
-462 2273 428 0
-462 -2273 -428 0
-463 464 465 0
463 -464 0
463 -465 0
464 -2272 -337 0
-464 2272 0
-464 337 0
465 -336 -371 0
-465 336 0
-465 371 0
466 -467 515 0
466 467 -515 0
-466 467 515 0
-466 -467 -515 0
467 -468 512 0
467 468 -512 0
-467 468 512 0
-467 -468 -512 0
468 434 -469 0
468 -434 469 0
-468 -434 -469 0
-468 434 469 0
469 -470 509 0
469 470 -509 0
-469 470 509 0
-469 -470 -509 0
470 -471 506 0
470 471 -506 0
-470 471 506 0
-470 -471 -506 0
471 472 -473 0
471 -472 473 0
-471 -472 -473 0
-471 472 473 0
472 -381 -392 0
-472 381 0
-472 392 0
473 474 -489 0
473 -474 489 0
-473 -474 -489 0
-473 474 489 0
474 475 -476 0
474 -475 476 0
-474 -475 -476 0
-474 475 476 0
475 -2271 -2293 -383 0
-475 2271 0
-475 2293 0
-475 383 0
476 477 -480 0
476 -477 480 0
-476 -477 -480 0
-476 477 480 0
477 478 -479 0
477 -478 479 0
-477 -478 -479 0
-477 478 479 0
478 -2271 -2294 0
-478 2271 0
-478 2294 0
479 -2272 -2293 0
-479 2272 0
-479 2293 0
480 -481 486 0
480 481 -486 0
-480 481 486 0
-480 -481 -486 0
481 482 -485 0
481 -482 485 0
-481 -482 -485 0
-481 482 485 0
482 483 -484 0
482 -483 484 0
-482 -483 -484 0
-482 483 484 0
483 -2273 -2292 0
-483 2273 0
-483 2292 0
484 -2274 -2291 0
-484 2274 0
-484 2291 0
485 -2275 -2290 0
-485 2275 0
-485 2290 0
-486 487 488 0
486 -487 0
486 -488 0
487 -2272 -2273 -2291 -2292 0
-487 2292 0
-487 2272 0
-487 2291 0
-487 2273 0
488 -2274 -2290 -385 0
-488 2274 0
-488 2290 0
-488 385 0
489 -490 503 0
489 490 -503 0
-489 490 503 0
-489 -490 -503 0
490 491 -492 0
490 -491 492 0
-490 -491 -492 0
-490 491 492 0
491 -384 -389 0
-491 384 0
-491 389 0
492 493 -502 0
492 -493 502 0
-492 -493 -502 0
-492 493 502 0
493 -494 499 0
493 494 -499 0
-493 494 499 0
-493 -494 -499 0
494 495 -498 0
494 -495 498 0
-494 -495 -498 0
-494 495 498 0
495 496 -497 0
495 -496 497 0
-495 -496 -497 0
-495 496 497 0
496 -2276 -2289 0
-496 2276 0
-496 2289 0
497 -2277 -2288 0
-497 2277 0
-497 2288 0
498 -2278 -2287 0
-498 2278 0
-498 2287 0
-499 500 501 0
499 -500 0
499 -501 0
500 -2275 -2276 -2288 -2289 0
-500 2289 0
-500 2275 0
-500 2288 0
-500 2276 0
501 -2277 -2287 -398 0
-501 2277 0
-501 2287 0
-501 398 0
502 -2279 -2286 0
-502 2279 0
-502 2286 0
-503 504 505 0
503 -504 0
503 -505 0
504 -397 -402 0
-504 397 0
-504 402 0
505 -2278 -2286 -396 0
-505 2278 0
-505 2286 0
-505 396 0
-506 507 508 0
506 -507 0
506 -508 0
507 -394 -395 0
-507 394 0
-507 395 0
508 -393 -406 0
-508 393 0
-508 406 0
-509 510 511 0
509 -510 0
509 -511 0
510 -379 -380 0
-510 379 0
-510 380 0
511 -377 -378 0
-511 377 0
-511 378 0
-512 513 514 0
512 -513 0
512 -514 0
513 -376 -409 0
-513 376 0
-513 409 0
514 -343 -375 0
-514 343 0
-514 375 0
-515 516 517 0
515 -516 0
515 -517 0
516 -374 -412 0
-516 374 0
-516 412 0
517 -373 -415 0
-517 373 0
-517 415 0
-518 519 -748 -816 887 0
-518 519 748 816 887 0
518 -887 0
518 748 -816 0
518 -519 0
518 -748 816 0
-519 520 567 626 684 0
-519 -520 -567 -626 -684 0
-519 520 567 -626 -684 0
-519 -520 -567 626 684 0
519 520 -567 0
519 -520 567 0
519 -626 684 0
519 626 -684 0
-520 521 0
520 -521 0
-521 522 0
521 -522 0
-522 523 0
522 -523 0
-523 2271 524 0
-523 -2271 -2295 -524 0
-523 2295 524 0
523 2271 -524 0
523 2295 -524 0
523 -2271 -2295 524 0
-524 2294 526 0
-524 2272 525 526 0
-524 -2272 -525 526 0
-524 2272 -2294 -525 -526 0
-524 -2272 -2294 525 -526 0
524 2294 -526 0
524 -2272 -525 -526 0
524 2272 525 -526 0
524 2272 -2294 -525 526 0
524 -2272 -2294 525 526 0
525 -2271 -425 0
-525 2271 0
-525 425 0
-526 2293 527 0
-526 -2273 527 -563 0
-526 2273 527 563 0
-526 -2273 -2293 -527 563 0
-526 2273 -2293 -527 -563 0
526 2293 -527 0
526 2273 -2293 527 -563 0
526 2273 -527 563 0
526 -2273 -527 -563 0
526 -2273 -2293 527 563 0
-527 2292 528 0
-527 -2274 528 -560 0
-527 2274 528 560 0
-527 -2274 -2292 -528 560 0
-527 2274 -2292 -528 -560 0
527 2292 -528 0
527 2274 -2292 528 -560 0
527 2274 -528 560 0
527 -2274 -528 -560 0
527 -2274 -2292 528 560 0
-528 2291 529 0
-528 -2275 529 -556 0
-528 2275 529 556 0
-528 -2275 -2291 -529 556 0
-528 2275 -2291 -529 -556 0
528 2291 -529 0
528 2275 -2291 529 -556 0
528 2275 -529 556 0
528 -2275 -529 -556 0
528 -2275 -2291 529 556 0
-529 2290 530 0
-529 -2276 530 -552 0
-529 2276 530 552 0
-529 -2276 -2290 -530 552 0
-529 2276 -2290 -530 -552 0
529 2290 -530 0
529 2276 -2290 530 -552 0
529 2276 -530 552 0
529 -2276 -530 -552 0
529 -2276 -2290 530 552 0
-530 2289 531 0
-530 -2277 531 -548 0
-530 2277 531 548 0
-530 -2277 -2289 -531 548 0
-530 2277 -2289 -531 -548 0
530 2289 -531 0
530 2277 -2289 531 -548 0
530 2277 -531 548 0
530 -2277 -531 -548 0
530 -2277 -2289 531 548 0
-531 2288 532 0
-531 -2278 532 -544 0
-531 2278 532 544 0
-531 -2278 -2288 -532 544 0
-531 2278 -2288 -532 -544 0
531 2288 -532 0
531 2278 -2288 532 -544 0
531 2278 -532 544 0
531 -2278 -532 -544 0
531 -2278 -2288 532 544 0
-532 2287 533 0
-532 -2287 539 540 0
-532 -2287 -539 -540 0
532 2287 -533 0
532 -2287 539 -540 0
532 -2287 -539 540 0
-533 2286 534 0
-533 -2286 535 536 0
-533 -2286 -535 -536 0
533 2286 -534 0
533 -2286 535 -536 0
533 -2286 -535 536 0
534 -2281 -2285 0
-534 2281 0
-534 2285 0
535 2280 -534 0
535 -2280 534 0
-535 -2280 -534 0
-535 2280 534 0
-536 345 537 0
-536 537 538 0
536 -537 0
536 -345 -538 0
-537 2285 0
-537 2279 0
-537 2278 2280 0
537 -2278 -2279 -2285 0
537 -2279 -2280 -2285 0
538 -344 -435 0
-538 344 0
-538 435 0
539 -2279 533 0
539 2279 -533 0
-539 2279 533 0
-539 -2279 -533 0
-540 350 541 0
-540 541 543 0
540 -541 0
540 -350 -543 0
-541 542 439 0
-541 441 542 0
541 -542 0
541 -441 -439 0
542 -2278 -433 0
-542 2278 0
-542 433 0
543 -349 -439 0
-543 349 0
-543 439 0
-544 356 545 0
-544 545 547 0
544 -545 0
544 -356 -547 0
-545 546 443 0
-545 445 546 0
545 -546 0
545 -445 -443 0
546 -2277 -432 0
-546 2277 0
-546 432 0
547 -355 -443 0
-547 355 0
-547 443 0
-548 361 549 0
-548 549 551 0
548 -549 0
548 -361 -551 0
-549 550 447 0
-549 449 550 0
549 -550 0
549 -449 -447 0
550 -2276 -431 0
-550 2276 0
-550 431 0
551 -451 -447 0
-551 451 0
-551 447 0
-552 364 553 0
-552 553 555 0
552 -553 0
552 -364 -555 0
-553 554 452 0
-553 454 554 0
553 -554 0
553 -454 -452 0
554 -2275 -430 0
-554 2275 0
-554 430 0
555 -456 -452 0
-555 456 0
-555 452 0
-556 367 557 0
-556 557 559 0
556 -557 0
556 -367 -559 0
-557 558 457 0
-557 459 558 0
557 -558 0
557 -459 -457 0
558 -2274 -429 0
-558 2274 0
-558 429 0
559 -461 -457 0
-559 461 0
-559 457 0
-560 336 561 0
-560 561 562 0
560 -561 0
560 -336 -562 0
-561 464 428 0
-561 2273 464 0
-561 2273 428 0
561 -2273 -464 0
561 -464 -428 0
561 -2273 -428 0
562 -371 -462 0
-562 371 0
-562 462 0
-563 564 565 0
563 -564 0
563 -565 0
564 -2272 -427 0
-564 2272 0
-564 427 0
565 -426 -566 0
-565 426 0
-565 566 0
566 -2272 427 0
566 2272 -427 0
-566 2272 427 0
-566 -2272 -427 0
567 -568 622 0
567 568 -622 0
-567 568 622 0
-567 -568 -622 0
568 -569 619 0
568 569 -619 0
-568 569 619 0
-568 -569 -619 0
569 534 -570 0
569 -534 570 0
-569 -534 -570 0
-569 534 570 0
570 -571 616 0
570 571 -616 0
-570 571 616 0
-570 -571 -616 0
571 -572 613 0
571 572 -613 0
-571 572 613 0
-571 -572 -613 0
572 -573 610 0
572 573 -610 0
-572 573 610 0
-572 -573 -610 0
573 574 -593 0
573 -574 593 0
-573 -574 -593 0
-573 574 593 0
574 575 -576 0
574 -575 576 0
-574 -575 -576 0
-574 575 576 0
575 -477 -480 0
-575 477 0
-575 480 0
576 577 -582 0
576 -577 582 0
-576 -577 -582 0
-576 577 582 0
577 578 -581 0
577 -578 581 0
-577 -578 -581 0
-577 578 581 0
578 579 -580 0
578 -579 580 0
-578 -579 -580 0
-578 579 580 0
579 -2271 -2295 0
-579 2271 0
-579 2295 0
580 -2272 -2294 0
-580 2272 0
-580 2294 0
581 -2273 -2293 0
-581 2273 0
-581 2293 0
582 -583 590 0
582 583 -590 0
-582 583 590 0
-582 -583 -590 0
583 584 -585 0
583 -584 585 0
-583 -584 -585 0
-583 584 585 0
584 -2271 -2272 -2293 -2294 0
-584 2294 0
-584 2271 0
-584 2293 0
-584 2272 0
585 586 -589 0
585 -586 589 0
-585 -586 -589 0
-585 586 589 0
586 587 -588 0
586 -587 588 0
-586 -587 -588 0
-586 587 588 0
587 -2274 -2292 0
-587 2274 0
-587 2292 0
588 -2275 -2291 0
-588 2275 0
-588 2291 0
589 -2276 -2290 0
-589 2276 0
-589 2290 0
-590 591 592 0
590 -591 0
590 -592 0
591 -2273 -2274 -2291 -2292 0
-591 2292 0
-591 2273 0
-591 2291 0
-591 2274 0
592 -2275 -2290 -482 0
-592 2275 0
-592 2290 0
-592 482 0
593 -594 607 0
593 594 -607 0
-593 594 607 0
-593 -594 -607 0
594 595 -596 0
594 -595 596 0
-594 -595 -596 0
-594 595 596 0
595 -481 -486 0
-595 481 0
-595 486 0
596 597 -606 0
596 -597 606 0
-596 -597 -606 0
-596 597 606 0
597 -598 603 0
597 598 -603 0
-597 598 603 0
-597 -598 -603 0
598 599 -602 0
598 -599 602 0
-598 -599 -602 0
-598 599 602 0
599 600 -601 0
599 -600 601 0
-599 -600 -601 0
-599 600 601 0
600 -2277 -2289 0
-600 2277 0
-600 2289 0
601 -2278 -2288 0
-601 2278 0
-601 2288 0
602 -2279 -2287 0
-602 2279 0
-602 2287 0
-603 604 605 0
603 -604 0
603 -605 0
604 -2276 -2277 -2288 -2289 0
-604 2289 0
-604 2276 0
-604 2288 0
-604 2277 0
605 -2278 -2287 -495 0
-605 2278 0
-605 2287 0
-605 495 0
606 -2280 -2286 0
-606 2280 0
-606 2286 0
-607 608 609 0
607 -608 0
607 -609 0
608 -494 -499 0
-608 494 0
-608 499 0
609 -2279 -2286 -493 0
-609 2279 0
-609 2286 0
-609 493 0
-610 611 612 0
610 -611 0
610 -612 0
611 -475 -476 0
-611 475 0
-611 476 0
612 -474 -489 0
-612 474 0
-612 489 0
-613 614 615 0
613 -614 0
613 -615 0
614 -491 -492 0
-614 491 0
-614 492 0
615 -490 -503 0
-615 490 0
-615 503 0
-616 617 618 0
616 -617 0
616 -618 0
617 -472 -473 0
-617 472 0
-617 473 0
618 -471 -506 0
-618 471 0
-618 506 0
-619 620 621 0
619 -620 0
619 -621 0
620 -470 -509 0
-620 470 0
-620 509 0
621 -434 -469 0
-621 434 0
-621 469 0
-622 415 623 0
-622 623 625 0
622 -623 0
622 -415 -625 0
-623 624 467 0
-623 516 624 0
623 -624 0
623 -516 -467 0
624 -468 -512 0
-624 468 0
-624 512 0
625 -373 -467 0
-625 373 0
-625 467 0
-626 627 0
626 -627 0
-627 628 0
627 -628 0
-628 2271 629 0
-628 -2271 -2296 -629 0
-628 2296 629 0
628 2271 -629 0
628 2296 -629 0
628 -2271 -2296 629 0
-629 2295 631 0
-629 2272 630 631 0
-629 -2272 -630 631 0
-629 2272 -2295 -630 -631 0
-629 -2272 -2295 630 -631 0
629 2295 -631 0
629 -2272 -630 -631 0
629 2272 630 -631 0
629 2272 -2295 -630 631 0
629 -2272 -2295 630 631 0
630 -2271 -524 0
-630 2271 0
-630 524 0
-631 2294 632 0
-631 -2294 679 680 0
-631 -2294 -679 -680 0
631 2294 -632 0
631 -2294 679 -680 0
631 -2294 -679 680 0
-632 2293 633 0
-632 -2293 674 675 0
-632 -2293 -674 -675 0
632 2293 -633 0
632 -2293 674 -675 0
632 -2293 -674 675 0
-633 2292 634 0
-633 -2292 669 670 0
-633 -2292 -669 -670 0
633 2292 -634 0
633 -2292 669 -670 0
633 -2292 -669 670 0
-634 2291 635 0
-634 -2291 664 665 0
-634 -2291 -664 -665 0
634 2291 -635 0
634 -2291 664 -665 0
634 -2291 -664 665 0
-635 2290 636 0
-635 -2290 659 660 0
-635 -2290 -659 -660 0
635 2290 -636 0
635 -2290 659 -660 0
635 -2290 -659 660 0
-636 2289 637 0
-636 -2289 654 655 0
-636 -2289 -654 -655 0
636 2289 -637 0
636 -2289 654 -655 0
636 -2289 -654 655 0
-637 2288 638 0
-637 -2288 649 650 0
-637 -2288 -649 -650 0
637 2288 -638 0
637 -2288 649 -650 0
637 -2288 -649 650 0
-638 2287 639 0
-638 -2287 645 646 0
-638 -2287 -645 -646 0
638 2287 -639 0
638 -2287 645 -646 0
638 -2287 -645 646 0
-639 2286 640 0
-639 -2286 641 642 0
-639 -2286 -641 -642 0
639 2286 -640 0
639 -2286 641 -642 0
639 -2286 -641 642 0
640 -2282 -2285 0
-640 2282 0
-640 2285 0
641 2281 -640 0
641 -2281 640 0
-641 -2281 -640 0
-641 2281 640 0
-642 643 644 0
642 -643 0
642 -644 0
643 -2280 -534 0
-643 2280 0
-643 534 0
644 -535 -536 0
-644 535 0
-644 536 0
645 -2280 639 0
645 2280 -639 0
-645 2280 639 0
-645 -2280 -639 0
-646 647 648 0
646 -647 0
646 -648 0
647 -2279 -533 0
-647 2279 0
-647 533 0
648 -539 -540 0
-648 539 0
-648 540 0
649 -2279 638 0
649 2279 -638 0
-649 2279 638 0
-649 -2279 -638 0
-650 651 652 0
650 -651 0
650 -652 0
651 -2278 -532 0
-651 2278 0
-651 532 0
652 -653 -544 0
-652 653 0
-652 544 0
653 -2278 532 0
653 2278 -532 0
-653 2278 532 0
-653 -2278 -532 0
654 -2278 637 0
654 2278 -637 0
-654 2278 637 0
-654 -2278 -637 0
-655 656 657 0
655 -656 0
655 -657 0
656 -2277 -531 0
-656 2277 0
-656 531 0
657 -658 -548 0
-657 658 0
-657 548 0
658 -2277 531 0
658 2277 -531 0
-658 2277 531 0
-658 -2277 -531 0
659 -2277 636 0
659 2277 -636 0
-659 2277 636 0
-659 -2277 -636 0
-660 661 662 0
660 -661 0
660 -662 0
661 -2276 -530 0
-661 2276 0
-661 530 0
662 -663 -552 0
-662 663 0
-662 552 0
663 -2276 530 0
663 2276 -530 0
-663 2276 530 0
-663 -2276 -530 0
664 -2276 635 0
664 2276 -635 0
-664 2276 635 0
-664 -2276 -635 0
-665 666 667 0
665 -666 0
665 -667 0
666 -2275 -529 0
-666 2275 0
-666 529 0
667 -668 -556 0
-667 668 0
-667 556 0
668 -2275 529 0
668 2275 -529 0
-668 2275 529 0
-668 -2275 -529 0
669 -2275 634 0
669 2275 -634 0
-669 2275 634 0
-669 -2275 -634 0
-670 671 672 0
670 -671 0
670 -672 0
671 -2274 -528 0
-671 2274 0
-671 528 0
672 -673 -560 0
-672 673 0
-672 560 0
673 -2274 528 0
673 2274 -528 0
-673 2274 528 0
-673 -2274 -528 0
674 -2274 633 0
674 2274 -633 0
-674 2274 633 0
-674 -2274 -633 0
-675 676 677 0
675 -676 0
675 -677 0
676 -2273 -527 0
-676 2273 0
-676 527 0
677 -678 -563 0
-677 678 0
-677 563 0
678 -2273 527 0
678 2273 -527 0
-678 2273 527 0
-678 -2273 -527 0
679 -2273 632 0
679 2273 -632 0
-679 2273 632 0
-679 -2273 -632 0
-680 681 682 0
680 -681 0
680 -682 0
681 -2272 -526 0
-681 2272 0
-681 526 0
682 -525 -683 0
-682 525 0
-682 683 0
683 -2272 526 0
683 2272 -526 0
-683 2272 526 0
-683 -2272 -526 0
684 -685 745 0
684 685 -745 0
-684 685 745 0
-684 -685 -745 0
685 -686 742 0
685 686 -742 0
-685 686 742 0
-685 -686 -742 0
686 640 -687 0
686 -640 687 0
-686 -640 -687 0
-686 640 687 0
687 -688 739 0
687 688 -739 0
-687 688 739 0
-687 -688 -739 0
688 -689 736 0
688 689 -736 0
-688 689 736 0
-688 -689 -736 0
689 -690 733 0
689 690 -733 0
-689 690 733 0
-689 -690 -733 0
690 691 -714 0
690 -691 714 0
-690 -691 -714 0
-690 691 714 0
691 692 -693 0
691 -692 693 0
-691 -692 -693 0
-691 692 693 0
692 -577 -582 0
-692 577 0
-692 582 0
693 694 -701 0
693 -694 701 0
-693 -694 -701 0
-693 694 701 0
694 695 -696 0
694 -695 696 0
-694 -695 -696 0
-694 695 696 0
695 -2271 -2296 0
-695 2271 0
-695 2296 0
696 697 -700 0
696 -697 700 0
-696 -697 -700 0
-696 697 700 0
697 698 -699 0
697 -698 699 0
-697 -698 -699 0
-697 698 699 0
698 -2272 -2295 0
-698 2272 0
-698 2295 0
699 -2273 -2294 0
-699 2273 0
-699 2294 0
700 -2274 -2293 0
-700 2274 0
-700 2293 0
701 -702 711 0
701 702 -711 0
-701 702 711 0
-701 -702 -711 0
702 703 -706 0
702 -703 706 0
-702 -703 -706 0
-702 703 706 0
-703 704 705 0
703 -704 0
703 -705 0
704 -2271 -2272 -2294 -2295 0
-704 2295 0
-704 2271 0
-704 2294 0
-704 2272 0
705 -2273 -2293 -578 0
-705 2273 0
-705 2293 0
-705 578 0
706 707 -710 0
706 -707 710 0
-706 -707 -710 0
-706 707 710 0
707 708 -709 0
707 -708 709 0
-707 -708 -709 0
-707 708 709 0
708 -2275 -2292 0
-708 2275 0
-708 2292 0
709 -2276 -2291 0
-709 2276 0
-709 2291 0
710 -2277 -2290 0
-710 2277 0
-710 2290 0
-711 712 713 0
711 -712 0
711 -713 0
712 -2274 -2275 -2291 -2292 0
-712 2292 0
-712 2274 0
-712 2291 0
-712 2275 0
713 -2276 -2290 -586 0
-713 2276 0
-713 2290 0
-713 586 0
714 -715 730 0
714 715 -730 0
-714 715 730 0
-714 -715 -730 0
715 716 -719 0
715 -716 719 0
-715 -716 -719 0
-715 716 719 0
-716 717 718 0
716 -717 0
716 -718 0
717 -584 -585 0
-717 584 0
-717 585 0
718 -583 -590 0
-718 583 0
-718 590 0
719 720 -729 0
719 -720 729 0
-719 -720 -729 0
-719 720 729 0
720 -721 726 0
720 721 -726 0
-720 721 726 0
-720 -721 -726 0
721 722 -725 0
721 -722 725 0
-721 -722 -725 0
-721 722 725 0
722 723 -724 0
722 -723 724 0
-722 -723 -724 0
-722 723 724 0
723 -2278 -2289 0
-723 2278 0
-723 2289 0
724 -2279 -2288 0
-724 2279 0
-724 2288 0
725 -2280 -2287 0
-725 2280 0
-725 2287 0
-726 727 728 0
726 -727 0
726 -728 0
727 -2277 -2278 -2288 -2289 0
-727 2289 0
-727 2277 0
-727 2288 0
-727 2278 0
728 -2279 -2287 -599 0
-728 2279 0
-728 2287 0
-728 599 0
729 -2281 -2286 0
-729 2281 0
-729 2286 0
-730 731 732 0
730 -731 0
730 -732 0
731 -598 -603 0
-731 598 0
-731 603 0
732 -2280 -2286 -597 0
-732 2280 0
-732 2286 0
-732 597 0
-733 734 735 0
733 -734 0
733 -735 0
734 -575 -576 0
-734 575 0
-734 576 0
735 -574 -593 0
-735 574 0
-735 593 0
-736 737 738 0
736 -737 0
736 -738 0
737 -595 -596 0
-737 595 0
-737 596 0
738 -594 -607 0
-738 594 0
-738 607 0
-739 740 741 0
739 -740 0
739 -741 0
740 -573 -610 0
-740 573 0
-740 610 0
741 -572 -613 0
-741 572 0
-741 613 0
-742 743 744 0
742 -743 0
742 -744 0
743 -571 -616 0
-743 571 0
-743 616 0
744 -534 -570 0
-744 534 0
-744 570 0
-745 746 747 0
745 -746 0
745 -747 0
746 -569 -619 0
-746 569 0
-746 619 0
747 -568 -622 0
-747 568 0
-747 622 0
-748 749 0
748 -749 0
-749 2271 750 0
-749 -2271 -2297 -750 0
-749 2297 750 0
749 2271 -750 0
749 2297 -750 0
749 -2271 -2297 750 0
-750 2296 752 0
-750 -2296 -751 -815 0
-750 -2296 751 815 0
750 2296 -752 0
750 -2296 -751 815 0
750 -2296 751 -815 0
751 -2271 -629 0
-751 2271 0
-751 629 0
-752 2295 753 0
-752 -2273 753 -811 0
-752 2273 753 811 0
-752 -2273 -2295 -753 811 0
-752 2273 -2295 -753 -811 0
752 2295 -753 0
752 2273 -2295 753 -811 0
752 2273 -753 811 0
752 -2273 -753 -811 0
752 -2273 -2295 753 811 0
-753 2294 754 0
-753 -2274 754 -808 0
-753 2274 754 808 0
-753 -2274 -2294 -754 808 0
-753 2274 -2294 -754 -808 0
753 2294 -754 0
753 2274 -2294 754 -808 0
753 2274 -754 808 0
753 -2274 -754 -808 0
753 -2274 -2294 754 808 0
-754 2293 755 0
-754 -2275 755 -805 0
-754 2275 755 805 0
-754 -2275 -2293 -755 805 0
-754 2275 -2293 -755 -805 0
754 2293 -755 0
754 2275 -2293 755 -805 0
754 2275 -755 805 0
754 -2275 -755 -805 0
754 -2275 -2293 755 805 0
-755 2292 756 0
-755 -2276 756 -799 0
-755 2276 756 799 0
-755 -2276 -2292 -756 799 0
-755 2276 -2292 -756 -799 0
755 2292 -756 0
755 2276 -2292 756 -799 0
755 2276 -756 799 0
755 -2276 -756 -799 0
755 -2276 -2292 756 799 0
-756 2291 757 0
-756 -2277 757 -793 0
-756 2277 757 793 0
-756 -2277 -2291 -757 793 0
-756 2277 -2291 -757 -793 0
756 2291 -757 0
756 2277 -2291 757 -793 0
756 2277 -757 793 0
756 -2277 -757 -793 0
756 -2277 -2291 757 793 0
-757 2290 758 0
-757 -2278 758 -787 0
-757 2278 758 787 0
-757 -2278 -2290 -758 787 0
-757 2278 -2290 -758 -787 0
757 2290 -758 0
757 2278 -2290 758 -787 0
757 2278 -758 787 0
757 -2278 -758 -787 0
757 -2278 -2290 758 787 0
-758 2289 759 0
-758 -2279 759 -781 0
-758 2279 759 781 0
-758 -2279 -2289 -759 781 0
-758 2279 -2289 -759 -781 0
758 2289 -759 0
758 2279 -2289 759 -781 0
758 2279 -759 781 0
758 -2279 -759 -781 0
758 -2279 -2289 759 781 0
-759 2288 760 0
-759 -2280 760 -775 0
-759 2280 760 775 0
-759 -2280 -2288 -760 775 0
-759 2280 -2288 -760 -775 0
759 2288 -760 0
759 2280 -2288 760 -775 0
759 2280 -760 775 0
759 -2280 -760 -775 0
759 -2280 -2288 760 775 0
-760 2287 761 0
-760 -2287 768 769 0
-760 -2287 -768 -769 0
760 2287 -761 0
760 -2287 768 -769 0
760 -2287 -768 769 0
-761 2286 762 0
-761 -2286 763 764 0
-761 -2286 -763 -764 0
761 2286 -762 0
761 -2286 763 -764 0
761 -2286 -763 764 0
762 -2283 -2285 0
-762 2283 0
-762 2285 0
763 2282 -762 0
763 -2282 762 0
-763 -2282 -762 0
-763 2282 762 0
-764 538 766 0
-764 765 766 0
-764 345 766 0
764 -766 0
764 -345 -538 -765 0
765 -535 -641 0
-765 535 0
-765 641 0
-766 537 767 0
-766 767 765 0
766 -767 0
766 -537 -765 0
-767 2285 0
-767 2281 0
-767 2280 2282 0
767 -2280 -2281 -2285 0
767 -2281 -2282 -2285 0
768 -2281 761 0
768 2281 -761 0
-768 2281 761 0
-768 -2281 -761 0
-769 350 770 0
-769 770 774 0
769 -770 0
769 -350 -774 0
-770 647 771 772 0
-770 771 645 772 0
770 -772 0
770 -771 0
770 -647 -645 0
771 -2280 -639 0
-771 2280 0
-771 639 0
772 -541 -773 0
-772 541 0
-772 773 0
773 -539 -645 0
-773 539 0
-773 645 0
774 -543 -773 0
-774 543 0
-774 773 0
-775 356 776 0
-775 776 780 0
775 -776 0
775 -356 -780 0
-776 545 777 778 0
-776 777 778 779 0
776 -778 0
776 -777 0
776 -545 -779 0
777 -2279 -638 0
-777 2279 0
-777 638 0
778 -651 -649 0
-778 651 0
-778 649 0
779 -653 -649 0
-779 653 0
-779 649 0
780 -547 -779 0
-780 547 0
-780 779 0
-781 361 782 0
-781 782 786 0
781 -782 0
781 -361 -786 0
-782 656 783 784 0
-782 783 654 784 0
782 -784 0
782 -783 0
782 -656 -654 0
783 -2278 -637 0
-783 2278 0
-783 637 0
784 -549 -785 0
-784 549 0
-784 785 0
785 -658 -654 0
-785 658 0
-785 654 0
786 -551 -785 0
-786 551 0
-786 785 0
-787 364 788 0
-787 788 792 0
787 -788 0
787 -364 -792 0
-788 661 789 790 0
-788 789 659 790 0
788 -790 0
788 -789 0
788 -661 -659 0
789 -2277 -636 0
-789 2277 0
-789 636 0
790 -553 -791 0
-790 553 0
-790 791 0
791 -663 -659 0
-791 663 0
-791 659 0
792 -555 -791 0
-792 555 0
-792 791 0
-793 367 794 0
-793 794 798 0
793 -794 0
793 -367 -798 0
-794 666 795 796 0
-794 795 664 796 0
794 -796 0
794 -795 0
794 -666 -664 0
795 -2276 -635 0
-795 2276 0
-795 635 0
796 -557 -797 0
-796 557 0
-796 797 0
797 -668 -664 0
-797 668 0
-797 664 0
798 -559 -797 0
-798 559 0
-798 797 0
-799 336 800 0
-799 800 804 0
799 -800 0
799 -336 -804 0
-800 671 801 802 0
-800 801 669 802 0
800 -802 0
800 -801 0
800 -671 -669 0
801 -2275 -634 0
-801 2275 0
-801 634 0
802 -561 -803 0
-802 561 0
-802 803 0
803 -673 -669 0
-803 673 0
-803 669 0
804 -562 -803 0
-804 562 0
-804 803 0
-805 678 806 0
-805 563 806 0
-805 674 806 0
805 -806 0
805 -678 -563 -674 0
-806 807 674 0
-806 676 807 0
806 -807 0
806 -676 -674 0
807 -2274 -633 0
-807 2274 0
-807 633 0
-808 683 809 0
-808 525 809 0
-808 679 809 0
808 -809 0
808 -525 -683 -679 0
-809 810 679 0
-809 681 810 0
809 -810 0
809 -681 -679 0
810 -2273 -632 0
-810 2273 0
-810 632 0
-811 812 813 0
811 -812 0
811 -813 0
812 -2272 -631 0
-812 2272 0
-812 631 0
813 -630 -814 0
-813 630 0
-813 814 0
814 -2272 631 0
814 2272 -631 0
-814 2272 631 0
-814 -2272 -631 0
815 -2272 752 0
815 2272 -752 0
-815 2272 752 0
-815 -2272 -752 0
816 -817 881 0
816 817 -881 0
-816 817 881 0
-816 -817 -881 0
817 -818 878 0
817 818 -878 0
-817 818 878 0
-817 -818 -878 0
818 762 -819 0
818 -762 819 0
-818 -762 -819 0
-818 762 819 0
819 -820 875 0
819 820 -875 0
-819 820 875 0
-819 -820 -875 0
820 -821 872 0
820 821 -872 0
-820 821 872 0
-820 -821 -872 0
821 -822 869 0
821 822 -869 0
-821 822 869 0
-821 -822 -869 0
822 823 -850 0
822 -823 850 0
-822 -823 -850 0
-822 823 850 0
823 824 -825 0
823 -824 825 0
-823 -824 -825 0
-823 824 825 0
824 -694 -701 0
-824 694 0
-824 701 0
825 826 -837 0
825 -826 837 0
-825 -826 -837 0
-825 826 837 0
826 827 -828 0
826 -827 828 0
-826 -827 -828 0
-826 827 828 0
827 -2271 -2296 -696 0
-827 2271 0
-827 2296 0
-827 696 0
828 829 -832 0
828 -829 832 0
-828 -829 -832 0
-828 829 832 0
829 830 -831 0
829 -830 831 0
-829 -830 -831 0
-829 830 831 0
830 -2271 -2297 0
-830 2271 0
-830 2297 0
831 -2272 -2296 0
-831 2272 0
-831 2296 0
832 833 -836 0
832 -833 836 0
-832 -833 -836 0
-832 833 836 0
833 834 -835 0
833 -834 835 0
-833 -834 -835 0
-833 834 835 0
834 -2273 -2295 0
-834 2273 0
-834 2295 0
835 -2274 -2294 0
-835 2274 0
-835 2294 0
836 -2275 -2293 0
-836 2275 0
-836 2293 0
837 -838 847 0
837 838 -847 0
-837 838 847 0
-837 -838 -847 0
838 839 -842 0
838 -839 842 0
-838 -839 -842 0
-838 839 842 0
-839 840 841 0
839 -840 0
839 -841 0
840 -2272 -2273 -2294 -2295 0
-840 2295 0
-840 2272 0
-840 2294 0
-840 2273 0
841 -2274 -2293 -697 0
-841 2274 0
-841 2293 0
-841 697 0
842 843 -846 0
842 -843 846 0
-842 -843 -846 0
-842 843 846 0
843 844 -845 0
843 -844 845 0
-843 -844 -845 0
-843 844 845 0
844 -2276 -2292 0
-844 2276 0
-844 2292 0
845 -2277 -2291 0
-845 2277 0
-845 2291 0
846 -2278 -2290 0
-846 2278 0
-846 2290 0
-847 848 849 0
847 -848 0
847 -849 0
848 -2275 -2276 -2291 -2292 0
-848 2292 0
-848 2275 0
-848 2291 0
-848 2276 0
849 -2277 -2290 -707 0
-849 2277 0
-849 2290 0
-849 707 0
850 -851 866 0
850 851 -866 0
-850 851 866 0
-850 -851 -866 0
851 852 -855 0
851 -852 855 0
-851 -852 -855 0
-851 852 855 0
-852 853 854 0
852 -853 0
852 -854 0
853 -703 -706 0
-853 703 0
-853 706 0
854 -702 -711 0
-854 702 0
-854 711 0
855 856 -865 0
855 -856 865 0
-855 -856 -865 0
-855 856 865 0
856 -857 862 0
856 857 -862 0
-856 857 862 0
-856 -857 -862 0
857 858 -861 0
857 -858 861 0
-857 -858 -861 0
-857 858 861 0
858 859 -860 0
858 -859 860 0
-858 -859 -860 0
-858 859 860 0
859 -2279 -2289 0
-859 2279 0
-859 2289 0
860 -2280 -2288 0
-860 2280 0
-860 2288 0
861 -2281 -2287 0
-861 2281 0
-861 2287 0
-862 863 864 0
862 -863 0
862 -864 0
863 -2278 -2279 -2288 -2289 0
-863 2289 0
-863 2278 0
-863 2288 0
-863 2279 0
864 -2280 -2287 -722 0
-864 2280 0
-864 2287 0
-864 722 0
865 -2282 -2286 0
-865 2282 0
-865 2286 0
-866 867 868 0
866 -867 0
866 -868 0
867 -721 -726 0
-867 721 0
-867 726 0
868 -2281 -2286 -720 0
-868 2281 0
-868 2286 0
-868 720 0
-869 870 871 0
869 -870 0
869 -871 0
870 -692 -693 0
-870 692 0
-870 693 0
871 -691 -714 0
-871 691 0
-871 714 0
-872 873 874 0
872 -873 0
872 -874 0
873 -716 -719 0
-873 716 0
-873 719 0
874 -715 -730 0
-874 715 0
-874 730 0
-875 876 877 0
875 -876 0
875 -877 0
876 -690 -733 0
-876 690 0
-876 733 0
877 -689 -736 0
-877 689 0
-877 736 0
-878 879 880 0
878 -879 0
878 -880 0
879 -688 -739 0
-879 688 0
-879 739 0
880 -640 -687 0
-880 640 0
-880 687 0
-881 415 882 0
-881 882 886 0
881 -882 0
881 -415 -886 0
-882 746 883 884 0
-882 883 685 884 0
882 -884 0
882 -883 0
882 -746 -685 0
883 -686 -742 0
-883 686 0
-883 742 0
884 -623 -885 0
-884 623 0
-884 885 0
885 -568 -685 0
-885 568 0
-885 685 0
886 -625 -885 0
-886 625 0
-886 885 0
-887 -888 -955 0
-887 888 955 0
887 888 -955 0
887 -888 955 0
-888 2271 889 0
-888 -2271 -2298 -889 0
-888 2298 889 0
888 2271 -889 0
888 2298 -889 0
888 -2271 -2298 889 0
-889 2297 891 0
-889 2272 890 891 0
-889 -2272 -890 891 0
-889 2272 -2297 -890 -891 0
-889 -2272 -2297 890 -891 0
889 2297 -891 0
889 -2272 -890 -891 0
889 2272 890 -891 0
889 2272 -2297 -890 891 0
889 -2272 -2297 890 891 0
890 -2271 -750 0
-890 2271 0
-890 750 0
-891 2296 892 0
-891 -2296 951 952 0
-891 -2296 -951 -952 0
891 2296 -892 0
891 -2296 951 -952 0
891 -2296 -951 952 0
-892 2295 893 0
-892 -2295 946 947 0
-892 -2295 -946 -947 0
892 2295 -893 0
892 -2295 946 -947 0
892 -2295 -946 947 0
-893 2294 894 0
-893 -2294 941 942 0
-893 -2294 -941 -942 0
893 2294 -894 0
893 -2294 941 -942 0
893 -2294 -941 942 0
-894 2293 895 0
-894 -2293 936 937 0
-894 -2293 -936 -937 0
894 2293 -895 0
894 -2293 936 -937 0
894 -2293 -936 937 0
-895 2292 896 0
-895 -2292 931 932 0
-895 -2292 -931 -932 0
895 2292 -896 0
895 -2292 931 -932 0
895 -2292 -931 932 0
-896 2291 897 0
-896 -2291 926 927 0
-896 -2291 -926 -927 0
896 2291 -897 0
896 -2291 926 -927 0
896 -2291 -926 927 0
-897 2290 898 0
-897 -2290 921 922 0
-897 -2290 -921 -922 0
897 2290 -898 0
897 -2290 921 -922 0
897 -2290 -921 922 0
-898 2289 899 0
-898 -2289 916 917 0
-898 -2289 -916 -917 0
898 2289 -899 0
898 -2289 916 -917 0
898 -2289 -916 917 0
-899 2288 900 0
-899 -2288 911 912 0
-899 -2288 -911 -912 0
899 2288 -900 0
899 -2288 911 -912 0
899 -2288 -911 912 0
-900 2287 901 0
-900 -2287 907 908 0
-900 -2287 -907 -908 0
900 2287 -901 0
900 -2287 907 -908 0
900 -2287 -907 908 0
-901 2286 902 0
-901 -2286 903 904 0
-901 -2286 -903 -904 0
901 2286 -902 0
901 -2286 903 -904 0
901 -2286 -903 904 0
902 -2284 -2285 0
-902 2284 0
-902 2285 0
903 2283 -902 0
903 -2283 902 0
-903 -2283 -902 0
-903 2283 902 0
-904 905 906 0
904 -905 0
904 -906 0
905 -2282 -762 0
-905 2282 0
-905 762 0
906 -763 -764 0
-906 763 0
-906 764 0
907 -2282 901 0
907 2282 -901 0
-907 2282 901 0
-907 -2282 -901 0
-908 909 910 0
908 -909 0
908 -910 0
909 -2281 -761 0
-909 2281 0
-909 761 0
910 -768 -769 0
-910 768 0
-910 769 0
911 -2281 900 0
911 2281 -900 0
-911 2281 900 0
-911 -2281 -900 0
-912 913 914 0
912 -913 0
912 -914 0
913 -2280 -760 0
-913 2280 0
-913 760 0
914 -915 -775 0
-914 915 0
-914 775 0
915 -2280 760 0
915 2280 -760 0
-915 2280 760 0
-915 -2280 -760 0
916 -2280 899 0
916 2280 -899 0
-916 2280 899 0
-916 -2280 -899 0
-917 918 919 0
917 -918 0
917 -919 0
918 -2279 -759 0
-918 2279 0
-918 759 0
919 -920 -781 0
-919 920 0
-919 781 0
920 -2279 759 0
920 2279 -759 0
-920 2279 759 0
-920 -2279 -759 0
921 -2279 898 0
921 2279 -898 0
-921 2279 898 0
-921 -2279 -898 0
-922 923 924 0
922 -923 0
922 -924 0
923 -2278 -758 0
-923 2278 0
-923 758 0
924 -925 -787 0
-924 925 0
-924 787 0
925 -2278 758 0
925 2278 -758 0
-925 2278 758 0
-925 -2278 -758 0
926 -2278 897 0
926 2278 -897 0
-926 2278 897 0
-926 -2278 -897 0
-927 928 929 0
927 -928 0
927 -929 0
928 -2277 -757 0
-928 2277 0
-928 757 0
929 -930 -793 0
-929 930 0
-929 793 0
930 -2277 757 0
930 2277 -757 0
-930 2277 757 0
-930 -2277 -757 0
931 -2277 896 0
931 2277 -896 0
-931 2277 896 0
-931 -2277 -896 0
-932 933 934 0
932 -933 0
932 -934 0
933 -2276 -756 0
-933 2276 0
-933 756 0
934 -935 -799 0
-934 935 0
-934 799 0
935 -2276 756 0
935 2276 -756 0
-935 2276 756 0
-935 -2276 -756 0
936 -2276 895 0
936 2276 -895 0
-936 2276 895 0
-936 -2276 -895 0
-937 938 939 0
937 -938 0
937 -939 0
938 -2275 -755 0
-938 2275 0
-938 755 0
939 -940 -805 0
-939 940 0
-939 805 0
940 -2275 755 0
940 2275 -755 0
-940 2275 755 0
-940 -2275 -755 0
941 -2275 894 0
941 2275 -894 0
-941 2275 894 0
-941 -2275 -894 0
-942 943 944 0
942 -943 0
942 -944 0
943 -2274 -754 0
-943 2274 0
-943 754 0
944 -945 -808 0
-944 945 0
-944 808 0
945 -2274 754 0
945 2274 -754 0
-945 2274 754 0
-945 -2274 -754 0
946 -2274 893 0
946 2274 -893 0
-946 2274 893 0
-946 -2274 -893 0
-947 948 949 0
947 -948 0
947 -949 0
948 -2273 -753 0
-948 2273 0
-948 753 0
949 -950 -811 0
-949 950 0
-949 811 0
950 -2273 753 0
950 2273 -753 0
-950 2273 753 0
-950 -2273 -753 0
951 -2273 892 0
951 2273 -892 0
-951 2273 892 0
-951 -2273 -892 0
-952 953 954 0
952 -953 0
952 -954 0
953 -2272 -752 0
-953 2272 0
-953 752 0
954 -751 -815 0
-954 751 0
-954 815 0
955 -956 1026 0
955 956 -1026 0
-955 956 1026 0
-955 -956 -1026 0
956 -957 1023 0
956 957 -1023 0
-956 957 1023 0
-956 -957 -1023 0
957 902 -958 0
957 -902 958 0
-957 -902 -958 0
-957 902 958 0
958 -959 1020 0
958 959 -1020 0
-958 959 1020 0
-958 -959 -1020 0
959 -960 1017 0
959 960 -1017 0
-959 960 1017 0
-959 -960 -1017 0
960 -961 1014 0
960 961 -1014 0
-960 961 1014 0
-960 -961 -1014 0
961 962 -995 0
961 -962 995 0
-961 -962 -995 0
-961 962 995 0
962 -963 992 0
962 963 -992 0
-962 963 992 0
-962 -963 -992 0
963 964 -979 0
963 -964 979 0
-963 -964 -979 0
-963 964 979 0
964 965 -966 0
964 -965 966 0
-964 -965 -966 0
-964 965 966 0
965 -829 -832 0
-965 829 0
-965 832 0
966 967 -974 0
966 -967 974 0
-966 -967 -974 0
-966 967 974 0
967 968 -969 0
967 -968 969 0
-967 -968 -969 0
-967 968 969 0
968 -2271 -2272 -2296 -2297 0
-968 2297 0
-968 2271 0
-968 2296 0
-968 2272 0
969 970 -973 0
969 -970 973 0
-969 -970 -973 0
-969 970 973 0
970 971 -972 0
970 -971 972 0
-970 -971 -972 0
-970 971 972 0
971 -2271 -2298 0
-971 2271 0
-971 2298 0
972 -2272 -2297 0
-972 2272 0
-972 2297 0
973 -2273 -2296 0
-973 2273 0
-973 2296 0
974 975 -978 0
974 -975 978 0
-974 -975 -978 0
-974 975 978 0
975 976 -977 0
975 -976 977 0
-975 -976 -977 0
-975 976 977 0
976 -2274 -2295 0
-976 2274 0
-976 2295 0
977 -2275 -2294 0
-977 2275 0
-977 2294 0
978 -2276 -2293 0
-978 2276 0
-978 2293 0
979 -980 989 0
979 980 -989 0
-979 980 989 0
-979 -980 -989 0
980 981 -984 0
980 -981 984 0
-980 -981 -984 0
-980 981 984 0
-981 982 983 0
981 -982 0
981 -983 0
982 -2273 -2274 -2294 -2295 0
-982 2295 0
-982 2273 0
-982 2294 0
-982 2274 0
983 -2275 -2293 -833 0
-983 2275 0
-983 2293 0
-983 833 0
984 985 -988 0
984 -985 988 0
-984 -985 -988 0
-984 985 988 0
985 986 -987 0
985 -986 987 0
-985 -986 -987 0
-985 986 987 0
986 -2277 -2292 0
-986 2277 0
-986 2292 0
987 -2278 -2291 0
-987 2278 0
-987 2291 0
988 -2279 -2290 0
-988 2279 0
-988 2290 0
-989 990 991 0
989 -990 0
989 -991 0
990 -2276 -2277 -2291 -2292 0
-990 2292 0
-990 2276 0
-990 2291 0
-990 2277 0
991 -2278 -2290 -843 0
-991 2278 0
-991 2290 0
-991 843 0
-992 993 994 0
992 -993 0
992 -994 0
993 -827 -828 0
-993 827 0
-993 828 0
994 -826 -837 0
-994 826 0
-994 837 0
995 -996 1011 0
995 996 -1011 0
-995 996 1011 0
-995 -996 -1011 0
996 997 -1000 0
996 -997 1000 0
-996 -997 -1000 0
-996 997 1000 0
-997 998 999 0
997 -998 0
997 -999 0
998 -839 -842 0
-998 839 0
-998 842 0
999 -838 -847 0
-999 838 0
-999 847 0
1000 1001 -1010 0
1000 -1001 1010 0
-1000 -1001 -1010 0
-1000 1001 1010 0
1001 -1002 1007 0
1001 1002 -1007 0
-1001 1002 1007 0
-1001 -1002 -1007 0
1002 1003 -1006 0
1002 -1003 1006 0
-1002 -1003 -1006 0
-1002 1003 1006 0
1003 1004 -1005 0
1003 -1004 1005 0
-1003 -1004 -1005 0
-1003 1004 1005 0
1004 -2280 -2289 0
-1004 2280 0
-1004 2289 0
1005 -2281 -2288 0
-1005 2281 0
-1005 2288 0
1006 -2282 -2287 0
-1006 2282 0
-1006 2287 0
-1007 1008 1009 0
1007 -1008 0
1007 -1009 0
1008 -2279 -2280 -2288 -2289 0
-1008 2289 0
-1008 2279 0
-1008 2288 0
-1008 2280 0
1009 -2281 -2287 -858 0
-1009 2281 0
-1009 2287 0
-1009 858 0
1010 -2283 -2286 0
-1010 2283 0
-1010 2286 0
-1011 1012 1013 0
1011 -1012 0
1011 -1013 0
1012 -857 -862 0
-1012 857 0
-1012 862 0
1013 -2282 -2286 -856 0
-1013 2282 0
-1013 2286 0
-1013 856 0
-1014 1015 1016 0
1014 -1015 0
1014 -1016 0
1015 -824 -825 0
-1015 824 0
-1015 825 0
1016 -823 -850 0
-1016 823 0
-1016 850 0
-1017 1018 1019 0
1017 -1018 0
1017 -1019 0
1018 -852 -855 0
-1018 852 0
-1018 855 0
1019 -851 -866 0
-1019 851 0
-1019 866 0
-1020 1021 1022 0
1020 -1021 0
1020 -1022 0
1021 -822 -869 0
-1021 822 0
-1021 869 0
1022 -821 -872 0
-1022 821 0
-1022 872 0
-1023 1024 1025 0
1023 -1024 0
1023 -1025 0
1024 -820 -875 0
-1024 820 0
-1024 875 0
1025 -762 -819 0
-1025 762 0
-1025 819 0
-1026 1027 1028 0
1026 -1027 0
1026 -1028 0
1027 -818 -878 0
-1027 818 0
-1027 878 0
1028 -817 -881 0
-1028 817 0
-1028 881 0
-1029 -1030 -1086 1164 1464 0
-1029 1030 1086 1164 1464 0
1029 -1464 0
1029 -1030 1086 0
1029 -1164 0
1029 1030 -1086 0
-1030 2298 1032 0
-1030 2272 1031 1032 0
-1030 -2272 -1031 1032 0
-1030 2272 -2298 -1031 -1032 0
-1030 -2272 -2298 1031 -1032 0
1030 2298 -1032 0
1030 -2272 -1031 -1032 0
1030 2272 1031 -1032 0
1030 2272 -2298 -1031 1032 0
1030 -2272 -2298 1031 1032 0
1031 -2271 -889 0
-1031 2271 0
-1031 889 0
-1032 2297 1033 0
-1032 -2273 1033 -1082 0
-1032 2273 1033 1082 0
-1032 -2273 -2297 -1033 1082 0
-1032 2273 -2297 -1033 -1082 0
1032 2297 -1033 0
1032 2273 -2297 1033 -1082 0
1032 2273 -1033 1082 0
1032 -2273 -1033 -1082 0
1032 -2273 -2297 1033 1082 0
-1033 2296 1034 0
-1033 -2274 1034 -1078 0
-1033 2274 1034 1078 0
-1033 -2274 -2296 -1034 1078 0
-1033 2274 -2296 -1034 -1078 0
1033 2296 -1034 0
1033 2274 -2296 1034 -1078 0
1033 2274 -1034 1078 0
1033 -2274 -1034 -1078 0
1033 -2274 -2296 1034 1078 0
-1034 2295 1035 0
-1034 -2275 1035 -1074 0
-1034 2275 1035 1074 0
-1034 -2275 -2295 -1035 1074 0
-1034 2275 -2295 -1035 -1074 0
1034 2295 -1035 0
1034 2275 -2295 1035 -1074 0
1034 2275 -1035 1074 0
1034 -2275 -1035 -1074 0
1034 -2275 -2295 1035 1074 0
-1035 2294 1036 0
-1035 -2276 1036 -1071 0
-1035 2276 1036 1071 0
-1035 -2276 -2294 -1036 1071 0
-1035 2276 -2294 -1036 -1071 0
1035 2294 -1036 0
1035 2276 -2294 1036 -1071 0
1035 2276 -1036 1071 0
1035 -2276 -1036 -1071 0
1035 -2276 -2294 1036 1071 0
-1036 2293 1037 0
-1036 -2277 1037 -1067 0
-1036 2277 1037 1067 0
-1036 -2277 -2293 -1037 1067 0
-1036 2277 -2293 -1037 -1067 0
1036 2293 -1037 0
1036 2277 -2293 1037 -1067 0
1036 2277 -1037 1067 0
1036 -2277 -1037 -1067 0
1036 -2277 -2293 1037 1067 0
-1037 2292 1038 0
-1037 -2278 1038 -1064 0
-1037 2278 1038 1064 0
-1037 -2278 -2292 -1038 1064 0
-1037 2278 -2292 -1038 -1064 0
1037 2292 -1038 0
1037 2278 -2292 1038 -1064 0
1037 2278 -1038 1064 0
1037 -2278 -1038 -1064 0
1037 -2278 -2292 1038 1064 0
-1038 2291 1039 0
-1038 -2279 1039 -1061 0
-1038 2279 1039 1061 0
-1038 -2279 -2291 -1039 1061 0
-1038 2279 -2291 -1039 -1061 0
1038 2291 -1039 0
1038 2279 -2291 1039 -1061 0
1038 2279 -1039 1061 0
1038 -2279 -1039 -1061 0
1038 -2279 -2291 1039 1061 0
-1039 2290 1040 0
-1039 -2280 1040 -1058 0
-1039 2280 1040 1058 0
-1039 -2280 -2290 -1040 1058 0
-1039 2280 -2290 -1040 -1058 0
1039 2290 -1040 0
1039 2280 -2290 1040 -1058 0
1039 2280 -1040 1058 0
1039 -2280 -1040 -1058 0
1039 -2280 -2290 1040 1058 0
-1040 2289 1041 0
-1040 -2281 1041 -1055 0
-1040 2281 1041 1055 0
-1040 -2281 -2289 -1041 1055 0
-1040 2281 -2289 -1041 -1055 0
1040 2289 -1041 0
1040 2281 -2289 1041 -1055 0
1040 2281 -1041 1055 0
1040 -2281 -1041 -1055 0
1040 -2281 -2289 1041 1055 0
-1041 2288 1042 0
-1041 -2282 1042 -1051 0
-1041 2282 1042 1051 0
-1041 -2282 -2288 -1042 1051 0
-1041 2282 -2288 -1042 -1051 0
1041 2288 -1042 0
1041 2282 -2288 1042 -1051 0
1041 2282 -1042 1051 0
1041 -2282 -1042 -1051 0
1041 -2282 -2288 1042 1051 0
-1042 2287 1043 0
-1042 -2287 1046 1047 0
-1042 -2287 -1046 -1047 0
1042 2287 -1043 0
1042 -2287 1046 -1047 0
1042 -2287 -1046 1047 0
1043 2284 -2286 -1044 0
1043 -2284 -2286 1044 0
-1043 2286 0
-1043 -2284 -1044 0
-1043 2284 1044 0
-1044 763 1045 0
-1044 764 1045 0
-1044 903 1045 0
1044 -1045 0
1044 -763 -764 -903 0
-1045 2285 0
-1045 2283 0
-1045 2282 2284 0
1045 -2282 -2283 -2285 0
1045 -2283 -2284 -2285 0
1046 2283 -1043 0
1046 -2283 1043 0
-1046 -2283 -1043 0
-1046 2283 1043 0
-1047 769 1048 0
-1047 1048 1050 0
1047 -1048 0
1047 -769 -1050 0
-1048 1049 907 0
-1048 909 1049 0
1048 -1049 0
1048 -909 -907 0
1049 -2282 -901 0
-1049 2282 0
-1049 901 0
1050 -768 -907 0
-1050 768 0
-1050 907 0
-1051 775 1052 0
-1051 1052 1054 0
1051 -1052 0
1051 -775 -1054 0
-1052 1053 911 0
-1052 913 1053 0
1052 -1053 0
1052 -913 -911 0
1053 -2281 -900 0
-1053 2281 0
-1053 900 0
1054 -915 -911 0
-1054 915 0
-1054 911 0
-1055 781 1056 0
-1055 1056 1057 0
1055 -1056 0
1055 -781 -1057 0
-1056 918 899 0
-1056 2280 918 0
-1056 2280 899 0
1056 -2280 -918 0
1056 -918 -899 0
1056 -2280 -899 0
1057 -920 -916 0
-1057 920 0
-1057 916 0
-1058 787 1059 0
-1058 1059 1060 0
1058 -1059 0
1058 -787 -1060 0
-1059 923 898 0
-1059 2279 923 0
-1059 2279 898 0
1059 -2279 -923 0
1059 -923 -898 0
1059 -2279 -898 0
1060 -925 -921 0
-1060 925 0
-1060 921 0
-1061 793 1062 0
-1061 1062 1063 0
1061 -1062 0
1061 -793 -1063 0
-1062 928 897 0
-1062 2278 928 0
-1062 2278 897 0
1062 -2278 -928 0
1062 -928 -897 0
1062 -2278 -897 0
1063 -930 -926 0
-1063 930 0
-1063 926 0
-1064 799 1065 0
-1064 1065 1066 0
1064 -1065 0
1064 -799 -1066 0
-1065 933 896 0
-1065 2277 933 0
-1065 2277 896 0
1065 -2277 -933 0
1065 -933 -896 0
1065 -2277 -896 0
1066 -935 -931 0
-1066 935 0
-1066 931 0
-1067 805 1068 0
-1067 1068 1070 0
1067 -1068 0
1067 -805 -1070 0
-1068 1069 936 0
-1068 938 1069 0
1068 -1069 0
1068 -938 -936 0
1069 -2276 -895 0
-1069 2276 0
-1069 895 0
1070 -940 -936 0
-1070 940 0
-1070 936 0
-1071 808 1072 0
-1071 1072 1073 0
1071 -1072 0
1071 -808 -1073 0
-1072 943 894 0
-1072 2275 943 0
-1072 2275 894 0
1072 -2275 -943 0
1072 -943 -894 0
1072 -2275 -894 0
1073 -945 -941 0
-1073 945 0
-1073 941 0
-1074 811 1075 0
-1074 1075 1077 0
1074 -1075 0
1074 -811 -1077 0
-1075 1076 946 0
-1075 948 1076 0
1075 -1076 0
1075 -948 -946 0
1076 -2274 -893 0
-1076 2274 0
-1076 893 0
1077 -950 -946 0
-1077 950 0
-1077 946 0
-1078 751 1079 0
-1078 1079 1081 0
1078 -1079 0
1078 -751 -1081 0
-1079 1080 951 0
-1079 953 1080 0
1079 -1080 0
1079 -953 -951 0
1080 -2273 -892 0
-1080 2273 0
-1080 892 0
1081 -815 -951 0
-1081 815 0
-1081 951 0
-1082 1083 1084 0
1082 -1083 0
1082 -1084 0
1083 -2272 -891 0
-1083 2272 0
-1083 891 0
1084 -890 -1085 0
-1084 890 0
-1084 1085 0
1085 -2272 891 0
1085 2272 -891 0
-1085 2272 891 0
-1085 -2272 -891 0
1086 -1087 1160 0
1086 1087 -1160 0
-1086 1087 1160 0
-1086 -1087 -1160 0
1087 -1088 1157 0
1087 1088 -1157 0
-1087 1088 1157 0
-1087 -1088 -1157 0
1088 -1089 1154 0
1088 1089 -1154 0
-1088 1089 1154 0
-1088 -1089 -1154 0
1089 -1090 1151 0
1089 1090 -1151 0
-1089 1090 1151 0
-1089 -1090 -1151 0
1090 -1091 1148 0
1090 1091 -1148 0
-1090 1091 1148 0
-1090 -1091 -1148 0
1091 1092 -1129 0
1091 -1092 1129 0
-1091 -1092 -1129 0
-1091 1092 1129 0
1092 -1093 1126 0
1092 1093 -1126 0
-1092 1093 1126 0
-1092 -1093 -1126 0
1093 1094 -1113 0
1093 -1094 1113 0
-1093 -1094 -1113 0
-1093 1094 1113 0
1094 -1095 1110 0
1094 1095 -1110 0
-1094 1095 1110 0
-1094 -1095 -1110 0
1095 1096 -1105 0
1095 -1096 1105 0
-1095 -1096 -1105 0
-1095 1096 1105 0
1096 -1097 1102 0
1096 1097 -1102 0
-1096 1097 1102 0
-1096 -1097 -1102 0
1097 1098 -1101 0
1097 -1098 1101 0
-1097 -1098 -1101 0
-1097 1098 1101 0
1098 1099 -1100 0
1098 -1099 1100 0
-1098 -1099 -1100 0
-1098 1099 1100 0
1099 -2272 -2298 0
-1099 2272 0
-1099 2298 0
1100 -2273 -2297 0
-1100 2273 0
-1100 2297 0
1101 -2274 -2296 0
-1101 2274 0
-1101 2296 0
-1102 1103 1104 0
1102 -1103 0
1102 -1104 0
1103 -2271 -2272 -2297 -2298 0
-1103 2298 0
-1103 2271 0
-1103 2297 0
-1103 2272 0
1104 -2273 -2296 -970 0
-1104 2273 0
-1104 2296 0
-1104 970 0
1105 1106 -1109 0
1105 -1106 1109 0
-1105 -1106 -1109 0
-1105 1106 1109 0
1106 1107 -1108 0
1106 -1107 1108 0
-1106 -1107 -1108 0
-1106 1107 1108 0
1107 -2275 -2295 0
-1107 2275 0
-1107 2295 0
1108 -2276 -2294 0
-1108 2276 0
-1108 2294 0
1109 -2277 -2293 0
-1109 2277 0
-1109 2293 0
-1110 1111 1112 0
1110 -1111 0
1110 -1112 0
1111 -968 -969 0
-1111 968 0
-1111 969 0
1112 -967 -974 0
-1112 967 0
-1112 974 0
1113 -1114 1123 0
1113 1114 -1123 0
-1113 1114 1123 0
-1113 -1114 -1123 0
1114 1115 -1118 0
1114 -1115 1118 0
-1114 -1115 -1118 0
-1114 1115 1118 0
-1115 1116 1117 0
1115 -1116 0
1115 -1117 0
1116 -2274 -2275 -2294 -2295 0
-1116 2295 0
-1116 2274 0
-1116 2294 0
-1116 2275 0
1117 -2276 -2293 -975 0
-1117 2276 0
-1117 2293 0
-1117 975 0
1118 1119 -1122 0
1118 -1119 1122 0
-1118 -1119 -1122 0
-1118 1119 1122 0
1119 1120 -1121 0
1119 -1120 1121 0
-1119 -1120 -1121 0
-1119 1120 1121 0
1120 -2278 -2292 0
-1120 2278 0
-1120 2292 0
1121 -2279 -2291 0
-1121 2279 0
-1121 2291 0
1122 -2280 -2290 0
-1122 2280 0
-1122 2290 0
-1123 1124 1125 0
1123 -1124 0
1123 -1125 0
1124 -2277 -2278 -2291 -2292 0
-1124 2292 0
-1124 2277 0
-1124 2291 0
-1124 2278 0
1125 -2279 -2290 -985 0
-1125 2279 0
-1125 2290 0
-1125 985 0
-1126 1127 1128 0
1126 -1127 0
1126 -1128 0
1127 -965 -966 0
-1127 965 0
-1127 966 0
1128 -964 -979 0
-1128 964 0
-1128 979 0
1129 -1130 1145 0
1129 1130 -1145 0
-1129 1130 1145 0
-1129 -1130 -1145 0
1130 1131 -1134 0
1130 -1131 1134 0
-1130 -1131 -1134 0
-1130 1131 1134 0
-1131 1132 1133 0
1131 -1132 0
1131 -1133 0
1132 -981 -984 0
-1132 981 0
-1132 984 0
1133 -980 -989 0
-1133 980 0
-1133 989 0
1134 1135 -1144 0
1134 -1135 1144 0
-1134 -1135 -1144 0
-1134 1135 1144 0
1135 -1136 1141 0
1135 1136 -1141 0
-1135 1136 1141 0
-1135 -1136 -1141 0
1136 1137 -1140 0
1136 -1137 1140 0
-1136 -1137 -1140 0
-1136 1137 1140 0
1137 1138 -1139 0
1137 -1138 1139 0
-1137 -1138 -1139 0
-1137 1138 1139 0
1138 -2281 -2289 0
-1138 2281 0
-1138 2289 0
1139 -2282 -2288 0
-1139 2282 0
-1139 2288 0
1140 -2283 -2287 0
-1140 2283 0
-1140 2287 0
-1141 1142 1143 0
1141 -1142 0
1141 -1143 0
1142 -2280 -2281 -2288 -2289 0
-1142 2289 0
-1142 2280 0
-1142 2288 0
-1142 2281 0
1143 -2282 -2287 -1003 0
-1143 2282 0
-1143 2287 0
-1143 1003 0
1144 -2284 -2286 0
-1144 2284 0
-1144 2286 0
-1145 1146 1147 0
1145 -1146 0
1145 -1147 0
1146 -1002 -1007 0
-1146 1002 0
-1146 1007 0
1147 -2283 -2286 -1001 0
-1147 2283 0
-1147 2286 0
-1147 1001 0
-1148 1149 1150 0
1148 -1149 0
1148 -1150 0
1149 -963 -992 0
-1149 963 0
-1149 992 0
1150 -962 -995 0
-1150 962 0
-1150 995 0
-1151 1152 1153 0
1151 -1152 0
1151 -1153 0
1152 -997 -1000 0
-1152 997 0
-1152 1000 0
1153 -996 -1011 0
-1153 996 0
-1153 1011 0
-1154 1155 1156 0
1154 -1155 0
1154 -1156 0
1155 -961 -1014 0
-1155 961 0
-1155 1014 0
1156 -960 -1017 0
-1156 960 0
-1156 1017 0
-1157 1158 1159 0
1157 -1158 0
1157 -1159 0
1158 -959 -1020 0
-1158 959 0
-1158 1020 0
1159 -902 -958 0
-1159 902 0
-1159 958 0
-1160 881 1161 0
-1160 1161 1163 0
1160 -1161 0
1160 -881 -1163 0
-1161 1162 956 0
-1161 1027 1162 0
1161 -1162 0
1161 -1027 -956 0
1162 -957 -1023 0
-1162 957 0
-1162 1023 0
1163 -817 -956 0
-1163 817 0
-1163 956 0
-1164 1165 1239 1312 1391 0
-1164 -1165 -1239 -1312 -1391 0
-1164 1165 1239 -1312 -1391 0
-1164 -1165 -1239 1312 1391 0
1164 1165 -1239 0
1164 -1165 1239 0
1164 -1312 1391 0
1164 1312 -1391 0
-1165 2298 1166 0
-1165 -2298 1234 1235 0
-1165 -2298 -1234 -1235 0
1165 2298 -1166 0
1165 -2298 1234 -1235 0
1165 -2298 -1234 1235 0
-1166 2297 1167 0
-1166 -2297 1229 1230 0
-1166 -2297 -1229 -1230 0
1166 2297 -1167 0
1166 -2297 1229 -1230 0
1166 -2297 -1229 1230 0
-1167 2296 1168 0
-1167 -2296 1224 1225 0
-1167 -2296 -1224 -1225 0
1167 2296 -1168 0
1167 -2296 1224 -1225 0
1167 -2296 -1224 1225 0
-1168 2295 1169 0
-1168 -2295 1219 1220 0
-1168 -2295 -1219 -1220 0
1168 2295 -1169 0
1168 -2295 1219 -1220 0
1168 -2295 -1219 1220 0
-1169 2294 1170 0
-1169 -2294 1214 1215 0
-1169 -2294 -1214 -1215 0
1169 2294 -1170 0
1169 -2294 1214 -1215 0
1169 -2294 -1214 1215 0
-1170 2293 1171 0
-1170 -2293 1209 1210 0
-1170 -2293 -1209 -1210 0
1170 2293 -1171 0
1170 -2293 1209 -1210 0
1170 -2293 -1209 1210 0
-1171 2292 1172 0
-1171 -2292 1204 1205 0
-1171 -2292 -1204 -1205 0
1171 2292 -1172 0
1171 -2292 1204 -1205 0
1171 -2292 -1204 1205 0
-1172 2291 1173 0
-1172 -2291 1199 1200 0
-1172 -2291 -1199 -1200 0
1172 2291 -1173 0
1172 -2291 1199 -1200 0
1172 -2291 -1199 1200 0
-1173 2290 1174 0
-1173 -2290 1194 1195 0
-1173 -2290 -1194 -1195 0
1173 2290 -1174 0
1173 -2290 1194 -1195 0
1173 -2290 -1194 1195 0
-1174 2289 1175 0
-1174 -2289 1189 1190 0
-1174 -2289 -1189 -1190 0
1174 2289 -1175 0
1174 -2289 1189 -1190 0
1174 -2289 -1189 1190 0
-1175 2288 1176 0
-1175 -2288 1184 1185 0
-1175 -2288 -1184 -1185 0
1175 2288 -1176 0
1175 -2288 1184 -1185 0
1175 -2288 -1184 1185 0
-1176 2287 1177 0
-1176 -2287 1179 1181 0
-1176 -2287 -1179 -1181 0
1176 2287 -1177 0
1176 -2287 1179 -1181 0
1176 -2287 -1179 1181 0
1177 -2286 -1178 0
-1177 2286 0
-1177 1178 0
1178 -2284 -1044 0
-1178 2284 0
-1178 1044 0
1179 -2284 1180 0
-1179 2284 0
-1179 -1180 0
1180 -2284 -1177 0
-1180 2284 0
-1180 1177 0
-1181 1182 1183 0
1181 -1182 0
1181 -1183 0
1182 -2283 -1043 0
-1182 2283 0
-1182 1043 0
1183 -1046 -1047 0
-1183 1046 0
-1183 1047 0
1184 -2283 1176 0
1184 2283 -1176 0
-1184 2283 1176 0
-1184 -2283 -1176 0
-1185 1186 1187 0
1185 -1186 0
1185 -1187 0
1186 -2282 -1042 0
-1186 2282 0
-1186 1042 0
1187 -1188 -1051 0
-1187 1188 0
-1187 1051 0
1188 -2282 1042 0
1188 2282 -1042 0
-1188 2282 1042 0
-1188 -2282 -1042 0
1189 -2282 1175 0
1189 2282 -1175 0
-1189 2282 1175 0
-1189 -2282 -1175 0
-1190 1191 1192 0
1190 -1191 0
1190 -1192 0
1191 -2281 -1041 0
-1191 2281 0
-1191 1041 0
1192 -1193 -1055 0
-1192 1193 0
-1192 1055 0
1193 -2281 1041 0
1193 2281 -1041 0
-1193 2281 1041 0
-1193 -2281 -1041 0
1194 -2281 1174 0
1194 2281 -1174 0
-1194 2281 1174 0
-1194 -2281 -1174 0
-1195 1196 1197 0
1195 -1196 0
1195 -1197 0
1196 -2280 -1040 0
-1196 2280 0
-1196 1040 0
1197 -1198 -1058 0
-1197 1198 0
-1197 1058 0
1198 -2280 1040 0
1198 2280 -1040 0
-1198 2280 1040 0
-1198 -2280 -1040 0
1199 -2280 1173 0
1199 2280 -1173 0
-1199 2280 1173 0
-1199 -2280 -1173 0
-1200 1201 1202 0
1200 -1201 0
1200 -1202 0
1201 -2279 -1039 0
-1201 2279 0
-1201 1039 0
1202 -1203 -1061 0
-1202 1203 0
-1202 1061 0
1203 -2279 1039 0
1203 2279 -1039 0
-1203 2279 1039 0
-1203 -2279 -1039 0
1204 -2279 1172 0
1204 2279 -1172 0
-1204 2279 1172 0
-1204 -2279 -1172 0
-1205 1206 1207 0
1205 -1206 0
1205 -1207 0
1206 -2278 -1038 0
-1206 2278 0
-1206 1038 0
1207 -1208 -1064 0
-1207 1208 0
-1207 1064 0
1208 -2278 1038 0
1208 2278 -1038 0
-1208 2278 1038 0
-1208 -2278 -1038 0
1209 -2278 1171 0
1209 2278 -1171 0
-1209 2278 1171 0
-1209 -2278 -1171 0
-1210 1211 1212 0
1210 -1211 0
1210 -1212 0
1211 -2277 -1037 0
-1211 2277 0
-1211 1037 0
1212 -1213 -1067 0
-1212 1213 0
-1212 1067 0
1213 -2277 1037 0
1213 2277 -1037 0
-1213 2277 1037 0
-1213 -2277 -1037 0
1214 -2277 1170 0
1214 2277 -1170 0
-1214 2277 1170 0
-1214 -2277 -1170 0
-1215 1216 1217 0
1215 -1216 0
1215 -1217 0
1216 -2276 -1036 0
-1216 2276 0
-1216 1036 0
1217 -1218 -1071 0
-1217 1218 0
-1217 1071 0
1218 -2276 1036 0
1218 2276 -1036 0
-1218 2276 1036 0
-1218 -2276 -1036 0
1219 -2276 1169 0
1219 2276 -1169 0
-1219 2276 1169 0
-1219 -2276 -1169 0
-1220 1221 1222 0
1220 -1221 0
1220 -1222 0
1221 -2275 -1035 0
-1221 2275 0
-1221 1035 0
1222 -1223 -1074 0
-1222 1223 0
-1222 1074 0
1223 -2275 1035 0
1223 2275 -1035 0
-1223 2275 1035 0
-1223 -2275 -1035 0
1224 -2275 1168 0
1224 2275 -1168 0
-1224 2275 1168 0
-1224 -2275 -1168 0
-1225 1226 1227 0
1225 -1226 0
1225 -1227 0
1226 -2274 -1034 0
-1226 2274 0
-1226 1034 0
1227 -1228 -1078 0
-1227 1228 0
-1227 1078 0
1228 -2274 1034 0
1228 2274 -1034 0
-1228 2274 1034 0
-1228 -2274 -1034 0
1229 -2274 1167 0
1229 2274 -1167 0
-1229 2274 1167 0
-1229 -2274 -1167 0
-1230 1231 1232 0
1230 -1231 0
1230 -1232 0
1231 -2273 -1033 0
-1231 2273 0
-1231 1033 0
1232 -1233 -1082 0
-1232 1233 0
-1232 1082 0
1233 -2273 1033 0
1233 2273 -1033 0
-1233 2273 1033 0
-1233 -2273 -1033 0
1234 -2273 1166 0
1234 2273 -1166 0
-1234 2273 1166 0
-1234 -2273 -1166 0
-1235 1236 1237 0
1235 -1236 0
1235 -1237 0
1236 -2272 -1032 0
-1236 2272 0
-1236 1032 0
1237 -1031 -1238 0
-1237 1031 0
-1237 1238 0
1238 -2272 1032 0
1238 2272 -1032 0
-1238 2272 1032 0
-1238 -2272 -1032 0
1239 -1240 1309 0
1239 1240 -1309 0
-1239 1240 1309 0
-1239 -1240 -1309 0
1240 1241 -1242 0
1240 -1241 1242 0
-1240 -1241 -1242 0
-1240 1241 1242 0
1241 -1089 -1154 0
-1241 1089 0
-1241 1154 0
1242 -1243 1306 0
1242 1243 -1306 0
-1242 1243 1306 0
-1242 -1243 -1306 0
1243 -1244 1303 0
1243 1244 -1303 0
-1243 1244 1303 0
-1243 -1244 -1303 0
1244 -1245 1300 0
1244 1245 -1300 0
-1244 1245 1300 0
-1244 -1245 -1300 0
1245 1246 -1283 0
1245 -1246 1283 0
-1245 -1246 -1283 0
-1245 1246 1283 0
1246 -1247 1280 0
1246 1247 -1280 0
-1246 1247 1280 0
-1246 -1247 -1280 0
1247 1248 -1267 0
1247 -1248 1267 0
-1247 -1248 -1267 0
-1247 1248 1267 0
1248 -1249 1264 0
1248 1249 -1264 0
-1248 1249 1264 0
-1248 -1249 -1264 0
1249 1250 -1259 0
1249 -1250 1259 0
-1249 -1250 -1259 0
-1249 1250 1259 0
1250 -1251 1256 0
1250 1251 -1256 0
-1250 1251 1256 0
-1250 -1251 -1256 0
1251 1252 -1255 0
1251 -1252 1255 0
-1251 -1252 -1255 0
-1251 1252 1255 0
1252 1253 -1254 0
1252 -1253 1254 0
-1252 -1253 -1254 0
-1252 1253 1254 0
1253 -2273 -2298 0
-1253 2273 0
-1253 2298 0
1254 -2274 -2297 0
-1254 2274 0
-1254 2297 0
1255 -2275 -2296 0
-1255 2275 0
-1255 2296 0
-1256 1257 1258 0
1256 -1257 0
1256 -1258 0
1257 -2272 -2273 -2297 -2298 0
-1257 2298 0
-1257 2272 0
-1257 2297 0
-1257 2273 0
1258 -2274 -2296 -1098 0
-1258 2274 0
-1258 2296 0
-1258 1098 0
1259 1260 -1263 0
1259 -1260 1263 0
-1259 -1260 -1263 0
-1259 1260 1263 0
1260 1261 -1262 0
1260 -1261 1262 0
-1260 -1261 -1262 0
-1260 1261 1262 0
1261 -2276 -2295 0
-1261 2276 0
-1261 2295 0
1262 -2277 -2294 0
-1262 2277 0
-1262 2294 0
1263 -2278 -2293 0
-1263 2278 0
-1263 2293 0
-1264 1265 1266 0
1264 -1265 0
1264 -1266 0
1265 -1097 -1102 0
-1265 1097 0
-1265 1102 0
1266 -1096 -1105 0
-1266 1096 0
-1266 1105 0
1267 -1268 1277 0
1267 1268 -1277 0
-1267 1268 1277 0
-1267 -1268 -1277 0
1268 1269 -1272 0
1268 -1269 1272 0
-1268 -1269 -1272 0
-1268 1269 1272 0
-1269 1270 1271 0
1269 -1270 0
1269 -1271 0
1270 -2275 -2276 -2294 -2295 0
-1270 2295 0
-1270 2275 0
-1270 2294 0
-1270 2276 0
1271 -2277 -2293 -1106 0
-1271 2277 0
-1271 2293 0
-1271 1106 0
1272 1273 -1276 0
1272 -1273 1276 0
-1272 -1273 -1276 0
-1272 1273 1276 0
1273 1274 -1275 0
1273 -1274 1275 0
-1273 -1274 -1275 0
-1273 1274 1275 0
1274 -2279 -2292 0
-1274 2279 0
-1274 2292 0
1275 -2280 -2291 0
-1275 2280 0
-1275 2291 0
1276 -2281 -2290 0
-1276 2281 0
-1276 2290 0
-1277 1278 1279 0
1277 -1278 0
1277 -1279 0
1278 -2278 -2279 -2291 -2292 0
-1278 2292 0
-1278 2278 0
-1278 2291 0
-1278 2279 0
1279 -2280 -2290 -1119 0
-1279 2280 0
-1279 2290 0
-1279 1119 0
-1280 1281 1282 0
1280 -1281 0
1280 -1282 0
1281 -1095 -1110 0
-1281 1095 0
-1281 1110 0
1282 -1094 -1113 0
-1282 1094 0
-1282 1113 0
1283 -1284 1297 0
1283 1284 -1297 0
-1283 1284 1297 0
-1283 -1284 -1297 0
1284 1285 -1288 0
1284 -1285 1288 0
-1284 -1285 -1288 0
-1284 1285 1288 0
-1285 1286 1287 0
1285 -1286 0
1285 -1287 0
1286 -1115 -1118 0
-1286 1115 0
-1286 1118 0
1287 -1114 -1123 0
-1287 1114 0
-1287 1123 0
1288 -1289 1294 0
1288 1289 -1294 0
-1288 1289 1294 0
-1288 -1289 -1294 0
1289 1290 -1293 0
1289 -1290 1293 0
-1289 -1290 -1293 0
-1289 1290 1293 0
1290 1291 -1292 0
1290 -1291 1292 0
-1290 -1291 -1292 0
-1290 1291 1292 0
1291 -2282 -2289 0
-1291 2282 0
-1291 2289 0
1292 -2283 -2288 0
-1292 2283 0
-1292 2288 0
1293 -2284 -2287 0
-1293 2284 0
-1293 2287 0
-1294 1295 1296 0
1294 -1295 0
1294 -1296 0
1295 -2281 -2282 -2288 -2289 0
-1295 2289 0
-1295 2281 0
-1295 2288 0
-1295 2282 0
1296 -2283 -2287 -1137 0
-1296 2283 0
-1296 2287 0
-1296 1137 0
-1297 1298 1299 0
1297 -1298 0
1297 -1299 0
1298 -1136 -1141 0
-1298 1136 0
-1298 1141 0
1299 -2284 -2286 -1135 0
-1299 2284 0
-1299 2286 0
-1299 1135 0
-1300 1301 1302 0
1300 -1301 0
1300 -1302 0
1301 -1093 -1126 0
-1301 1093 0
-1301 1126 0
1302 -1092 -1129 0
-1302 1092 0
-1302 1129 0
-1303 1304 1305 0
1303 -1304 0
1303 -1305 0
1304 -1131 -1134 0
-1304 1131 0
-1304 1134 0
1305 -1130 -1145 0
-1305 1130 0
-1305 1145 0
-1306 1307 1308 0
1306 -1307 0
1306 -1308 0
1307 -1091 -1148 0
-1307 1091 0
-1307 1148 0
1308 -1090 -1151 0
-1308 1090 0
-1308 1151 0
-1309 1310 1311 0
1309 -1310 0
1309 -1311 0
1310 -1088 -1157 0
-1310 1088 0
-1310 1157 0
1311 -1087 -1160 0
-1311 1087 0
-1311 1160 0
-1312 2298 1313 0
-1312 -2274 1313 -1388 0
-1312 2274 1313 1388 0
-1312 -2274 -2298 -1313 1388 0
-1312 2274 -2298 -1313 -1388 0
1312 2298 -1313 0
1312 2274 -2298 1313 -1388 0
1312 2274 -1313 1388 0
1312 -2274 -1313 -1388 0
1312 -2274 -2298 1313 1388 0
-1313 2297 1314 0
-1313 -2275 1314 -1385 0
-1313 2275 1314 1385 0
-1313 -2275 -2297 -1314 1385 0
-1313 2275 -2297 -1314 -1385 0
1313 2297 -1314 0
1313 2275 -2297 1314 -1385 0
1313 2275 -1314 1385 0
1313 -2275 -1314 -1385 0
1313 -2275 -2297 1314 1385 0
-1314 2296 1315 0
-1314 -2276 1315 -1380 0
-1314 2276 1315 1380 0
-1314 -2276 -2296 -1315 1380 0
-1314 2276 -2296 -1315 -1380 0
1314 2296 -1315 0
1314 2276 -2296 1315 -1380 0
1314 2276 -1315 1380 0
1314 -2276 -1315 -1380 0
1314 -2276 -2296 1315 1380 0
-1315 2295 1316 0
-1315 -2277 1316 -1375 0
-1315 2277 1316 1375 0
-1315 -2277 -2295 -1316 1375 0
-1315 2277 -2295 -1316 -1375 0
1315 2295 -1316 0
1315 2277 -2295 1316 -1375 0
1315 2277 -1316 1375 0
1315 -2277 -1316 -1375 0
1315 -2277 -2295 1316 1375 0
-1316 2294 1317 0
-1316 -2278 1317 -1370 0
-1316 2278 1317 1370 0
-1316 -2278 -2294 -1317 1370 0
-1316 2278 -2294 -1317 -1370 0
1316 2294 -1317 0
1316 2278 -2294 1317 -1370 0
1316 2278 -1317 1370 0
1316 -2278 -1317 -1370 0
1316 -2278 -2294 1317 1370 0
-1317 2293 1318 0
-1317 -2279 1318 -1365 0
-1317 2279 1318 1365 0
-1317 -2279 -2293 -1318 1365 0
-1317 2279 -2293 -1318 -1365 0
1317 2293 -1318 0
1317 2279 -2293 1318 -1365 0
1317 2279 -1318 1365 0
1317 -2279 -1318 -1365 0
1317 -2279 -2293 1318 1365 0
-1318 2292 1319 0
-1318 -2280 1319 -1358 0
-1318 2280 1319 1358 0
-1318 -2280 -2292 -1319 1358 0
-1318 2280 -2292 -1319 -1358 0
1318 2292 -1319 0
1318 2280 -2292 1319 -1358 0
1318 2280 -1319 1358 0
1318 -2280 -1319 -1358 0
1318 -2280 -2292 1319 1358 0
-1319 2291 1320 0
-1319 -2281 1320 -1351 0
-1319 2281 1320 1351 0
-1319 -2281 -2291 -1320 1351 0
-1319 2281 -2291 -1320 -1351 0
1319 2291 -1320 0
1319 2281 -2291 1320 -1351 0
1319 2281 -1320 1351 0
1319 -2281 -1320 -1351 0
1319 -2281 -2291 1320 1351 0
-1320 2290 1321 0
-1320 -2282 1321 -1344 0
-1320 2282 1321 1344 0
-1320 -2282 -2290 -1321 1344 0
-1320 2282 -2290 -1321 -1344 0
1320 2290 -1321 0
1320 2282 -2290 1321 -1344 0
1320 2282 -1321 1344 0
1320 -2282 -1321 -1344 0
1320 -2282 -2290 1321 1344 0
-1321 2289 1322 0
-1321 -2283 1322 -1337 0
-1321 2283 1322 1337 0
-1321 -2283 -2289 -1322 1337 0
-1321 2283 -2289 -1322 -1337 0
1321 2289 -1322 0
1321 2283 -2289 1322 -1337 0
1321 2283 -1322 1337 0
1321 -2283 -1322 -1337 0
1321 -2283 -2289 1322 1337 0
-1322 2288 1323 0
-1322 2284 -2288 -1323 -1330 0
-1322 2284 1323 1330 0
-1322 -2284 1323 -1330 0
-1322 -2284 -2288 -1323 1330 0
1322 2288 -1323 0
1322 -2284 -1323 -1330 0
1322 2284 -1323 1330 0
1322 -2284 -2288 1323 1330 0
1322 2284 -2288 1323 -1330 0
1323 -2287 -1324 0
1323 -2287 -350 -1329 0
-1323 2287 0
-1323 350 1324 0
-1323 1324 1329 0
-1324 770 1325 0
-1324 1325 1328 0
1324 -1325 0
1324 -770 -1328 0
-1325 1048 1180 1326 0
-1325 1180 1326 1327 0
1325 -1326 0
1325 -1180 0
1325 -1048 -1327 0
1326 -1182 -1179 0
-1326 1182 0
-1326 1179 0
1327 -1046 -1179 0
-1327 1046 0
-1327 1179 0
1328 -1050 -1327 0
-1328 1050 0
-1328 1327 0
1329 -774 -1328 0
-1329 774 0
-1329 1328 0
-1330 780 1333 0
-1330 1331 1333 0
-1330 356 1333 0
1330 -1333 0
1330 -356 -780 -1331 0
1331 -1054 -1332 0
-1331 1054 0
-1331 1332 0
1332 -1188 -1184 0
-1332 1188 0
-1332 1184 0
-1333 776 1334 1336 0
-1333 1334 1336 1331 0
1333 -1334 0
1333 -1336 0
1333 -776 -1331 0
-1334 1335 1184 0
-1334 1186 1335 0
1334 -1335 0
1334 -1186 -1184 0
1335 -2283 -1176 0
-1335 2283 0
-1335 1176 0
1336 -1052 -1332 0
-1336 1052 0
-1336 1332 0
-1337 786 1340 0
-1337 1338 1340 0
-1337 361 1340 0
1337 -1340 0
1337 -361 -786 -1338 0
1338 -1057 -1339 0
-1338 1057 0
-1338 1339 0
1339 -1193 -1189 0
-1339 1193 0
-1339 1189 0
-1340 782 1341 0
-1340 1341 1338 0
1340 -1341 0
1340 -782 -1338 0
-1341 1056 1342 1343 0
-1341 1342 1343 1339 0
1341 -1343 0
1341 -1342 0
1341 -1056 -1339 0
1342 -2282 -1175 0
-1342 2282 0
-1342 1175 0
1343 -1191 -1189 0
-1343 1191 0
-1343 1189 0
-1344 792 1347 0
-1344 1345 1347 0
-1344 364 1347 0
1344 -1347 0
1344 -364 -792 -1345 0
1345 -1060 -1346 0
-1345 1060 0
-1345 1346 0
1346 -1198 -1194 0
-1346 1198 0
-1346 1194 0
-1347 788 1348 0
-1347 1348 1345 0
1347 -1348 0
1347 -788 -1345 0
-1348 1059 1349 1350 0
-1348 1349 1350 1346 0
1348 -1350 0
1348 -1349 0
1348 -1059 -1346 0
1349 -2281 -1174 0
-1349 2281 0
-1349 1174 0
1350 -1196 -1194 0
-1350 1196 0
-1350 1194 0
-1351 798 1354 0
-1351 1352 1354 0
-1351 367 1354 0
1351 -1354 0
1351 -367 -798 -1352 0
1352 -1063 -1353 0
-1352 1063 0
-1352 1353 0
1353 -1203 -1199 0
-1353 1203 0
-1353 1199 0
-1354 794 1355 1357 0
-1354 1355 1357 1352 0
1354 -1355 0
1354 -1357 0
1354 -794 -1352 0
-1355 1356 1199 0
-1355 1201 1356 0
1355 -1356 0
1355 -1201 -1199 0
1356 -2280 -1173 0
-1356 2280 0
-1356 1173 0
1357 -1062 -1353 0
-1357 1062 0
-1357 1353 0
-1358 804 1361 0
-1358 336 1361 0
-1358 1359 1361 0
1358 -1361 0
1358 -336 -804 -1359 0
1359 -1066 -1360 0
-1359 1066 0
-1359 1360 0
1360 -1208 -1204 0
-1360 1208 0
-1360 1204 0
-1361 800 1362 1364 0
-1361 1362 1364 1359 0
1361 -1362 0
1361 -1364 0
1361 -800 -1359 0
-1362 1363 1204 0
-1362 1206 1363 0
1362 -1363 0
1362 -1206 -1204 0
1363 -2279 -1172 0
-1363 2279 0
-1363 1172 0
1364 -1065 -1360 0
-1364 1065 0
-1364 1360 0
-1365 1070 1367 0
-1365 1366 1367 0
-1365 805 1367 0
1365 -1367 0
1365 -805 -1070 -1366 0
1366 -1213 -1209 0
-1366 1213 0
-1366 1209 0
-1367 1211 1368 1369 0
-1367 1368 1209 1369 0
1367 -1369 0
1367 -1368 0
1367 -1211 -1209 0
1368 -2278 -1171 0
-1368 2278 0
-1368 1171 0
1369 -1068 -1366 0
-1369 1068 0
-1369 1366 0
-1370 1073 1372 0
-1370 1371 1372 0
-1370 808 1372 0
1370 -1372 0
1370 -808 -1073 -1371 0
1371 -1218 -1214 0
-1371 1218 0
-1371 1214 0
-1372 1216 1373 1374 0
-1372 1373 1214 1374 0
1372 -1374 0
1372 -1373 0
1372 -1216 -1214 0
1373 -2277 -1170 0
-1373 2277 0
-1373 1170 0
1374 -1072 -1371 0
-1374 1072 0
-1374 1371 0
-1375 1077 1377 0
-1375 1376 1377 0
-1375 811 1377 0
1375 -1377 0
1375 -811 -1077 -1376 0
1376 -1223 -1219 0
-1376 1223 0
-1376 1219 0
-1377 1221 1378 1379 0
-1377 1378 1219 1379 0
1377 -1379 0
1377 -1378 0
1377 -1221 -1219 0
1378 -2276 -1169 0
-1378 2276 0
-1378 1169 0
1379 -1075 -1376 0
-1379 1075 0
-1379 1376 0
-1380 1081 1382 0
-1380 751 1382 0
-1380 1381 1382 0
1380 -1382 0
1380 -751 -1081 -1381 0
1381 -1228 -1224 0
-1381 1228 0
-1381 1224 0
-1382 1226 1383 1384 0
-1382 1383 1224 1384 0
1382 -1384 0
1382 -1383 0
1382 -1226 -1224 0
1383 -2275 -1168 0
-1383 2275 0
-1383 1168 0
1384 -1079 -1381 0
-1384 1079 0
-1384 1381 0
-1385 1233 1386 0
-1385 1082 1386 0
-1385 1229 1386 0
1385 -1386 0
1385 -1233 -1082 -1229 0
-1386 1387 1229 0
-1386 1231 1387 0
1386 -1387 0
1386 -1231 -1229 0
1387 -2274 -1167 0
-1387 2274 0
-1387 1167 0
-1388 1238 1389 0
-1388 1031 1389 0
-1388 1234 1389 0
1388 -1389 0
1388 -1031 -1238 -1234 0
-1389 1390 1234 0
-1389 1236 1390 0
1389 -1390 0
1389 -1236 -1234 0
1390 -2273 -1166 0
-1390 2273 0
-1390 1166 0
1391 -1392 1457 0
1391 1392 -1457 0
-1391 1392 1457 0
-1391 -1392 -1457 0
1392 1393 -1394 0
1392 -1393 1394 0
-1392 -1393 -1394 0
-1392 1393 1394 0
1393 -1243 -1306 0
-1393 1243 0
-1393 1306 0
1394 -1395 1454 0
1394 1395 -1454 0
-1394 1395 1454 0
-1394 -1395 -1454 0
1395 -1396 1451 0
1395 1396 -1451 0
-1395 1396 1451 0
-1395 -1396 -1451 0
1396 -1397 1448 0
1396 1397 -1448 0
-1396 1397 1448 0
-1396 -1397 -1448 0
1397 1398 -1435 0
1397 -1398 1435 0
-1397 -1398 -1435 0
-1397 1398 1435 0
1398 -1399 1432 0
1398 1399 -1432 0
-1398 1399 1432 0
-1398 -1399 -1432 0
1399 1400 -1419 0
1399 -1400 1419 0
-1399 -1400 -1419 0
-1399 1400 1419 0
1400 -1401 1416 0
1400 1401 -1416 0
-1400 1401 1416 0
-1400 -1401 -1416 0
1401 1402 -1411 0
1401 -1402 1411 0
-1401 -1402 -1411 0
-1401 1402 1411 0
1402 -1403 1408 0
1402 1403 -1408 0
-1402 1403 1408 0
-1402 -1403 -1408 0
1403 1404 -1407 0
1403 -1404 1407 0
-1403 -1404 -1407 0
-1403 1404 1407 0
1404 1405 -1406 0
1404 -1405 1406 0
-1404 -1405 -1406 0
-1404 1405 1406 0
1405 -2274 -2298 0
-1405 2274 0
-1405 2298 0
1406 -2275 -2297 0
-1406 2275 0
-1406 2297 0
1407 -2276 -2296 0
-1407 2276 0
-1407 2296 0
-1408 1409 1410 0
1408 -1409 0
1408 -1410 0
1409 -2273 -2274 -2297 -2298 0
-1409 2298 0
-1409 2273 0
-1409 2297 0
-1409 2274 0
1410 -2275 -2296 -1252 0
-1410 2275 0
-1410 2296 0
-1410 1252 0
1411 1412 -1415 0
1411 -1412 1415 0
-1411 -1412 -1415 0
-1411 1412 1415 0
1412 1413 -1414 0
1412 -1413 1414 0
-1412 -1413 -1414 0
-1412 1413 1414 0
1413 -2277 -2295 0
-1413 2277 0
-1413 2295 0
1414 -2278 -2294 0
-1414 2278 0
-1414 2294 0
1415 -2279 -2293 0
-1415 2279 0
-1415 2293 0
-1416 1417 1418 0
1416 -1417 0
1416 -1418 0
1417 -1251 -1256 0
-1417 1251 0
-1417 1256 0
1418 -1250 -1259 0
-1418 1250 0
-1418 1259 0
1419 -1420 1429 0
1419 1420 -1429 0
-1419 1420 1429 0
-1419 -1420 -1429 0
1420 1421 -1424 0
1420 -1421 1424 0
-1420 -1421 -1424 0
-1420 1421 1424 0
-1421 1422 1423 0
1421 -1422 0
1421 -1423 0
1422 -2276 -2277 -2294 -2295 0
-1422 2295 0
-1422 2276 0
-1422 2294 0
-1422 2277 0
1423 -2278 -2293 -1260 0
-1423 2278 0
-1423 2293 0
-1423 1260 0
1424 1425 -1428 0
1424 -1425 1428 0
-1424 -1425 -1428 0
-1424 1425 1428 0
1425 1426 -1427 0
1425 -1426 1427 0
-1425 -1426 -1427 0
-1425 1426 1427 0
1426 -2280 -2292 0
-1426 2280 0
-1426 2292 0
1427 -2281 -2291 0
-1427 2281 0
-1427 2291 0
1428 -2282 -2290 0
-1428 2282 0
-1428 2290 0
-1429 1430 1431 0
1429 -1430 0
1429 -1431 0
1430 -2279 -2280 -2291 -2292 0
-1430 2292 0
-1430 2279 0
-1430 2291 0
-1430 2280 0
1431 -2281 -2290 -1273 0
-1431 2281 0
-1431 2290 0
-1431 1273 0
-1432 1433 1434 0
1432 -1433 0
1432 -1434 0
1433 -1249 -1264 0
-1433 1249 0
-1433 1264 0
1434 -1248 -1267 0
-1434 1248 0
-1434 1267 0
1435 1436 -1437 0
1435 -1436 1437 0
-1435 -1436 -1437 0
-1435 1436 1437 0
1436 -1289 -1294 0
-1436 1289 0
-1436 1294 0
1437 1438 -1441 0
1437 -1438 1441 0
-1437 -1438 -1441 0
-1437 1438 1441 0
-1438 1439 1440 0
1438 -1439 0
1438 -1440 0
1439 -1269 -1272 0
-1439 1269 0
-1439 1272 0
1440 -1268 -1277 0
-1440 1268 0
-1440 1277 0
1441 -1442 1445 0
1441 1442 -1445 0
-1441 1442 1445 0
-1441 -1442 -1445 0
1442 1443 -1444 0
1442 -1443 1444 0
-1442 -1443 -1444 0
-1442 1443 1444 0
1443 -2283 -2289 0
-1443 2283 0
-1443 2289 0
1444 -2284 -2288 0
-1444 2284 0
-1444 2288 0
-1445 1446 1447 0
1445 -1446 0
1445 -1447 0
1446 -2282 -2283 -2288 -2289 0
-1446 2289 0
-1446 2282 0
-1446 2288 0
-1446 2283 0
1447 -2284 -2287 -1290 0
-1447 2284 0
-1447 2287 0
-1447 1290 0
-1448 1449 1450 0
1448 -1449 0
1448 -1450 0
1449 -1247 -1280 0
-1449 1247 0
-1449 1280 0
1450 -1246 -1283 0
-1450 1246 0
-1450 1283 0
-1451 1452 1453 0
1451 -1452 0
1451 -1453 0
1452 -1285 -1288 0
-1452 1285 0
-1452 1288 0
1453 -1284 -1297 0
-1453 1284 0
-1453 1297 0
-1454 1455 1456 0
1454 -1455 0
1454 -1456 0
1455 -1245 -1300 0
-1455 1245 0
-1455 1300 0
1456 -1244 -1303 0
-1456 1244 0
-1456 1303 0
-1457 886 1460 0
-1457 1458 1460 0
-1457 415 1460 0
1457 -1460 0
1457 -415 -886 -1458 0
1458 -1163 -1459 0
-1458 1163 0
-1458 1459 0
1459 -1087 -1240 0
-1459 1087 0
-1459 1240 0
-1460 882 1461 1463 0
-1460 1461 1463 1458 0
1460 -1461 0
1460 -1463 0
1460 -882 -1458 0
-1461 1462 1240 0
-1461 1310 1462 0
1461 -1462 0
1461 -1310 -1240 0
1462 -1241 -1242 0
-1462 1241 0
-1462 1242 0
1463 -1161 -1459 0
-1463 1161 0
-1463 1459 0
-1464 1465 1703 -1808 -1863 0
-1464 1465 1703 1808 1863 0
1464 -1703 0
1464 -1808 1863 0
1464 -1465 0
1464 1808 -1863 0
-1465 1466 1526 1589 1641 0
-1465 -1466 -1526 -1589 -1641 0
-1465 1466 1526 -1589 -1641 0
-1465 -1466 -1526 1589 1641 0
1465 1466 -1526 0
1465 -1466 1526 0
1465 -1589 1641 0
1465 1589 -1641 0
-1466 2298 1467 0
-1466 -2298 1521 1522 0
-1466 -2298 -1521 -1522 0
1466 2298 -1467 0
1466 -2298 1521 -1522 0
1466 -2298 -1521 1522 0
-1467 2297 1468 0
-1467 -2297 1516 1517 0
-1467 -2297 -1516 -1517 0
1467 2297 -1468 0
1467 -2297 1516 -1517 0
1467 -2297 -1516 1517 0
-1468 2296 1469 0
-1468 -2296 1511 1512 0
-1468 -2296 -1511 -1512 0
1468 2296 -1469 0
1468 -2296 1511 -1512 0
1468 -2296 -1511 1512 0
-1469 2295 1470 0
-1469 -2295 1506 1507 0
-1469 -2295 -1506 -1507 0
1469 2295 -1470 0
1469 -2295 1506 -1507 0
1469 -2295 -1506 1507 0
-1470 2294 1471 0
-1470 -2294 1501 1502 0
-1470 -2294 -1501 -1502 0
1470 2294 -1471 0
1470 -2294 1501 -1502 0
1470 -2294 -1501 1502 0
-1471 2293 1472 0
-1471 -2293 1496 1497 0
-1471 -2293 -1496 -1497 0
1471 2293 -1472 0
1471 -2293 1496 -1497 0
1471 -2293 -1496 1497 0
-1472 2292 1473 0
-1472 -2281 1473 -1492 0
-1472 2281 1473 1492 0
-1472 -2281 -2292 -1473 1492 0
-1472 2281 -2292 -1473 -1492 0
1472 2292 -1473 0
1472 2281 -2292 1473 -1492 0
1472 2281 -1473 1492 0
1472 -2281 -1473 -1492 0
1472 -2281 -2292 1473 1492 0
-1473 2291 1474 0
-1473 -2282 1474 -1488 0
-1473 2282 1474 1488 0
-1473 -2282 -2291 -1474 1488 0
-1473 2282 -2291 -1474 -1488 0
1473 2291 -1474 0
1473 2282 -2291 1474 -1488 0
1473 2282 -1474 1488 0
1473 -2282 -1474 -1488 0
1473 -2282 -2291 1474 1488 0
-1474 2290 1475 0
-1474 -2283 1475 -1484 0
-1474 2283 1475 1484 0
-1474 -2283 -2290 -1475 1484 0
-1474 2283 -2290 -1475 -1484 0
1474 2290 -1475 0
1474 2283 -2290 1475 -1484 0
1474 2283 -1475 1484 0
1474 -2283 -1475 -1484 0
1474 -2283 -2290 1475 1484 0
-1475 2289 1476 0
-1475 2284 -2289 -1476 -1480 0
-1475 2284 1476 1480 0
-1475 -2284 1476 -1480 0
-1475 -2284 -2289 -1476 1480 0
1475 2289 -1476 0
1475 -2284 -1476 -1480 0
1475 2284 -1476 1480 0
1475 -2284 -2289 1476 1480 0
1475 2284 -2289 1476 -1480 0
1476 -2288 -1477 0
1476 -2288 -1478 0
-1476 2288 0
-1476 1477 1478 0
1477 -2284 -1323 0
-1477 2284 0
-1477 1323 0
1478 -1479 -1330 0
-1478 1479 0
-1478 1330 0
1479 2284 -1323 0
1479 -2284 1323 0
-1479 -2284 -1323 0
-1479 2284 1323 0
-1480 1481 1482 0
1480 -1481 0
1480 -1482 0
1481 -2283 -1322 0
-1481 2283 0
-1481 1322 0
1482 -1483 -1337 0
-1482 1483 0
-1482 1337 0
1483 -2283 1322 0
1483 2283 -1322 0
-1483 2283 1322 0
-1483 -2283 -1322 0
-1484 1485 1486 0
1484 -1485 0
1484 -1486 0
1485 -2282 -1321 0
-1485 2282 0
-1485 1321 0
1486 -1487 -1344 0
-1486 1487 0
-1486 1344 0
1487 -2282 1321 0
1487 2282 -1321 0
-1487 2282 1321 0
-1487 -2282 -1321 0
-1488 1489 1490 0
1488 -1489 0
1488 -1490 0
1489 -2281 -1320 0
-1489 2281 0
-1489 1320 0
1490 -1491 -1351 0
-1490 1491 0
-1490 1351 0
1491 -2281 1320 0
1491 2281 -1320 0
-1491 2281 1320 0
-1491 -2281 -1320 0
-1492 1493 1494 0
1492 -1493 0
1492 -1494 0
1493 -2280 -1319 0
-1493 2280 0
-1493 1319 0
1494 -1495 -1358 0
-1494 1495 0
-1494 1358 0
1495 -2280 1319 0
1495 2280 -1319 0
-1495 2280 1319 0
-1495 -2280 -1319 0
1496 -2280 1472 0
1496 2280 -1472 0
-1496 2280 1472 0
-1496 -2280 -1472 0
-1497 1498 1499 0
1497 -1498 0
1497 -1499 0
1498 -2279 -1318 0
-1498 2279 0
-1498 1318 0
1499 -1500 -1365 0
-1499 1500 0
-1499 1365 0
1500 -2279 1318 0
1500 2279 -1318 0
-1500 2279 1318 0
-1500 -2279 -1318 0
1501 -2279 1471 0
1501 2279 -1471 0
-1501 2279 1471 0
-1501 -2279 -1471 0
-1502 1503 1504 0
1502 -1503 0
1502 -1504 0
1503 -2278 -1317 0
-1503 2278 0
-1503 1317 0
1504 -1505 -1370 0
-1504 1505 0
-1504 1370 0
1505 -2278 1317 0
1505 2278 -1317 0
-1505 2278 1317 0
-1505 -2278 -1317 0
1506 -2278 1470 0
1506 2278 -1470 0
-1506 2278 1470 0
-1506 -2278 -1470 0
-1507 1508 1509 0
1507 -1508 0
1507 -1509 0
1508 -2277 -1316 0
-1508 2277 0
-1508 1316 0
1509 -1510 -1375 0
-1509 1510 0
-1509 1375 0
1510 -2277 1316 0
1510 2277 -1316 0
-1510 2277 1316 0
-1510 -2277 -1316 0
1511 -2277 1469 0
1511 2277 -1469 0
-1511 2277 1469 0
-1511 -2277 -1469 0
-1512 1513 1514 0
1512 -1513 0
1512 -1514 0
1513 -2276 -1315 0
-1513 2276 0
-1513 1315 0
1514 -1515 -1380 0
-1514 1515 0
-1514 1380 0
1515 -2276 1315 0
1515 2276 -1315 0
-1515 2276 1315 0
-1515 -2276 -1315 0
1516 -2276 1468 0
1516 2276 -1468 0
-1516 2276 1468 0
-1516 -2276 -1468 0
-1517 1518 1519 0
1517 -1518 0
1517 -1519 0
1518 -2275 -1314 0
-1518 2275 0
-1518 1314 0
1519 -1520 -1385 0
-1519 1520 0
-1519 1385 0
1520 -2275 1314 0
1520 2275 -1314 0
-1520 2275 1314 0
-1520 -2275 -1314 0
1521 -2275 1467 0
1521 2275 -1467 0
-1521 2275 1467 0
-1521 -2275 -1467 0
-1522 1523 1524 0
1522 -1523 0
1522 -1524 0
1523 -2274 -1313 0
-1523 2274 0
-1523 1313 0
1524 -1525 -1388 0
-1524 1525 0
-1524 1388 0
1525 -2274 1313 0
1525 2274 -1313 0
-1525 2274 1313 0
-1525 -2274 -1313 0
1526 -1527 1586 0
1526 1527 -1586 0
-1526 1527 1586 0
-1526 -1527 -1586 0
1527 1528 -1529 0
1527 -1528 1529 0
-1527 -1528 -1529 0
-1527 1528 1529 0
1528 -1395 -1454 0
-1528 1395 0
-1528 1454 0
1529 -1530 1583 0
1529 1530 -1583 0
-1529 1530 1583 0
-1529 -1530 -1583 0
1530 -1531 1580 0
1530 1531 -1580 0
-1530 1531 1580 0
-1530 -1531 -1580 0
1531 -1532 1577 0
1531 1532 -1577 0
-1531 1532 1577 0
-1531 -1532 -1577 0
1532 1533 -1570 0
1532 -1533 1570 0
-1532 -1533 -1570 0
-1532 1533 1570 0
1533 -1534 1567 0
1533 1534 -1567 0
-1533 1534 1567 0
-1533 -1534 -1567 0
1534 1535 -1554 0
1534 -1535 1554 0
-1534 -1535 -1554 0
-1534 1535 1554 0
1535 -1536 1551 0
1535 1536 -1551 0
-1535 1536 1551 0
-1535 -1536 -1551 0
1536 1537 -1546 0
1536 -1537 1546 0
-1536 -1537 -1546 0
-1536 1537 1546 0
1537 -1538 1543 0
1537 1538 -1543 0
-1537 1538 1543 0
-1537 -1538 -1543 0
1538 1539 -1542 0
1538 -1539 1542 0
-1538 -1539 -1542 0
-1538 1539 1542 0
1539 1540 -1541 0
1539 -1540 1541 0
-1539 -1540 -1541 0
-1539 1540 1541 0
1540 -2275 -2298 0
-1540 2275 0
-1540 2298 0
1541 -2276 -2297 0
-1541 2276 0
-1541 2297 0
1542 -2277 -2296 0
-1542 2277 0
-1542 2296 0
-1543 1544 1545 0
1543 -1544 0
1543 -1545 0
1544 -2274 -2275 -2297 -2298 0
-1544 2298 0
-1544 2274 0
-1544 2297 0
-1544 2275 0
1545 -2276 -2296 -1404 0
-1545 2276 0
-1545 2296 0
-1545 1404 0
1546 1547 -1550 0
1546 -1547 1550 0
-1546 -1547 -1550 0
-1546 1547 1550 0
1547 1548 -1549 0
1547 -1548 1549 0
-1547 -1548 -1549 0
-1547 1548 1549 0
1548 -2278 -2295 0
-1548 2278 0
-1548 2295 0
1549 -2279 -2294 0
-1549 2279 0
-1549 2294 0
1550 -2280 -2293 0
-1550 2280 0
-1550 2293 0
-1551 1552 1553 0
1551 -1552 0
1551 -1553 0
1552 -1403 -1408 0
-1552 1403 0
-1552 1408 0
1553 -1402 -1411 0
-1553 1402 0
-1553 1411 0
1554 -1555 1564 0
1554 1555 -1564 0
-1554 1555 1564 0
-1554 -1555 -1564 0
1555 1556 -1559 0
1555 -1556 1559 0
-1555 -1556 -1559 0
-1555 1556 1559 0
-1556 1557 1558 0
1556 -1557 0
1556 -1558 0
1557 -2277 -2278 -2294 -2295 0
-1557 2295 0
-1557 2277 0
-1557 2294 0
-1557 2278 0
1558 -2279 -2293 -1412 0
-1558 2279 0
-1558 2293 0
-1558 1412 0
1559 1560 -1563 0
1559 -1560 1563 0
-1559 -1560 -1563 0
-1559 1560 1563 0
1560 1561 -1562 0
1560 -1561 1562 0
-1560 -1561 -1562 0
-1560 1561 1562 0
1561 -2281 -2292 0
-1561 2281 0
-1561 2292 0
1562 -2282 -2291 0
-1562 2282 0
-1562 2291 0
1563 -2283 -2290 0
-1563 2283 0
-1563 2290 0
-1564 1565 1566 0
1564 -1565 0
1564 -1566 0
1565 -2280 -2281 -2291 -2292 0
-1565 2292 0
-1565 2280 0
-1565 2291 0
-1565 2281 0
1566 -2282 -2290 -1425 0
-1566 2282 0
-1566 2290 0
-1566 1425 0
-1567 1568 1569 0
1567 -1568 0
1567 -1569 0
1568 -1401 -1416 0
-1568 1401 0
-1568 1416 0
1569 -1400 -1419 0
-1569 1400 0
-1569 1419 0
1570 1571 -1572 0
1570 -1571 1572 0
-1570 -1571 -1572 0
-1570 1571 1572 0
1571 -1442 -1445 0
-1571 1442 0
-1571 1445 0
1572 1573 -1576 0
1572 -1573 1576 0
-1572 -1573 -1576 0
-1572 1573 1576 0
-1573 1574 1575 0
1573 -1574 0
1573 -1575 0
1574 -1421 -1424 0
-1574 1421 0
-1574 1424 0
1575 -1420 -1429 0
-1575 1420 0
-1575 1429 0
1576 2283 -2284 -2289 0
1576 -2284 2288 -2289 0
-1576 2289 0
-1576 2284 0
-1576 -2283 -2288 0
-1577 1578 1579 0
1577 -1578 0
1577 -1579 0
1578 -1399 -1432 0
-1578 1399 0
-1578 1432 0
1579 -1398 -1435 0
-1579 1398 0
-1579 1435 0
-1580 1581 1582 0
1580 -1581 0
1580 -1582 0
1581 -1438 -1441 0
-1581 1438 0
-1581 1441 0
1582 -1436 -1437 0
-1582 1436 0
-1582 1437 0
-1583 1584 1585 0
1583 -1584 0
1583 -1585 0
1584 -1397 -1448 0
-1584 1397 0
-1584 1448 0
1585 -1396 -1451 0
-1585 1396 0
-1585 1451 0
-1586 1587 1588 0
1586 -1587 0
1586 -1588 0
1587 -1393 -1394 0
-1587 1393 0
-1587 1394 0
1588 -1392 -1457 0
-1588 1392 0
-1588 1457 0
-1589 2298 1590 0
-1589 -2276 1590 -1638 0
-1589 2276 1590 1638 0
-1589 -2276 -2298 -1590 1638 0
-1589 2276 -2298 -1590 -1638 0
1589 2298 -1590 0
1589 2276 -2298 1590 -1638 0
1589 2276 -1590 1638 0
1589 -2276 -1590 -1638 0
1589 -2276 -2298 1590 1638 0
-1590 2297 1591 0
-1590 -2277 1591 -1634 0
-1590 2277 1591 1634 0
-1590 -2277 -2297 -1591 1634 0
-1590 2277 -2297 -1591 -1634 0
1590 2297 -1591 0
1590 2277 -2297 1591 -1634 0
1590 2277 -1591 1634 0
1590 -2277 -1591 -1634 0
1590 -2277 -2297 1591 1634 0
-1591 2296 1592 0
-1591 -2278 1592 -1631 0
-1591 2278 1592 1631 0
-1591 -2278 -2296 -1592 1631 0
-1591 2278 -2296 -1592 -1631 0
1591 2296 -1592 0
1591 2278 -2296 1592 -1631 0
1591 2278 -1592 1631 0
1591 -2278 -1592 -1631 0
1591 -2278 -2296 1592 1631 0
-1592 2295 1593 0
-1592 -2279 1593 -1627 0
-1592 2279 1593 1627 0
-1592 -2279 -2295 -1593 1627 0
-1592 2279 -2295 -1593 -1627 0
1592 2295 -1593 0
1592 2279 -2295 1593 -1627 0
1592 2279 -1593 1627 0
1592 -2279 -1593 -1627 0
1592 -2279 -2295 1593 1627 0
-1593 2294 1594 0
-1593 -2280 1594 -1623 0
-1593 2280 1594 1623 0
-1593 -2280 -2294 -1594 1623 0
-1593 2280 -2294 -1594 -1623 0
1593 2294 -1594 0
1593 2280 -2294 1594 -1623 0
1593 2280 -1594 1623 0
1593 -2280 -1594 -1623 0
1593 -2280 -2294 1594 1623 0
-1594 2293 1595 0
-1594 -2281 1595 -1619 0
-1594 2281 1595 1619 0
-1594 -2281 -2293 -1595 1619 0
-1594 2281 -2293 -1595 -1619 0
1594 2293 -1595 0
1594 2281 -2293 1595 -1619 0
1594 2281 -1595 1619 0
1594 -2281 -1595 -1619 0
1594 -2281 -2293 1595 1619 0
-1595 2292 1596 0
-1595 -2282 1596 -1613 0
-1595 2282 1596 1613 0
-1595 -2282 -2292 -1596 1613 0
-1595 2282 -2292 -1596 -1613 0
1595 2292 -1596 0
1595 2282 -2292 1596 -1613 0
1595 2282 -1596 1613 0
1595 -2282 -1596 -1613 0
1595 -2282 -2292 1596 1613 0
-1596 2291 1597 0
-1596 -2283 1597 -1608 0
-1596 2283 1597 1608 0
-1596 -2283 -2291 -1597 1608 0
-1596 2283 -2291 -1597 -1608 0
1596 2291 -1597 0
1596 2283 -2291 1597 -1608 0
1596 2283 -1597 1608 0
1596 -2283 -1597 -1608 0
1596 -2283 -2291 1597 1608 0
-1597 2290 1598 0
-1597 2284 -2290 -1598 -1603 0
-1597 2284 1598 1603 0
-1597 -2284 1598 -1603 0
-1597 -2284 -2290 -1598 1603 0
1597 2290 -1598 0
1597 -2284 -1598 -1603 0
1597 2284 -1598 1603 0
1597 -2284 -2290 1598 1603 0
1597 2284 -2290 1598 -1603 0
1598 -2289 -1599 0
1598 -2289 -1337 -1602 0
-1598 2289 0
-1598 1337 1599 0
-1598 1599 1602 0
-1599 1600 1601 0
-1599 1481 1600 0
1599 -1600 0
1599 -1481 -1601 0
1600 -2284 -1476 0
-1600 2284 0
-1600 1476 0
1601 2284 -1476 0
1601 -2284 1476 0
-1601 -2284 -1476 0
-1601 2284 1476 0
1602 -1483 -1601 0
-1602 1483 0
-1602 1601 0
-1603 1487 1605 0
-1603 1344 1605 0
-1603 1604 1605 0
1603 -1605 0
1603 -1487 -1344 -1604 0
1604 -2283 1475 0
1604 2283 -1475 0
-1604 2283 1475 0
-1604 -2283 -1475 0
-1605 1606 1607 0
1605 -1606 0
1605 -1607 0
1606 -2283 -1475 0
-1606 2283 0
-1606 1475 0
1607 -1485 -1604 0
-1607 1485 0
-1607 1604 0
-1608 1351 1609 0
-1608 1609 1612 0
1608 -1609 0
1608 -1351 -1612 0
-1609 1610 1611 0
-1609 1489 1610 0
1609 -1610 0
1609 -1489 -1611 0
1610 -2282 -1474 0
-1610 2282 0
-1610 1474 0
1611 -2282 1474 0
1611 2282 -1474 0
-1611 2282 1474 0
-1611 -2282 -1474 0
1612 -1491 -1611 0
-1612 1491 0
-1612 1611 0
-1613 1358 1614 0
-1613 1614 1618 0
1613 -1614 0
1613 -1358 -1618 0
-1614 1615 1616 0
1614 -1615 0
1614 -1616 0
1615 -2281 -1473 0
-1615 2281 0
-1615 1473 0
1616 -1493 -1617 0
-1616 1493 0
-1616 1617 0
1617 -2281 1473 0
1617 2281 -1473 0
-1617 2281 1473 0
-1617 -2281 -1473 0
1618 -1495 -1617 0
-1618 1495 0
-1618 1617 0
-1619 1365 1620 0
-1619 1620 1622 0
1619 -1620 0
1619 -1365 -1622 0
-1620 1621 1496 0
-1620 1498 1621 0
1620 -1621 0
1620 -1498 -1496 0
1621 -2280 -1472 0
-1621 2280 0
-1621 1472 0
1622 -1500 -1496 0
-1622 1500 0
-1622 1496 0
-1623 1370 1624 0
-1623 1624 1626 0
1623 -1624 0
1623 -1370 -1626 0
-1624 1625 1501 0
-1624 1503 1625 0
1624 -1625 0
1624 -1503 -1501 0
1625 -2279 -1471 0
-1625 2279 0
-1625 1471 0
1626 -1505 -1501 0
-1626 1505 0
-1626 1501 0
-1627 1375 1628 0
-1627 1628 1630 0
1627 -1628 0
1627 -1375 -1630 0
-1628 1629 1506 0
-1628 1508 1629 0
1628 -1629 0
1628 -1508 -1506 0
1629 -2278 -1470 0
-1629 2278 0
-1629 1470 0
1630 -1510 -1506 0
-1630 1510 0
-1630 1506 0
-1631 1380 1632 0
-1631 1632 1633 0
1631 -1632 0
1631 -1380 -1633 0
-1632 1513 1469 0
-1632 2277 1513 0
-1632 2277 1469 0
1632 -2277 -1513 0
1632 -1513 -1469 0
1632 -2277 -1469 0
1633 -1515 -1511 0
-1633 1515 0
-1633 1511 0
-1634 1385 1635 0
-1634 1635 1637 0
1634 -1635 0
1634 -1385 -1637 0
-1635 1636 1516 0
-1635 1518 1636 0
1635 -1636 0
1635 -1518 -1516 0
1636 -2276 -1468 0
-1636 2276 0
-1636 1468 0
1637 -1520 -1516 0
-1637 1520 0
-1637 1516 0
-1638 1388 1639 0
-1638 1639 1640 0
1638 -1639 0
1638 -1388 -1640 0
-1639 1523 1467 0
-1639 2275 1523 0
-1639 2275 1467 0
1639 -2275 -1523 0
1639 -1523 -1467 0
1639 -2275 -1467 0
1640 -1525 -1521 0
-1640 1525 0
-1640 1521 0
1641 -1642 1699 0
1641 1642 -1699 0
-1641 1642 1699 0
-1641 -1642 -1699 0
1642 1643 -1644 0
1642 -1643 1644 0
-1642 -1643 -1644 0
-1642 1643 1644 0
1643 -1530 -1583 0
-1643 1530 0
-1643 1583 0
1644 -1645 1696 0
1644 1645 -1696 0
-1644 1645 1696 0
-1644 -1645 -1696 0
1645 -1646 1693 0
1645 1646 -1693 0
-1645 1646 1693 0
-1645 -1646 -1693 0
1646 -1647 1690 0
1646 1647 -1690 0
-1646 1647 1690 0
-1646 -1647 -1690 0
1647 1648 -1685 0
1647 -1648 1685 0
-1647 -1648 -1685 0
-1647 1648 1685 0
1648 -1649 1682 0
1648 1649 -1682 0
-1648 1649 1682 0
-1648 -1649 -1682 0
1649 1650 -1669 0
1649 -1650 1669 0
-1649 -1650 -1669 0
-1649 1650 1669 0
1650 -1651 1666 0
1650 1651 -1666 0
-1650 1651 1666 0
-1650 -1651 -1666 0
1651 1652 -1661 0
1651 -1652 1661 0
-1651 -1652 -1661 0
-1651 1652 1661 0
1652 -1653 1658 0
1652 1653 -1658 0
-1652 1653 1658 0
-1652 -1653 -1658 0
1653 1654 -1657 0
1653 -1654 1657 0
-1653 -1654 -1657 0
-1653 1654 1657 0
1654 1655 -1656 0
1654 -1655 1656 0
-1654 -1655 -1656 0
-1654 1655 1656 0
1655 -2276 -2298 0
-1655 2276 0
-1655 2298 0
1656 -2277 -2297 0
-1656 2277 0
-1656 2297 0
1657 -2278 -2296 0
-1657 2278 0
-1657 2296 0
-1658 1659 1660 0
1658 -1659 0
1658 -1660 0
1659 -2275 -2276 -2297 -2298 0
-1659 2298 0
-1659 2275 0
-1659 2297 0
-1659 2276 0
1660 -2277 -2296 -1539 0
-1660 2277 0
-1660 2296 0
-1660 1539 0
1661 1662 -1665 0
1661 -1662 1665 0
-1661 -1662 -1665 0
-1661 1662 1665 0
1662 1663 -1664 0
1662 -1663 1664 0
-1662 -1663 -1664 0
-1662 1663 1664 0
1663 -2279 -2295 0
-1663 2279 0
-1663 2295 0
1664 -2280 -2294 0
-1664 2280 0
-1664 2294 0
1665 -2281 -2293 0
-1665 2281 0
-1665 2293 0
-1666 1667 1668 0
1666 -1667 0
1666 -1668 0
1667 -1538 -1543 0
-1667 1538 0
-1667 1543 0
1668 -1537 -1546 0
-1668 1537 0
-1668 1546 0
1669 -1670 1679 0
1669 1670 -1679 0
-1669 1670 1679 0
-1669 -1670 -1679 0
1670 1671 -1674 0
1670 -1671 1674 0
-1670 -1671 -1674 0
-1670 1671 1674 0
-1671 1672 1673 0
1671 -1672 0
1671 -1673 0
1672 -2278 -2279 -2294 -2295 0
-1672 2295 0
-1672 2278 0
-1672 2294 0
-1672 2279 0
1673 -2280 -2293 -1547 0
-1673 2280 0
-1673 2293 0
-1673 1547 0
1674 1675 -1678 0
1674 -1675 1678 0
-1674 -1675 -1678 0
-1674 1675 1678 0
1675 1676 -1677 0
1675 -1676 1677 0
-1675 -1676 -1677 0
-1675 1676 1677 0
1676 -2282 -2292 0
-1676 2282 0
-1676 2292 0
1677 -2283 -2291 0
-1677 2283 0
-1677 2291 0
1678 -2284 -2290 0
-1678 2284 0
-1678 2290 0
-1679 1680 1681 0
1679 -1680 0
1679 -1681 0
1680 -2281 -2282 -2291 -2292 0
-1680 2292 0
-1680 2281 0
-1680 2291 0
-1680 2282 0
1681 -2283 -2290 -1560 0
-1681 2283 0
-1681 2290 0
-1681 1560 0
-1682 1683 1684 0
1682 -1683 0
1682 -1684 0
1683 -1536 -1551 0
-1683 1536 0
-1683 1551 0
1684 -1535 -1554 0
-1684 1535 0
-1684 1554 0
1685 -1686 1687 0
1685 1686 -1687 0
-1685 1686 1687 0
-1685 -1686 -1687 0
1686 -2283 -2284 -2288 -2289 0
-1686 2289 0
-1686 2283 0
-1686 2288 0
-1686 2284 0
-1687 1688 1689 0
1687 -1688 0
1687 -1689 0
1688 -1556 -1559 0
-1688 1556 0
-1688 1559 0
1689 -1555 -1564 0
-1689 1555 0
-1689 1564 0
-1690 1691 1692 0
1690 -1691 0
1690 -1692 0
1691 -1534 -1567 0
-1691 1534 0
-1691 1567 0
1692 -1533 -1570 0
-1692 1533 0
-1692 1570 0
-1693 1694 1695 0
1693 -1694 0
1693 -1695 0
1694 -1573 -1576 0
-1694 1573 0
-1694 1576 0
1695 -1571 -1572 0
-1695 1571 0
-1695 1572 0
-1696 1697 1698 0
1696 -1697 0
1696 -1698 0
1697 -1532 -1577 0
-1697 1532 0
-1697 1577 0
1698 -1531 -1580 0
-1698 1531 0
-1698 1580 0
-1699 1457 1700 0
-1699 1700 1702 0
1699 -1700 0
1699 -1457 -1702 0
-1700 1701 1527 0
-1700 1587 1701 0
1700 -1701 0
1700 -1587 -1527 0
1701 -1528 -1529 0
-1701 1528 0
-1701 1529 0
1702 -1392 -1527 0
-1702 1392 0
-1702 1527 0
-1703 -1704 -1753 0
-1703 1704 1753 0
1703 1704 -1753 0
1703 -1704 1753 0
-1704 2298 1705 0
-1704 -2298 1748 1749 0
-1704 -2298 -1748 -1749 0
1704 2298 -1705 0
1704 -2298 1748 -1749 0
1704 -2298 -1748 1749 0
-1705 2297 1706 0
-1705 -2297 1743 1744 0
-1705 -2297 -1743 -1744 0
1705 2297 -1706 0
1705 -2297 1743 -1744 0
1705 -2297 -1743 1744 0
-1706 2296 1707 0
-1706 -2296 1738 1739 0
-1706 -2296 -1738 -1739 0
1706 2296 -1707 0
1706 -2296 1738 -1739 0
1706 -2296 -1738 1739 0
-1707 2295 1708 0
-1707 -2295 1733 1734 0
-1707 -2295 -1733 -1734 0
1707 2295 -1708 0
1707 -2295 1733 -1734 0
1707 -2295 -1733 1734 0
-1708 2294 1709 0
-1708 -2294 1728 1729 0
-1708 -2294 -1728 -1729 0
1708 2294 -1709 0
1708 -2294 1728 -1729 0
1708 -2294 -1728 1729 0
-1709 2293 1710 0
-1709 -2282 1710 -1724 0
-1709 2282 1710 1724 0
-1709 -2282 -2293 -1710 1724 0
-1709 2282 -2293 -1710 -1724 0
1709 2293 -1710 0
1709 2282 -2293 1710 -1724 0
1709 2282 -1710 1724 0
1709 -2282 -1710 -1724 0
1709 -2282 -2293 1710 1724 0
-1710 2292 1711 0
-1710 -2283 1711 -1720 0
-1710 2283 1711 1720 0
-1710 -2283 -2292 -1711 1720 0
-1710 2283 -2292 -1711 -1720 0
1710 2292 -1711 0
1710 2283 -2292 1711 -1720 0
1710 2283 -1711 1720 0
1710 -2283 -1711 -1720 0
1710 -2283 -2292 1711 1720 0
-1711 2291 1712 0
-1711 2284 -2291 -1712 -1716 0
-1711 2284 1712 1716 0
-1711 -2284 1712 -1716 0
-1711 -2284 -2291 -1712 1716 0
1711 2291 -1712 0
1711 -2284 -1712 -1716 0
1711 2284 -1712 1716 0
1711 -2284 -2291 1712 1716 0
1711 2284 -2291 1712 -1716 0
1712 -2290 -1713 0
1712 -2290 -1714 0
-1712 2290 0
-1712 1713 1714 0
1713 -2284 -1598 0
-1713 2284 0
-1713 1598 0
1714 -1715 -1603 0
-1714 1715 0
-1714 1603 0
1715 2284 -1598 0
1715 -2284 1598 0
-1715 -2284 -1598 0
-1715 2284 1598 0
-1716 1717 1718 0
1716 -1717 0
1716 -1718 0
1717 -2283 -1597 0
-1717 2283 0
-1717 1597 0
1718 -1719 -1608 0
-1718 1719 0
-1718 1608 0
1719 -2283 1597 0
1719 2283 -1597 0
-1719 2283 1597 0
-1719 -2283 -1597 0
-1720 1721 1722 0
1720 -1721 0
1720 -1722 0
1721 -2282 -1596 0
-1721 2282 0
-1721 1596 0
1722 -1723 -1613 0
-1722 1723 0
-1722 1613 0
1723 -2282 1596 0
1723 2282 -1596 0
-1723 2282 1596 0
-1723 -2282 -1596 0
-1724 1725 1726 0
1724 -1725 0
1724 -1726 0
1725 -2281 -1595 0
-1725 2281 0
-1725 1595 0
1726 -1727 -1619 0
-1726 1727 0
-1726 1619 0
1727 -2281 1595 0
1727 2281 -1595 0
-1727 2281 1595 0
-1727 -2281 -1595 0
1728 -2281 1709 0
1728 2281 -1709 0
-1728 2281 1709 0
-1728 -2281 -1709 0
-1729 1730 1731 0
1729 -1730 0
1729 -1731 0
1730 -2280 -1594 0
-1730 2280 0
-1730 1594 0
1731 -1732 -1623 0
-1731 1732 0
-1731 1623 0
1732 -2280 1594 0
1732 2280 -1594 0
-1732 2280 1594 0
-1732 -2280 -1594 0
1733 -2280 1708 0
1733 2280 -1708 0
-1733 2280 1708 0
-1733 -2280 -1708 0
-1734 1735 1736 0
1734 -1735 0
1734 -1736 0
1735 -2279 -1593 0
-1735 2279 0
-1735 1593 0
1736 -1737 -1627 0
-1736 1737 0
-1736 1627 0
1737 -2279 1593 0
1737 2279 -1593 0
-1737 2279 1593 0
-1737 -2279 -1593 0
1738 -2279 1707 0
1738 2279 -1707 0
-1738 2279 1707 0
-1738 -2279 -1707 0
-1739 1740 1741 0
1739 -1740 0
1739 -1741 0
1740 -2278 -1592 0
-1740 2278 0
-1740 1592 0
1741 -1742 -1631 0
-1741 1742 0
-1741 1631 0
1742 -2278 1592 0
1742 2278 -1592 0
-1742 2278 1592 0
-1742 -2278 -1592 0
1743 -2278 1706 0
1743 2278 -1706 0
-1743 2278 1706 0
-1743 -2278 -1706 0
-1744 1745 1746 0
1744 -1745 0
1744 -1746 0
1745 -2277 -1591 0
-1745 2277 0
-1745 1591 0
1746 -1747 -1634 0
-1746 1747 0
-1746 1634 0
1747 -2277 1591 0
1747 2277 -1591 0
-1747 2277 1591 0
-1747 -2277 -1591 0
1748 -2277 1705 0
1748 2277 -1705 0
-1748 2277 1705 0
-1748 -2277 -1705 0
-1749 1750 1751 0
1749 -1750 0
1749 -1751 0
1750 -2276 -1590 0
-1750 2276 0
-1750 1590 0
1751 -1752 -1638 0
-1751 1752 0
-1751 1638 0
1752 -2276 1590 0
1752 2276 -1590 0
-1752 2276 1590 0
-1752 -2276 -1590 0
1753 -1754 1805 0
1753 1754 -1805 0
-1753 1754 1805 0
-1753 -1754 -1805 0
1754 1755 -1756 0
1754 -1755 1756 0
-1754 -1755 -1756 0
-1754 1755 1756 0
1755 -1645 -1696 0
-1755 1645 0
-1755 1696 0
1756 -1757 1802 0
1756 1757 -1802 0
-1756 1757 1802 0
-1756 -1757 -1802 0
1757 1758 -1759 0
1757 -1758 1759 0
-1757 -1758 -1759 0
-1757 1758 1759 0
1758 -1686 -1687 0
-1758 1686 0
-1758 1687 0
1759 -1760 1799 0
1759 1760 -1799 0
-1759 1760 1799 0
-1759 -1760 -1799 0
1760 -1761 1796 0
1760 1761 -1796 0
-1760 1761 1796 0
-1760 -1761 -1796 0
1761 -1762 1793 0
1761 1762 -1793 0
-1761 1762 1793 0
-1761 -1762 -1793 0
1762 1763 -1782 0
1762 -1763 1782 0
-1762 -1763 -1782 0
-1762 1763 1782 0
1763 -1764 1779 0
1763 1764 -1779 0
-1763 1764 1779 0
-1763 -1764 -1779 0
1764 1765 -1774 0
1764 -1765 1774 0
-1764 -1765 -1774 0
-1764 1765 1774 0
1765 -1766 1771 0
1765 1766 -1771 0
-1765 1766 1771 0
-1765 -1766 -1771 0
1766 1767 -1770 0
1766 -1767 1770 0
-1766 -1767 -1770 0
-1766 1767 1770 0
1767 1768 -1769 0
1767 -1768 1769 0
-1767 -1768 -1769 0
-1767 1768 1769 0
1768 -2277 -2298 0
-1768 2277 0
-1768 2298 0
1769 -2278 -2297 0
-1769 2278 0
-1769 2297 0
1770 -2279 -2296 0
-1770 2279 0
-1770 2296 0
-1771 1772 1773 0
1771 -1772 0
1771 -1773 0
1772 -2276 -2277 -2297 -2298 0
-1772 2298 0
-1772 2276 0
-1772 2297 0
-1772 2277 0
1773 -2278 -2296 -1654 0
-1773 2278 0
-1773 2296 0
-1773 1654 0
1774 1775 -1778 0
1774 -1775 1778 0
-1774 -1775 -1778 0
-1774 1775 1778 0
1775 1776 -1777 0
1775 -1776 1777 0
-1775 -1776 -1777 0
-1775 1776 1777 0
1776 -2280 -2295 0
-1776 2280 0
-1776 2295 0
1777 -2281 -2294 0
-1777 2281 0
-1777 2294 0
1778 -2282 -2293 0
-1778 2282 0
-1778 2293 0
-1779 1780 1781 0
1779 -1780 0
1779 -1781 0
1780 -1653 -1658 0
-1780 1653 0
-1780 1658 0
1781 -1652 -1661 0
-1781 1652 0
-1781 1661 0
1782 -1783 1790 0
1782 1783 -1790 0
-1782 1783 1790 0
-1782 -1783 -1790 0
1783 1784 -1787 0
1783 -1784 1787 0
-1783 -1784 -1787 0
-1783 1784 1787 0
-1784 1785 1786 0
1784 -1785 0
1784 -1786 0
1785 -2279 -2280 -2294 -2295 0
-1785 2295 0
-1785 2279 0
-1785 2294 0
-1785 2280 0
1786 -2281 -2293 -1662 0
-1786 2281 0
-1786 2293 0
-1786 1662 0
1787 1788 -1789 0
1787 -1788 1789 0
-1787 -1788 -1789 0
-1787 1788 1789 0
1788 -2283 -2292 0
-1788 2283 0
-1788 2292 0
1789 -2284 -2291 0
-1789 2284 0
-1789 2291 0
-1790 1791 1792 0
1790 -1791 0
1790 -1792 0
1791 -2282 -2283 -2291 -2292 0
-1791 2292 0
-1791 2282 0
-1791 2291 0
-1791 2283 0
1792 -2284 -2290 -1675 0
-1792 2284 0
-1792 2290 0
-1792 1675 0
-1793 1794 1795 0
1793 -1794 0
1793 -1795 0
1794 -1651 -1666 0
-1794 1651 0
-1794 1666 0
1795 -1650 -1669 0
-1795 1650 0
-1795 1669 0
-1796 1797 1798 0
1796 -1797 0
1796 -1798 0
1797 -1671 -1674 0
-1797 1671 0
-1797 1674 0
1798 -1670 -1679 0
-1798 1670 0
-1798 1679 0
-1799 1800 1801 0
1799 -1800 0
1799 -1801 0
1800 -1649 -1682 0
-1800 1649 0
-1800 1682 0
1801 -1648 -1685 0
-1801 1648 0
-1801 1685 0
-1802 1803 1804 0
1802 -1803 0
1802 -1804 0
1803 -1647 -1690 0
-1803 1647 0
-1803 1690 0
1804 -1646 -1693 0
-1804 1646 0
-1804 1693 0
-1805 1806 1807 0
1805 -1806 0
1805 -1807 0
1806 -1643 -1644 0
-1806 1643 0
-1806 1644 0
1807 -1642 -1699 0
-1807 1642 0
-1807 1699 0
-1808 2298 1809 0
-1808 -2278 1809 -1857 0
-1808 2278 1809 1857 0
-1808 -2278 -2298 -1809 1857 0
-1808 2278 -2298 -1809 -1857 0
1808 2298 -1809 0
1808 2278 -2298 1809 -1857 0
1808 2278 -1809 1857 0
1808 -2278 -1809 -1857 0
1808 -2278 -2298 1809 1857 0
-1809 2297 1810 0
-1809 -2279 1810 -1851 0
-1809 2279 1810 1851 0
-1809 -2279 -2297 -1810 1851 0
-1809 2279 -2297 -1810 -1851 0
1809 2297 -1810 0
1809 2279 -2297 1810 -1851 0
1809 2279 -1810 1851 0
1809 -2279 -1810 -1851 0
1809 -2279 -2297 1810 1851 0
-1810 2296 1811 0
-1810 -2280 1811 -1845 0
-1810 2280 1811 1845 0
-1810 -2280 -2296 -1811 1845 0
-1810 2280 -2296 -1811 -1845 0
1810 2296 -1811 0
1810 2280 -2296 1811 -1845 0
1810 2280 -1811 1845 0
1810 -2280 -1811 -1845 0
1810 -2280 -2296 1811 1845 0
-1811 2295 1812 0
-1811 -2281 1812 -1839 0
-1811 2281 1812 1839 0
-1811 -2281 -2295 -1812 1839 0
-1811 2281 -2295 -1812 -1839 0
1811 2295 -1812 0
1811 2281 -2295 1812 -1839 0
1811 2281 -1812 1839 0
1811 -2281 -1812 -1839 0
1811 -2281 -2295 1812 1839 0
-1812 2294 1813 0
-1812 -2282 1813 -1834 0
-1812 2282 1813 1834 0
-1812 -2282 -2294 -1813 1834 0
-1812 2282 -2294 -1813 -1834 0
1812 2294 -1813 0
1812 2282 -2294 1813 -1834 0
1812 2282 -1813 1834 0
1812 -2282 -1813 -1834 0
1812 -2282 -2294 1813 1834 0
-1813 2293 1814 0
-1813 -2283 1814 -1828 0
-1813 2283 1814 1828 0
-1813 -2283 -2293 -1814 1828 0
-1813 2283 -2293 -1814 -1828 0
1813 2293 -1814 0
1813 2283 -2293 1814 -1828 0
1813 2283 -1814 1828 0
1813 -2283 -1814 -1828 0
1813 -2283 -2293 1814 1828 0
-1814 2292 1815 0
-1814 2284 -2292 -1815 -1822 0
-1814 2284 1815 1822 0
-1814 -2284 1815 -1822 0
-1814 -2284 -2292 -1815 1822 0
1814 2292 -1815 0
1814 -2284 -1815 -1822 0
1814 2284 -1815 1822 0
1814 -2284 -2292 1815 1822 0
1814 2284 -2292 1815 -1822 0
1815 -2291 -1816 0
1815 -2291 -1351 -1821 0
-1815 2291 0
-1815 1351 1816 0
-1815 1816 1821 0
-1816 1609 1817 1818 0
-1816 1817 1818 1820 0
1816 -1818 0
1816 -1817 0
1816 -1609 -1820 0
1817 -2284 -1712 0
-1817 2284 0
-1817 1712 0
1818 -1717 -1819 0
-1818 1717 0
-1818 1819 0
1819 2284 -1712 0
1819 -2284 1712 0
-1819 -2284 -1712 0
-1819 2284 1712 0
1820 -1719 -1819 0
-1820 1719 0
-1820 1819 0
1821 -1612 -1820 0
-1821 1612 0
-1821 1820 0
-1822 1618 1825 0
-1822 1823 1825 0
-1822 1358 1825 0
1822 -1825 0
1822 -1358 -1618 -1823 0
1823 -1723 -1824 0
-1823 1723 0
-1823 1824 0
1824 -2283 1711 0
1824 2283 -1711 0
-1824 2283 1711 0
-1824 -2283 -1711 0
-1825 1614 1826 1827 0
-1825 1826 1827 1823 0
1825 -1827 0
1825 -1826 0
1825 -1614 -1823 0
1826 -2283 -1711 0
-1826 2283 0
-1826 1711 0
1827 -1721 -1824 0
-1827 1721 0
-1827 1824 0
-1828 1622 1831 0
-1828 1829 1831 0
-1828 1365 1831 0
1828 -1831 0
1828 -1365 -1622 -1829 0
1829 -1727 -1830 0
-1829 1727 0
-1829 1830 0
1830 -2282 1710 0
1830 2282 -1710 0
-1830 2282 1710 0
-1830 -2282 -1710 0
-1831 1725 1832 1833 0
-1831 1832 1830 1833 0
1831 -1833 0
1831 -1832 0
1831 -1725 -1830 0
1832 -2282 -1710 0
-1832 2282 0
-1832 1710 0
1833 -1620 -1829 0
-1833 1620 0
-1833 1829 0
-1834 1626 1836 0
-1834 1835 1836 0
-1834 1370 1836 0
1834 -1836 0
1834 -1370 -1626 -1835 0
1835 -1732 -1728 0
-1835 1732 0
-1835 1728 0
-1836 1730 1837 1838 0
-1836 1837 1728 1838 0
1836 -1838 0
1836 -1837 0
1836 -1730 -1728 0
1837 -2281 -1709 0
-1837 2281 0
-1837 1709 0
1838 -1624 -1835 0
-1838 1624 0
-1838 1835 0
-1839 1375 1840 0
-1839 1840 1844 0
1839 -1840 0
1839 -1375 -1844 0
-1840 1628 1841 1842 0
-1840 1841 1842 1843 0
1840 -1842 0
1840 -1841 0
1840 -1628 -1843 0
1841 -2280 -1708 0
-1841 2280 0
-1841 1708 0
1842 -1735 -1733 0
-1842 1735 0
-1842 1733 0
1843 -1737 -1733 0
-1843 1737 0
-1843 1733 0
1844 -1630 -1843 0
-1844 1630 0
-1844 1843 0
-1845 1380 1846 0
-1845 1846 1850 0
1845 -1846 0
1845 -1380 -1850 0
-1846 1740 1847 1848 0
-1846 1847 1738 1848 0
1846 -1848 0
1846 -1847 0
1846 -1740 -1738 0
1847 -2279 -1707 0
-1847 2279 0
-1847 1707 0
1848 -1632 -1849 0
-1848 1632 0
-1848 1849 0
1849 -1742 -1738 0
-1849 1742 0
-1849 1738 0
1850 -1633 -1849 0
-1850 1633 0
-1850 1849 0
-1851 1385 1852 0
-1851 1852 1856 0
1851 -1852 0
1851 -1385 -1856 0
-1852 1635 1853 1854 0
-1852 1853 1854 1855 0
1852 -1854 0
1852 -1853 0
1852 -1635 -1855 0
1853 -2278 -1706 0
-1853 2278 0
-1853 1706 0
1854 -1745 -1743 0
-1854 1745 0
-1854 1743 0
1855 -1747 -1743 0
-1855 1747 0
-1855 1743 0
1856 -1637 -1855 0
-1856 1637 0
-1856 1855 0
-1857 1388 1858 0
-1857 1858 1862 0
1857 -1858 0
1857 -1388 -1862 0
-1858 1639 1859 1860 0
-1858 1859 1860 1861 0
1858 -1860 0
1858 -1859 0
1858 -1639 -1861 0
1859 -2277 -1705 0
-1859 2277 0
-1859 1705 0
1860 -1750 -1748 0
-1860 1750 0
-1860 1748 0
1861 -1752 -1748 0
-1861 1752 0
-1861 1748 0
1862 -1640 -1861 0
-1862 1640 0
-1862 1861 0
1863 -1864 1909 0
1863 1864 -1909 0
-1863 1864 1909 0
-1863 -1864 -1909 0
1864 1865 -1866 0
1864 -1865 1866 0
-1864 -1865 -1866 0
-1864 1865 1866 0
1865 -1757 -1802 0
-1865 1757 0
-1865 1802 0
1866 -1867 1906 0
1866 1867 -1906 0
-1866 1867 1906 0
-1866 -1867 -1906 0
1867 -1868 1903 0
1867 1868 -1903 0
-1867 1868 1903 0
-1867 -1868 -1903 0
1868 -1869 1900 0
1868 1869 -1900 0
-1868 1869 1900 0
-1868 -1869 -1900 0
1869 -1870 1897 0
1869 1870 -1897 0
-1869 1870 1897 0
-1869 -1870 -1897 0
1870 1871 -1890 0
1870 -1871 1890 0
-1870 -1871 -1890 0
-1870 1871 1890 0
1871 -1872 1887 0
1871 1872 -1887 0
-1871 1872 1887 0
-1871 -1872 -1887 0
1872 1873 -1882 0
1872 -1873 1882 0
-1872 -1873 -1882 0
-1872 1873 1882 0
1873 -1874 1879 0
1873 1874 -1879 0
-1873 1874 1879 0
-1873 -1874 -1879 0
1874 1875 -1878 0
1874 -1875 1878 0
-1874 -1875 -1878 0
-1874 1875 1878 0
1875 1876 -1877 0
1875 -1876 1877 0
-1875 -1876 -1877 0
-1875 1876 1877 0
1876 -2278 -2298 0
-1876 2278 0
-1876 2298 0
1877 -2279 -2297 0
-1877 2279 0
-1877 2297 0
1878 -2280 -2296 0
-1878 2280 0
-1878 2296 0
-1879 1880 1881 0
1879 -1880 0
1879 -1881 0
1880 -2277 -2278 -2297 -2298 0
-1880 2298 0
-1880 2277 0
-1880 2297 0
-1880 2278 0
1881 -2279 -2296 -1767 0
-1881 2279 0
-1881 2296 0
-1881 1767 0
1882 1883 -1886 0
1882 -1883 1886 0
-1882 -1883 -1886 0
-1882 1883 1886 0
1883 1884 -1885 0
1883 -1884 1885 0
-1883 -1884 -1885 0
-1883 1884 1885 0
1884 -2281 -2295 0
-1884 2281 0
-1884 2295 0
1885 -2282 -2294 0
-1885 2282 0
-1885 2294 0
1886 -2283 -2293 0
-1886 2283 0
-1886 2293 0
-1887 1888 1889 0
1887 -1888 0
1887 -1889 0
1888 -1766 -1771 0
-1888 1766 0
-1888 1771 0
1889 -1765 -1774 0
-1889 1765 0
-1889 1774 0
1890 1891 -1892 0
1890 -1891 1892 0
-1890 -1891 -1892 0
-1890 1891 1892 0
1891 -2283 -2284 -2291 -2292 0
-1891 2292 0
-1891 2283 0
-1891 2291 0
-1891 2284 0
1892 1893 -1896 0
1892 -1893 1896 0
-1892 -1893 -1896 0
-1892 1893 1896 0
-1893 1894 1895 0
1893 -1894 0
1893 -1895 0
1894 -2280 -2281 -2294 -2295 0
-1894 2295 0
-1894 2280 0
-1894 2294 0
-1894 2281 0
1895 -2282 -2293 -1775 0
-1895 2282 0
-1895 2293 0
-1895 1775 0
1896 -2284 -2292 0
-1896 2284 0
-1896 2292 0
-1897 1898 1899 0
1897 -1898 0
1897 -1899 0
1898 -1764 -1779 0
-1898 1764 0
-1898 1779 0
1899 -1763 -1782 0
-1899 1763 0
-1899 1782 0
-1900 1901 1902 0
1900 -1901 0
1900 -1902 0
1901 -1784 -1787 0
-1901 1784 0
-1901 1787 0
1902 -1783 -1790 0
-1902 1783 0
-1902 1790 0
-1903 1904 1905 0
1903 -1904 0
1903 -1905 0
1904 -1762 -1793 0
-1904 1762 0
-1904 1793 0
1905 -1761 -1796 0
-1905 1761 0
-1905 1796 0
-1906 1907 1908 0
1906 -1907 0
1906 -1908 0
1907 -1760 -1799 0
-1907 1760 0
-1907 1799 0
1908 -1758 -1759 0
-1908 1758 0
-1908 1759 0
-1909 1457 1910 0
-1909 1910 1914 0
1909 -1910 0
1909 -1457 -1914 0
-1910 1806 1911 1912 0
-1910 1911 1754 1912 0
1910 -1912 0
1910 -1911 0
1910 -1806 -1754 0
1911 -1755 -1756 0
-1911 1755 0
-1911 1756 0
1912 -1700 -1913 0
-1912 1700 0
-1912 1913 0
1913 -1642 -1754 0
-1913 1642 0
-1913 1754 0
1914 -1702 -1913 0
-1914 1702 0
-1914 1913 0
-1915 -1916 -1953 1996 0
-1915 1916 1953 1996 0
1915 -1996 0
1915 -1916 1953 0
1915 1916 -1953 0
-1916 2298 1917 0
-1916 -2298 1948 1949 0
-1916 -2298 -1948 -1949 0
1916 2298 -1917 0
1916 -2298 1948 -1949 0
1916 -2298 -1948 1949 0
-1917 2297 1918 0
-1917 -2297 1943 1944 0
-1917 -2297 -1943 -1944 0
1917 2297 -1918 0
1917 -2297 1943 -1944 0
1917 -2297 -1943 1944 0
-1918 2296 1919 0
-1918 -2296 1938 1939 0
-1918 -2296 -1938 -1939 0
1918 2296 -1919 0
1918 -2296 1938 -1939 0
1918 -2296 -1938 1939 0
-1919 2295 1920 0
-1919 -2282 1920 -1934 0
-1919 2282 1920 1934 0
-1919 -2282 -2295 -1920 1934 0
-1919 2282 -2295 -1920 -1934 0
1919 2295 -1920 0
1919 2282 -2295 1920 -1934 0
1919 2282 -1920 1934 0
1919 -2282 -1920 -1934 0
1919 -2282 -2295 1920 1934 0
-1920 2294 1921 0
-1920 -2283 1921 -1930 0
-1920 2283 1921 1930 0
-1920 -2283 -2294 -1921 1930 0
-1920 2283 -2294 -1921 -1930 0
1920 2294 -1921 0
1920 2283 -2294 1921 -1930 0
1920 2283 -1921 1930 0
1920 -2283 -1921 -1930 0
1920 -2283 -2294 1921 1930 0
-1921 2293 1922 0
-1921 2284 -2293 -1922 -1926 0
-1921 2284 1922 1926 0
-1921 -2284 1922 -1926 0
-1921 -2284 -2293 -1922 1926 0
1921 2293 -1922 0
1921 -2284 -1922 -1926 0
1921 2284 -1922 1926 0
1921 -2284 -2293 1922 1926 0
1921 2284 -2293 1922 -1926 0
1922 -2292 -1923 0
1922 -2292 -1924 0
-1922 2292 0
-1922 1923 1924 0
1923 -2284 -1815 0
-1923 2284 0
-1923 1815 0
1924 -1925 -1822 0
-1924 1925 0
-1924 1822 0
1925 2284 -1815 0
1925 -2284 1815 0
-1925 -2284 -1815 0
-1925 2284 1815 0
-1926 1927 1928 0
1926 -1927 0
1926 -1928 0
1927 -2283 -1814 0
-1927 2283 0
-1927 1814 0
1928 -1929 -1828 0
-1928 1929 0
-1928 1828 0
1929 -2283 1814 0
1929 2283 -1814 0
-1929 2283 1814 0
-1929 -2283 -1814 0
-1930 1931 1932 0
1930 -1931 0
1930 -1932 0
1931 -2282 -1813 0
-1931 2282 0
-1931 1813 0
1932 -1933 -1834 0
-1932 1933 0
-1932 1834 0
1933 -2282 1813 0
1933 2282 -1813 0
-1933 2282 1813 0
-1933 -2282 -1813 0
-1934 1935 1936 0
1934 -1935 0
1934 -1936 0
1935 -2281 -1812 0
-1935 2281 0
-1935 1812 0
1936 -1937 -1839 0
-1936 1937 0
-1936 1839 0
1937 -2281 1812 0
1937 2281 -1812 0
-1937 2281 1812 0
-1937 -2281 -1812 0
1938 -2281 1919 0
1938 2281 -1919 0
-1938 2281 1919 0
-1938 -2281 -1919 0
-1939 1940 1941 0
1939 -1940 0
1939 -1941 0
1940 -2280 -1811 0
-1940 2280 0
-1940 1811 0
1941 -1942 -1845 0
-1941 1942 0
-1941 1845 0
1942 -2280 1811 0
1942 2280 -1811 0
-1942 2280 1811 0
-1942 -2280 -1811 0
1943 -2280 1918 0
1943 2280 -1918 0
-1943 2280 1918 0
-1943 -2280 -1918 0
-1944 1945 1946 0
1944 -1945 0
1944 -1946 0
1945 -2279 -1810 0
-1945 2279 0
-1945 1810 0
1946 -1947 -1851 0
-1946 1947 0
-1946 1851 0
1947 -2279 1810 0
1947 2279 -1810 0
-1947 2279 1810 0
-1947 -2279 -1810 0
1948 -2279 1917 0
1948 2279 -1917 0
-1948 2279 1917 0
-1948 -2279 -1917 0
-1949 1950 1951 0
1949 -1950 0
1949 -1951 0
1950 -2278 -1809 0
-1950 2278 0
-1950 1809 0
1951 -1952 -1857 0
-1951 1952 0
-1951 1857 0
1952 -2278 1809 0
1952 2278 -1809 0
-1952 2278 1809 0
-1952 -2278 -1809 0
1953 -1954 1993 0
1953 1954 -1993 0
-1953 1954 1993 0
-1953 -1954 -1993 0
1954 1955 -1956 0
1954 -1955 1956 0
-1954 -1955 -1956 0
-1954 1955 1956 0
1955 -1867 -1906 0
-1955 1867 0
-1955 1906 0
1956 1957 -1958 0
1956 -1957 1958 0
-1956 -1957 -1958 0
-1956 1957 1958 0
1957 -1868 -1903 0
-1957 1868 0
-1957 1903 0
1958 -1959 1990 0
1958 1959 -1990 0
-1958 1959 1990 0
-1958 -1959 -1990 0
1959 -1960 1987 0
1959 1960 -1987 0
-1959 1960 1987 0
-1959 -1960 -1987 0
1960 -1961 1984 0
1960 1961 -1984 0
-1960 1961 1984 0
-1960 -1961 -1984 0
1961 -1962 1981 0
1961 1962 -1981 0
-1961 1962 1981 0
-1961 -1962 -1981 0
1962 -1963 1978 0
1962 1963 -1978 0
-1962 1963 1978 0
-1962 -1963 -1978 0
1963 1964 -1973 0
1963 -1964 1973 0
-1963 -1964 -1973 0
-1963 1964 1973 0
1964 -1965 1970 0
1964 1965 -1970 0
-1964 1965 1970 0
-1964 -1965 -1970 0
1965 1966 -1969 0
1965 -1966 1969 0
-1965 -1966 -1969 0
-1965 1966 1969 0
1966 1967 -1968 0
1966 -1967 1968 0
-1966 -1967 -1968 0
-1966 1967 1968 0
1967 -2279 -2298 0
-1967 2279 0
-1967 2298 0
1968 -2280 -2297 0
-1968 2280 0
-1968 2297 0
1969 -2281 -2296 0
-1969 2281 0
-1969 2296 0
-1970 1971 1972 0
1970 -1971 0
1970 -1972 0
1971 -2278 -2279 -2297 -2298 0
-1971 2298 0
-1971 2278 0
-1971 2297 0
-1971 2279 0
1972 -2280 -2296 -1875 0
-1972 2280 0
-1972 2296 0
-1972 1875 0
1973 1974 -1977 0
1973 -1974 1977 0
-1973 -1974 -1977 0
-1973 1974 1977 0
1974 1975 -1976 0
1974 -1975 1976 0
-1974 -1975 -1976 0
-1974 1975 1976 0
1975 -2282 -2295 0
-1975 2282 0
-1975 2295 0
1976 -2283 -2294 0
-1976 2283 0
-1976 2294 0
1977 -2284 -2293 0
-1977 2284 0
-1977 2293 0
-1978 1979 1980 0
1978 -1979 0
1978 -1980 0
1979 -1874 -1879 0
-1979 1874 0
-1979 1879 0
1980 -1873 -1882 0
-1980 1873 0
-1980 1882 0
-1981 1982 1983 0
1981 -1982 0
1981 -1983 0
1982 -2281 -2282 -2294 -2295 0
-1982 2295 0
-1982 2281 0
-1982 2294 0
-1982 2282 0
1983 -2283 -2293 -1883 0
-1983 2283 0
-1983 2293 0
-1983 1883 0
-1984 1985 1986 0
1984 -1985 0
1984 -1986 0
1985 -1872 -1887 0
-1985 1872 0
-1985 1887 0
1986 -1871 -1890 0
-1986 1871 0
-1986 1890 0
-1987 1988 1989 0
1987 -1988 0
1987 -1989 0
1988 -2284 -2292 -1893 0
-1988 2284 0
-1988 2292 0
-1988 1893 0
1989 -1891 -1892 0
-1989 1891 0
-1989 1892 0
-1990 1991 1992 0
1990 -1991 0
1990 -1992 0
1991 -1870 -1897 0
-1991 1870 0
-1991 1897 0
1992 -1869 -1900 0
-1992 1869 0
-1992 1900 0
-1993 1994 1995 0
1993 -1994 0
1993 -1995 0
1994 -1865 -1866 0
-1994 1865 0
-1994 1866 0
1995 -1864 -1909 0
-1995 1864 0
-1995 1909 0
-1996 1997 2029 2067 2093 0
-1996 -1997 -2029 -2067 -2093 0
-1996 1997 2029 -2067 -2093 0
-1996 -1997 -2029 2067 2093 0
1996 1997 -2029 0
1996 -1997 2029 0
1996 -2067 2093 0
1996 2067 -2093 0
-1997 2298 1998 0
-1997 -2280 1998 -2026 0
-1997 2280 1998 2026 0
-1997 -2280 -2298 -1998 2026 0
-1997 2280 -2298 -1998 -2026 0
1997 2298 -1998 0
1997 2280 -2298 1998 -2026 0
1997 2280 -1998 2026 0
1997 -2280 -1998 -2026 0
1997 -2280 -2298 1998 2026 0
-1998 2297 1999 0
-1998 -2281 1999 -2021 0
-1998 2281 1999 2021 0
-1998 -2281 -2297 -1999 2021 0
-1998 2281 -2297 -1999 -2021 0
1998 2297 -1999 0
1998 2281 -2297 1999 -2021 0
1998 2281 -1999 2021 0
1998 -2281 -1999 -2021 0
1998 -2281 -2297 1999 2021 0
-1999 2296 2000 0
-1999 -2282 2000 -2016 0
-1999 2282 2000 2016 0
-1999 -2282 -2296 -2000 2016 0
-1999 2282 -2296 -2000 -2016 0
1999 2296 -2000 0
1999 2282 -2296 2000 -2016 0
1999 2282 -2000 2016 0
1999 -2282 -2000 -2016 0
1999 -2282 -2296 2000 2016 0
-2000 2295 2001 0
-2000 -2283 2001 -2011 0
-2000 2283 2001 2011 0
-2000 -2283 -2295 -2001 2011 0
-2000 2283 -2295 -2001 -2011 0
2000 2295 -2001 0
2000 2283 -2295 2001 -2011 0
2000 2283 -2001 2011 0
2000 -2283 -2001 -2011 0
2000 -2283 -2295 2001 2011 0
-2001 2294 2002 0
-2001 2284 -2294 -2002 -2007 0
-2001 2284 2002 2007 0
-2001 -2284 2002 -2007 0
-2001 -2284 -2294 -2002 2007 0
2001 2294 -2002 0
2001 -2284 -2002 -2007 0
2001 2284 -2002 2007 0
2001 -2284 -2294 2002 2007 0
2001 2284 -2294 2002 -2007 0
2002 -2293 -2003 0
2002 -2293 -2006 0
2002 -2293 -2004 0
-2002 2293 0
-2002 2003 2004 2006 0
2003 -2284 -1922 0
-2003 2284 0
-2003 1922 0
2004 -1927 -2005 0
-2004 1927 0
-2004 2005 0
2005 2284 -1922 0
2005 -2284 1922 0
-2005 -2284 -1922 0
-2005 2284 1922 0
2006 -1929 -1828 -2005 0
-2006 1929 0
-2006 1828 0
-2006 2005 0
-2007 1933 2009 0
-2007 1834 2009 0
-2007 2008 2009 0
2007 -2009 0
2007 -1933 -1834 -2008 0
2008 -2283 1921 0
2008 2283 -1921 0
-2008 2283 1921 0
-2008 -2283 -1921 0
-2009 2010 2008 0
-2009 1931 2010 0
2009 -2010 0
2009 -1931 -2008 0
2010 -2283 -1921 0
-2010 2283 0
-2010 1921 0
-2011 1839 2012 0
-2011 2012 2015 0
2011 -2012 0
2011 -1839 -2015 0
-2012 2013 2014 0
-2012 1935 2013 0
2012 -2013 0
2012 -1935 -2014 0
2013 -2282 -1920 0
-2013 2282 0
-2013 1920 0
2014 -2282 1920 0
2014 2282 -1920 0
-2014 2282 1920 0
-2014 -2282 -1920 0
2015 -1937 -2014 0
-2015 1937 0
-2015 2014 0
-2016 1845 2017 0
-2016 2017 2020 0
2016 -2017 0
2016 -1845 -2020 0
-2017 2018 2019 0
2017 -2018 0
2017 -2019 0
2018 -2281 -1919 0
-2018 2281 0
-2018 1919 0
2019 -1940 -1938 0
-2019 1940 0
-2019 1938 0
2020 -1942 -1938 0
-2020 1942 0
-2020 1938 0
-2021 1851 2022 0
-2021 2022 2025 0
2021 -2022 0
2021 -1851 -2025 0
-2022 2023 2024 0
2022 -2023 0
2022 -2024 0
2023 -2280 -1918 0
-2023 2280 0
-2023 1918 0
2024 -1945 -1943 0
-2024 1945 0
-2024 1943 0
2025 -1947 -1943 0
-2025 1947 0
-2025 1943 0
-2026 1857 2027 0
-2026 2027 2028 0
2026 -2027 0
2026 -1857 -2028 0
-2027 1950 1917 0
-2027 2279 1950 0
-2027 2279 1917 0
2027 -2279 -1950 0
2027 -1950 -1917 0
2027 -2279 -1917 0
2028 -1952 -1948 0
-2028 1952 0
-2028 1948 0
2029 -2030 2063 0
2029 2030 -2063 0
-2029 2030 2063 0
-2029 -2030 -2063 0
2030 2031 -2032 0
2030 -2031 2032 0
-2030 -2031 -2032 0
-2030 2031 2032 0
2031 -1957 -1958 0
-2031 1957 0
-2031 1958 0
2032 2033 -2034 0
2032 -2033 2034 0
-2032 -2033 -2034 0
-2032 2033 2034 0
2033 -1959 -1990 0
-2033 1959 0
-2033 1990 0
2034 -2035 2060 0
2034 2035 -2060 0
-2034 2035 2060 0
-2034 -2035 -2060 0
2035 -2036 2057 0
2035 2036 -2057 0
-2035 2036 2057 0
-2035 -2036 -2057 0
2036 -2037 2054 0
2036 2037 -2054 0
-2036 2037 2054 0
-2036 -2037 -2054 0
2037 -2038 2051 0
2037 2038 -2051 0
-2037 2038 2051 0
-2037 -2038 -2051 0
2038 2039 -2048 0
2038 -2039 2048 0
-2038 -2039 -2048 0
-2038 2039 2048 0
2039 -2040 2045 0
2039 2040 -2045 0
-2039 2040 2045 0
-2039 -2040 -2045 0
2040 2041 -2044 0
2040 -2041 2044 0
-2040 -2041 -2044 0
-2040 2041 2044 0
2041 2042 -2043 0
2041 -2042 2043 0
-2041 -2042 -2043 0
-2041 2042 2043 0
2042 -2280 -2298 0
-2042 2280 0
-2042 2298 0
2043 -2281 -2297 0
-2043 2281 0
-2043 2297 0
2044 -2282 -2296 0
-2044 2282 0
-2044 2296 0
-2045 2046 2047 0
2045 -2046 0
2045 -2047 0
2046 -2279 -2280 -2297 -2298 0
-2046 2298 0
-2046 2279 0
-2046 2297 0
-2046 2280 0
2047 -2281 -2296 -1966 0
-2047 2281 0
-2047 2296 0
-2047 1966 0
2048 2049 -2050 0
2048 -2049 2050 0
-2048 -2049 -2050 0
-2048 2049 2050 0
2049 -2283 -2295 0
-2049 2283 0
-2049 2295 0
2050 -2284 -2294 0
-2050 2284 0
-2050 2294 0
-2051 2052 2053 0
2051 -2052 0
2051 -2053 0
2052 -1965 -1970 0
-2052 1965 0
-2052 1970 0
2053 -1964 -1973 0
-2053 1964 0
-2053 1973 0
-2054 2055 2056 0
2054 -2055 0
2054 -2056 0
2055 -2282 -2283 -2294 -2295 0
-2055 2295 0
-2055 2282 0
-2055 2294 0
-2055 2283 0
2056 -2284 -2293 -1974 0
-2056 2284 0
-2056 2293 0
-2056 1974 0
-2057 2058 2059 0
2057 -2058 0
2057 -2059 0
2058 -1963 -1978 0
-2058 1963 0
-2058 1978 0
2059 -1962 -1981 0
-2059 1962 0
-2059 1981 0
-2060 2061 2062 0
2060 -2061 0
2060 -2062 0
2061 -1961 -1984 0
-2061 1961 0
-2061 1984 0
2062 -1960 -1987 0
-2062 1960 0
-2062 1987 0
-2063 1909 2064 0
-2063 2064 2066 0
2063 -2064 0
2063 -1909 -2066 0
-2064 2065 1954 0
-2064 1994 2065 0
2064 -2065 0
2064 -1994 -1954 0
2065 -1955 -1956 0
-2065 1955 0
-2065 1956 0
2066 -1864 -1954 0
-2066 1864 0
-2066 1954 0
-2067 2298 2068 0
-2067 -2298 2088 2089 0
-2067 -2298 -2088 -2089 0
2067 2298 -2068 0
2067 -2298 2088 -2089 0
2067 -2298 -2088 2089 0
-2068 2297 2069 0
-2068 -2297 2083 2084 0
-2068 -2297 -2083 -2084 0
2068 2297 -2069 0
2068 -2297 2083 -2084 0
2068 -2297 -2083 2084 0
-2069 2296 2070 0
-2069 -2283 2070 -2079 0
-2069 2283 2070 2079 0
-2069 -2283 -2296 -2070 2079 0
-2069 2283 -2296 -2070 -2079 0
2069 2296 -2070 0
2069 2283 -2296 2070 -2079 0
2069 2283 -2070 2079 0
2069 -2283 -2070 -2079 0
2069 -2283 -2296 2070 2079 0
-2070 2295 2071 0
-2070 2284 -2295 -2071 -2075 0
-2070 2284 2071 2075 0
-2070 -2284 2071 -2075 0
-2070 -2284 -2295 -2071 2075 0
2070 2295 -2071 0
2070 -2284 -2071 -2075 0
2070 2284 -2071 2075 0
2070 -2284 -2295 2071 2075 0
2070 2284 -2295 2071 -2075 0
2071 -2294 -2072 0
2071 -2294 -2073 0
-2071 2294 0
-2071 2072 2073 0
2072 -2284 -2002 0
-2072 2284 0
-2072 2002 0
2073 -2074 -2007 0
-2073 2074 0
-2073 2007 0
2074 2284 -2002 0
2074 -2284 2002 0
-2074 -2284 -2002 0
-2074 2284 2002 0
-2075 2076 2077 0
2075 -2076 0
2075 -2077 0
2076 -2283 -2001 0
-2076 2283 0
-2076 2001 0
2077 -2078 -2011 0
-2077 2078 0
-2077 2011 0
2078 -2283 2001 0
2078 2283 -2001 0
-2078 2283 2001 0
-2078 -2283 -2001 0
-2079 2080 2081 0
2079 -2080 0
2079 -2081 0
2080 -2282 -2000 0
-2080 2282 0
-2080 2000 0
2081 -2082 -2016 0
-2081 2082 0
-2081 2016 0
2082 -2282 2000 0
2082 2282 -2000 0
-2082 2282 2000 0
-2082 -2282 -2000 0
2083 -2282 2069 0
2083 2282 -2069 0
-2083 2282 2069 0
-2083 -2282 -2069 0
-2084 2085 2086 0
2084 -2085 0
2084 -2086 0
2085 -2281 -1999 0
-2085 2281 0
-2085 1999 0
2086 -2087 -2021 0
-2086 2087 0
-2086 2021 0
2087 -2281 1999 0
2087 2281 -1999 0
-2087 2281 1999 0
-2087 -2281 -1999 0
2088 -2281 2068 0
2088 2281 -2068 0
-2088 2281 2068 0
-2088 -2281 -2068 0
-2089 2090 2091 0
2089 -2090 0
2089 -2091 0
2090 -2280 -1998 0
-2090 2280 0
-2090 1998 0
2091 -2092 -2026 0
-2091 2092 0
-2091 2026 0
2092 -2280 1998 0
2092 2280 -1998 0
-2092 2280 1998 0
-2092 -2280 -1998 0
2093 -2094 2121 0
2093 2094 -2121 0
-2093 2094 2121 0
-2093 -2094 -2121 0
2094 2095 -2096 0
2094 -2095 2096 0
-2094 -2095 -2096 0
-2094 2095 2096 0
2095 -2033 -2034 0
-2095 2033 0
-2095 2034 0
2096 2097 -2098 0
2096 -2097 2098 0
-2096 -2097 -2098 0
-2096 2097 2098 0
2097 -2035 -2060 0
-2097 2035 0
-2097 2060 0
2098 2099 -2100 0
2098 -2099 2100 0
-2098 -2099 -2100 0
-2098 2099 2100 0
2099 -2036 -2057 0
-2099 2036 0
-2099 2057 0
2100 -2101 2118 0
2100 2101 -2118 0
-2100 2101 2118 0
-2100 -2101 -2118 0
2101 2102 -2103 0
2101 -2102 2103 0
-2101 -2102 -2103 0
-2101 2102 2103 0
2102 -2283 -2284 -2294 -2295 0
-2102 2295 0
-2102 2283 0
-2102 2294 0
-2102 2284 0
2103 -2104 2115 0
2103 2104 -2115 0
-2103 2104 2115 0
-2103 -2104 -2115 0
2104 2105 -2114 0
2104 -2105 2114 0
-2104 -2105 -2114 0
-2104 2105 2114 0
2105 -2106 2111 0
2105 2106 -2111 0
-2105 2106 2111 0
-2105 -2106 -2111 0
2106 2107 -2110 0
2106 -2107 2110 0
-2106 -2107 -2110 0
-2106 2107 2110 0
2107 2108 -2109 0
2107 -2108 2109 0
-2107 -2108 -2109 0
-2107 2108 2109 0
2108 -2281 -2298 0
-2108 2281 0
-2108 2298 0
2109 -2282 -2297 0
-2109 2282 0
-2109 2297 0
2110 -2283 -2296 0
-2110 2283 0
-2110 2296 0
-2111 2112 2113 0
2111 -2112 0
2111 -2113 0
2112 -2280 -2281 -2297 -2298 0
-2112 2298 0
-2112 2280 0
-2112 2297 0
-2112 2281 0
2113 -2282 -2296 -2041 0
-2113 2282 0
-2113 2296 0
-2113 2041 0
2114 -2284 -2295 0
-2114 2284 0
-2114 2295 0
-2115 2116 2117 0
2115 -2116 0
2115 -2117 0
2116 -2040 -2045 0
-2116 2040 0
-2116 2045 0
2117 -2039 -2048 0
-2117 2039 0
-2117 2048 0
-2118 2119 2120 0
2118 -2119 0
2118 -2120 0
2119 -2038 -2051 0
-2119 2038 0
-2119 2051 0
2120 -2037 -2054 0
-2120 2037 0
-2120 2054 0
-2121 2122 2123 0
2121 -2122 0
2121 -2123 0
2122 -2031 -2032 0
-2122 2031 0
-2122 2032 0
2123 -2030 -2063 0
-2123 2030 0
-2123 2063 0
-2124 2125 -2226 -2237 2252 0
-2124 2125 2226 2237 2252 0
2124 -2252 0
2124 2226 -2237 0
2124 -2125 0
2124 -2226 2237 0
-2125 2126 2160 2191 2205 0
-2125 -2126 -2160 -2191 -2205 0
-2125 2126 2160 -2191 -2205 0
-2125 -2126 -2160 2191 2205 0
2125 2126 -2160 0
2125 -2126 2160 0
2125 -2191 2205 0
2125 2191 -2205 0
-2126 2298 2127 0
-2126 -2282 2127 -2153 0
-2126 2282 2127 2153 0
-2126 -2282 -2298 -2127 2153 0
-2126 2282 -2298 -2127 -2153 0
2126 2298 -2127 0
2126 2282 -2298 2127 -2153 0
2126 2282 -2127 2153 0
2126 -2282 -2127 -2153 0
2126 -2282 -2298 2127 2153 0
-2127 2297 2128 0
-2127 -2283 2128 -2146 0
-2127 2283 2128 2146 0
-2127 -2283 -2297 -2128 2146 0
-2127 2283 -2297 -2128 -2146 0
2127 2297 -2128 0
2127 2283 -2297 2128 -2146 0
2127 2283 -2128 2146 0
2127 -2283 -2128 -2146 0
2127 -2283 -2297 2128 2146 0
-2128 2296 2129 0
-2128 2284 -2296 -2129 -2138 0
-2128 2284 2129 2138 0
-2128 -2284 2129 -2138 0
-2128 -2284 -2296 -2129 2138 0
2128 2296 -2129 0
2128 -2284 -2129 -2138 0
2128 2284 -2129 2138 0
2128 -2284 -2296 2129 2138 0
2128 2284 -2296 2129 -2138 0
2129 -2295 -2130 0
2129 -2295 -1375 -2137 0
-2129 2295 0
-2129 1375 2130 0
-2129 2130 2137 0
-2130 1840 2131 0
-2130 2131 2136 0
2130 -2131 0
2130 -1840 -2136 0
-2131 2012 2132 2133 0
-2131 2132 2133 2135 0
2131 -2133 0
2131 -2132 0
2131 -2012 -2135 0
2132 -2284 -2071 0
-2132 2284 0
-2132 2071 0
2133 -2076 -2134 0
-2133 2076 0
-2133 2134 0
2134 2284 -2071 0
2134 -2284 2071 0
-2134 -2284 -2071 0
-2134 2284 2071 0
2135 -2078 -2134 0
-2135 2078 0
-2135 2134 0
2136 -2015 -2135 0
-2136 2015 0
-2136 2135 0
2137 -1844 -2136 0
-2137 1844 0
-2137 2136 0
-2138 1850 2142 0
-2138 2139 2142 0
-2138 1380 2142 0
2138 -2142 0
2138 -1380 -1850 -2139 0
2139 -2020 -2140 0
-2139 2020 0
-2139 2140 0
2140 -2082 -2141 0
-2140 2082 0
-2140 2141 0
2141 -2283 2070 0
2141 2283 -2070 0
-2141 2283 2070 0
-2141 -2283 -2070 0
-2142 1846 2143 0
-2142 2143 2139 0
2142 -2143 0
2142 -1846 -2139 0
-2143 2017 2144 2145 0
-2143 2144 2145 2140 0
2143 -2145 0
2143 -2144 0
2143 -2017 -2140 0
2144 -2283 -2070 0
-2144 2283 0
-2144 2070 0
2145 -2080 -2141 0
-2145 2080 0
-2145 2141 0
-2146 1856 2149 0
-2146 2147 2149 0
-2146 1385 2149 0
2146 -2149 0
2146 -1385 -1856 -2147 0
2147 -2025 -2148 0
-2147 2025 0
-2147 2148 0
2148 -2087 -2083 0
-2148 2087 0
-2148 2083 0
-2149 1852 2150 2152 0
-2149 2150 2152 2147 0
2149 -2150 0
2149 -2152 0
2149 -1852 -2147 0
-2150 2151 2083 0
-2150 2085 2151 0
2150 -2151 0
2150 -2085 -2083 0
2151 -2282 -2069 0
-2151 2282 0
-2151 2069 0
2152 -2022 -2148 0
-2152 2022 0
-2152 2148 0
-2153 1862 2156 0
-2153 2154 2156 0
-2153 1388 2156 0
2153 -2156 0
2153 -1388 -1862 -2154 0
2154 -2028 -2155 0
-2154 2028 0
-2154 2155 0
2155 -2092 -2088 0
-2155 2092 0
-2155 2088 0
-2156 1858 2157 0
-2156 2157 2154 0
2156 -2157 0
2156 -1858 -2154 0
-2157 2027 2158 2159 0
-2157 2158 2159 2155 0
2157 -2159 0
2157 -2158 0
2157 -2027 -2155 0
2158 -2281 -2068 0
-2158 2281 0
-2158 2068 0
2159 -2090 -2088 0
-2159 2090 0
-2159 2088 0
2160 -2161 2184 0
2160 2161 -2184 0
-2160 2161 2184 0
-2160 -2161 -2184 0
2161 2162 -2163 0
2161 -2162 2163 0
-2161 -2162 -2163 0
-2161 2162 2163 0
2162 -2097 -2098 0
-2162 2097 0
-2162 2098 0
2163 2164 -2165 0
2163 -2164 2165 0
-2163 -2164 -2165 0
-2163 2164 2165 0
2164 -2099 -2100 0
-2164 2099 0
-2164 2100 0
2165 2166 -2167 0
2165 -2166 2167 0
-2165 -2166 -2167 0
-2165 2166 2167 0
2166 -2101 -2118 0
-2166 2101 0
-2166 2118 0
2167 -2168 2181 0
2167 2168 -2181 0
-2167 2168 2181 0
-2167 -2168 -2181 0
2168 -2169 2178 0
2168 2169 -2178 0
-2168 2169 2178 0
-2168 -2169 -2178 0
2169 -2170 2175 0
2169 2170 -2175 0
-2169 2170 2175 0
-2169 -2170 -2175 0
2170 2171 -2174 0
2170 -2171 2174 0
-2170 -2171 -2174 0
-2170 2171 2174 0
2171 2172 -2173 0
2171 -2172 2173 0
-2171 -2172 -2173 0
-2171 2172 2173 0
2172 -2282 -2298 0
-2172 2282 0
-2172 2298 0
2173 -2283 -2297 0
-2173 2283 0
-2173 2297 0
2174 -2284 -2296 0
-2174 2284 0
-2174 2296 0
-2175 2176 2177 0
2175 -2176 0
2175 -2177 0
2176 -2281 -2282 -2297 -2298 0
-2176 2298 0
-2176 2281 0
-2176 2297 0
-2176 2282 0
2177 -2283 -2296 -2107 0
-2177 2283 0
-2177 2296 0
-2177 2107 0
-2178 2179 2180 0
2178 -2179 0
2178 -2180 0
2179 -2106 -2111 0
-2179 2106 0
-2179 2111 0
2180 -2284 -2295 -2105 0
-2180 2284 0
-2180 2295 0
-2180 2105 0
-2181 2182 2183 0
2181 -2182 0
2181 -2183 0
2182 -2104 -2115 0
-2182 2104 0
-2182 2115 0
2183 -2102 -2103 0
-2183 2102 0
-2183 2103 0
-2184 1914 2187 0
-2184 2185 2187 0
-2184 1457 2187 0
2184 -2187 0
2184 -1457 -1914 -2185 0
2185 -2066 -2186 0
-2185 2066 0
-2185 2186 0
2186 -2030 -2094 0
-2186 2030 0
-2186 2094 0
-2187 1910 2188 2190 0
-2187 2188 2190 2185 0
2187 -2188 0
2187 -2190 0
2187 -1910 -2185 0
-2188 2189 2094 0
-2188 2122 2189 0
2188 -2189 0
2188 -2122 -2094 0
2189 -2095 -2096 0
-2189 2095 0
-2189 2096 0
2190 -2064 -2186 0
-2190 2064 0
-2190 2186 0
-2191 2298 2192 0
-2191 -2283 2192 -2201 0
-2191 2283 2192 2201 0
-2191 -2283 -2298 -2192 2201 0
-2191 2283 -2298 -2192 -2201 0
2191 2298 -2192 0
2191 2283 -2298 2192 -2201 0
2191 2283 -2192 2201 0
2191 -2283 -2192 -2201 0
2191 -2283 -2298 2192 2201 0
-2192 2297 2193 0
-2192 2284 -2297 -2193 -2197 0
-2192 2284 2193 2197 0
-2192 -2284 2193 -2197 0
-2192 -2284 -2297 -2193 2197 0
2192 2297 -2193 0
2192 -2284 -2193 -2197 0
2192 2284 -2193 2197 0
2192 -2284 -2297 2193 2197 0
2192 2284 -2297 2193 -2197 0
2193 -2296 -2194 0
2193 -2296 -2195 0
-2193 2296 0
-2193 2194 2195 0
2194 -2284 -2129 0
-2194 2284 0
-2194 2129 0
2195 -2196 -2138 0
-2195 2196 0
-2195 2138 0
2196 2284 -2129 0
2196 -2284 2129 0
-2196 -2284 -2129 0
-2196 2284 2129 0
-2197 2198 2199 0
2197 -2198 0
2197 -2199 0
2198 -2283 -2128 0
-2198 2283 0
-2198 2128 0
2199 -2200 -2146 0
-2199 2200 0
-2199 2146 0
2200 -2283 2128 0
2200 2283 -2128 0
-2200 2283 2128 0
-2200 -2283 -2128 0
-2201 2202 2203 0
2201 -2202 0
2201 -2203 0
2202 -2282 -2127 0
-2202 2282 0
-2202 2127 0
2203 -2204 -2153 0
-2203 2204 0
-2203 2153 0
2204 -2282 2127 0
2204 2282 -2127 0
-2204 2282 2127 0
-2204 -2282 -2127 0
2205 -2206 2223 0
2205 2206 -2223 0
-2205 2206 2223 0
-2205 -2206 -2223 0
2206 2207 -2208 0
2206 -2207 2208 0
-2206 -2207 -2208 0
-2206 2207 2208 0
2207 -2164 -2165 0
-2207 2164 0
-2207 2165 0
2208 2209 -2210 0
2208 -2209 2210 0
-2208 -2209 -2210 0
-2208 2209 2210 0
2209 -2166 -2167 0
-2209 2166 0
-2209 2167 0
2210 2211 -2212 0
2210 -2211 2212 0
-2210 -2211 -2212 0
-2210 2211 2212 0
2211 -2168 -2181 0
-2211 2168 0
-2211 2181 0
2212 2213 -2214 0
2212 -2213 2214 0
-2212 -2213 -2214 0
-2212 2213 2214 0
2213 -2169 -2178 0
-2213 2169 0
-2213 2178 0
2214 2215 -2216 0
2214 -2215 2216 0
-2214 -2215 -2216 0
-2214 2215 2216 0
2215 -2170 -2175 0
-2215 2170 0
-2215 2175 0
2216 -2217 2220 0
2216 2217 -2220 0
-2216 2217 2220 0
-2216 -2217 -2220 0
2217 2218 -2219 0
2217 -2218 2219 0
-2217 -2218 -2219 0
-2217 2218 2219 0
2218 -2283 -2298 0
-2218 2283 0
-2218 2298 0
2219 -2284 -2297 0
-2219 2284 0
-2219 2297 0
-2220 2221 2222 0
2220 -2221 0
2220 -2222 0
2221 -2282 -2283 -2297 -2298 0
-2221 2298 0
-2221 2282 0
-2221 2297 0
-2221 2283 0
2222 -2284 -2296 -2171 0
-2222 2284 0
-2222 2296 0
-2222 2171 0
-2223 2224 2225 0
2223 -2224 0
2223 -2225 0
2224 -2162 -2163 0
-2224 2162 0
-2224 2163 0
2225 -2161 -2184 0
-2225 2161 0
-2225 2184 0
-2226 2298 2227 0
-2226 2284 -2298 -2227 -2232 0
-2226 2284 2227 2232 0
-2226 -2284 2227 -2232 0
-2226 -2284 -2298 -2227 2232 0
2226 2298 -2227 0
2226 -2284 -2227 -2232 0
2226 2284 -2227 2232 0
2226 -2284 -2298 2227 2232 0
2226 2284 -2298 2227 -2232 0
2227 -2297 -2228 0
2227 -2297 -2231 0
2227 -2297 -2229 0
-2227 2297 0
-2227 2228 2229 2231 0
2228 -2284 -2193 0
-2228 2284 0
-2228 2193 0
2229 -2198 -2230 0
-2229 2198 0
-2229 2230 0
2230 2284 -2193 0
2230 -2284 2193 0
-2230 -2284 -2193 0
-2230 2284 2193 0
2231 -2200 -2146 -2230 0
-2231 2200 0
-2231 2146 0
-2231 2230 0
-2232 2204 2234 0
-2232 2153 2234 0
-2232 2233 2234 0
2232 -2234 0
2232 -2204 -2153 -2233 0
2233 -2283 2192 0
2233 2283 -2192 0
-2233 2283 2192 0
-2233 -2283 -2192 0
-2234 2235 2236 0
2234 -2235 0
2234 -2236 0
2235 -2283 -2192 0
-2235 2283 0
-2235 2192 0
2236 -2202 -2233 0
-2236 2202 0
-2236 2233 0
2237 -2238 2249 0
2237 2238 -2249 0
-2237 2238 2249 0
-2237 -2238 -2249 0
2238 2239 -2240 0
2238 -2239 2240 0
-2238 -2239 -2240 0
-2238 2239 2240 0
2239 -2209 -2210 0
-2239 2209 0
-2239 2210 0
2240 2241 -2242 0
2240 -2241 2242 0
-2240 -2241 -2242 0
-2240 2241 2242 0
2241 -2211 -2212 0
-2241 2211 0
-2241 2212 0
2242 2243 -2244 0
2242 -2243 2244 0
-2242 -2243 -2244 0
-2242 2243 2244 0
2243 -2213 -2214 0
-2243 2213 0
-2243 2214 0
2244 2245 -2246 0
2244 -2245 2246 0
-2244 -2245 -2246 0
-2244 2245 2246 0
2245 -2215 -2216 0
-2245 2215 0
-2245 2216 0
2246 2247 -2248 0
2246 -2247 2248 0
-2246 -2247 -2248 0
-2246 2247 2248 0
2247 -2217 -2220 0
-2247 2217 0
-2247 2220 0
2248 2283 -2284 -2298 0
2248 -2284 2297 -2298 0
-2248 2298 0
-2248 2284 0
-2248 -2283 -2297 0
-2249 2161 2250 0
-2249 2184 2250 0
-2249 2206 2250 0
2249 -2250 0
2249 -2161 -2184 -2206 0
-2250 2251 2206 0
-2250 2224 2251 0
2250 -2251 0
2250 -2224 -2206 0
2251 -2207 -2208 0
-2251 2207 0
-2251 2208 0
-2252 -2253 -2257 0
-2252 2253 2257 0
2252 2253 -2257 0
2252 -2253 2257 0
2253 -2298 -2254 0
2253 -2298 -2255 0
-2253 2298 0
-2253 2254 2255 0
2254 -2284 -2227 0
-2254 2284 0
-2254 2227 0
2255 -2256 -2232 0
-2255 2256 0
-2255 2232 0
2256 2284 -2227 0
2256 -2284 2227 0
-2256 -2284 -2227 0
-2256 2284 2227 0
2257 -2258 2268 0
2257 2258 -2268 0
-2257 2258 2268 0
-2257 -2258 -2268 0
2258 2259 -2260 0
2258 -2259 2260 0
-2258 -2259 -2260 0
-2258 2259 2260 0
2259 -2241 -2242 0
-2259 2241 0
-2259 2242 0
2260 2261 -2262 0
2260 -2261 2262 0
-2260 -2261 -2262 0
-2260 2261 2262 0
2261 -2243 -2244 0
-2261 2243 0
-2261 2244 0
2262 2263 -2264 0
2262 -2263 2264 0
-2262 -2263 -2264 0
-2262 2263 2264 0
2263 -2245 -2246 0
-2263 2245 0
-2263 2246 0
2264 -2265 0
-2264 2265 0
-2265 2266 2267 0
2265 -2266 0
2265 -2267 0
2266 -2283 -2284 -2297 -2298 0
-2266 2298 0
-2266 2283 0
-2266 2297 0
-2266 2284 0
2267 -2247 -2248 0
-2267 2247 0
-2267 2248 0
-2268 2269 2270 0
2268 -2269 0
2268 -2270 0
2269 -2239 -2240 0
-2269 2239 0
-2269 2240 0
2270 -2238 -2249 0
-2270 2238 0
-2270 2249 0
-2299 0
2 0

