c Result of efficient AIG-to-CNF conversion using package CNF
p cnf 81 248
-2 3 17 35 46 0
2 -46 0
2 -3 0
2 -35 0
2 -17 0
-3 -4 -7 12 13 0
-3 4 7 12 13 0
-3 -4 -7 -12 -13 0
-3 4 7 -12 -13 0
3 -4 7 0
3 4 -7 0
3 -12 13 0
3 12 -13 0
-4 72 5 0
-4 61 72 0
-4 61 5 0
4 -61 -72 0
4 -72 -5 0
4 -61 -5 0
-5 60 6 0
-5 71 6 0
-5 60 71 0
5 -60 -71 0
5 -71 -6 0
5 -60 -6 0
6 -59 -70 0
-6 59 0
-6 70 0
-7 8 9 0
7 -8 0
7 -9 0
8 -61 -72 0
-8 61 0
-8 72 0
9 -10 -11 0
-9 10 0
-9 11 0
10 61 -72 0
10 -61 72 0
-10 -61 -72 0
-10 61 72 0
-11 60 6 0
-11 71 6 0
-11 60 71 0
11 -60 -71 0
11 -71 -6 0
11 -60 -6 0
-12 73 4 0
-12 62 73 0
-12 62 4 0
12 -62 -73 0
12 -73 -4 0
12 -62 -4 0
-13 10 15 0
-13 11 15 0
-13 14 15 0
13 -15 0
13 -10 -11 -14 0
14 62 -73 0
14 -62 73 0
-14 -62 -73 0
-14 62 73 0
-15 16 14 0
-15 8 16 0
15 -16 0
15 -8 -14 0
16 -62 -73 0
-16 62 0
-16 73 0
-17 18 19 23 0
-17 -18 -19 23 0
17 -23 0
17 18 -19 0
17 -18 19 0
-18 74 12 0
-18 63 74 0
-18 63 12 0
18 -63 -74 0
18 -74 -12 0
18 -63 -12 0
-19 20 21 0
19 -20 0
19 -21 0
20 -63 -74 0
-20 63 0
-20 74 0
21 -22 -13 0
-21 22 0
-21 13 0
22 63 -74 0
22 -63 74 0
-22 -63 -74 0
-22 63 74 0
-23 -24 -25 30 31 0
-23 24 25 30 31 0
-23 -24 -25 -30 -31 0
-23 24 25 -30 -31 0
23 -24 25 0
23 24 -25 0
23 -30 31 0
23 30 -31 0
-24 75 18 0
-24 64 75 0
-24 64 18 0
24 -64 -75 0
24 -75 -18 0
24 -64 -18 0
-25 13 26 0
-25 26 29 0
25 -26 0
25 -13 -29 0
-26 27 28 0
-26 20 27 0
26 -27 0
26 -20 -28 0
27 -64 -75 0
-27 64 0
-27 75 0
28 64 -75 0
28 -64 75 0
-28 -64 -75 0
-28 64 75 0
29 -22 -28 0
-29 22 0
-29 28 0
-30 76 24 0
-30 65 76 0
-30 65 24 0
30 -65 -76 0
30 -76 -24 0
30 -65 -24 0
-31 32 33 0
31 -32 0
31 -33 0
32 -65 -76 0
-32 65 0
-32 76 0
33 -34 -25 0
-33 34 0
-33 25 0
34 65 -76 0
34 -65 76 0
-34 -65 -76 0
-34 65 76 0
-35 -36 -39 0
-35 36 39 0
35 36 -39 0
35 -36 39 0
36 -37 38 0
36 37 -38 0
-36 37 38 0
-36 -37 -38 0
37 67 -78 0
37 -67 78 0
-37 -67 -78 0
-37 67 78 0
-38 77 30 0
-38 66 77 0
-38 66 30 0
38 -66 -77 0
38 -77 -30 0
38 -66 -30 0
39 -37 40 0
39 37 -40 0
-39 37 40 0
-39 -37 -40 0
-40 29 43 0
-40 41 43 0
-40 13 43 0
40 -43 0
40 -13 -29 -41 0
41 -34 -42 0
-41 34 0
-41 42 0
42 66 -77 0
42 -66 77 0
-42 -66 -77 0
-42 66 77 0
-43 32 44 45 0
-43 44 42 45 0
43 -45 0
43 -44 0
43 -32 -42 0
44 -66 -77 0
-44 66 0
-44 77 0
45 -26 -41 0
-45 26 0
-45 41 0
-46 -47 -48 -51 -54 0
-46 47 48 -51 -54 0
-46 -47 -48 51 54 0
-46 47 48 51 54 0
46 -47 48 0
46 47 -48 0
46 51 -54 0
46 -51 54 0
-47 78 38 0
-47 67 78 0
-47 67 38 0
47 -67 -78 0
47 -78 -38 0
47 -67 -38 0
-48 49 50 0
48 -49 0
48 -50 0
49 -67 -78 0
-49 67 0
-49 78 0
50 -37 -40 0
-50 37 0
-50 40 0
51 -52 53 0
51 52 -53 0
-51 52 53 0
-51 -52 -53 0
52 69 -80 0
52 -69 80 0
-52 -69 -80 0
-52 69 80 0
-53 79 47 0
-53 68 79 0
-53 68 47 0
53 -68 -79 0
53 -79 -47 0
53 -68 -47 0
54 -52 55 0
54 52 -55 0
-54 52 55 0
-54 -52 -55 0
-55 37 57 0
-55 40 57 0
-55 56 57 0
55 -57 0
55 -37 -40 -56 0
56 68 -79 0
56 -68 79 0
-56 -68 -79 0
-56 68 79 0
-57 58 56 0
-57 49 58 0
57 -58 0
57 -49 -56 0
58 -68 -79 0
-58 68 0
-58 79 0
-81 0
2 0

