c Result of efficient AIG-to-CNF conversion using package CNF
p cnf 46 131
-2 3 0
2 -3 0
-3 4 -18 -19 23 0
-3 4 18 19 23 0
3 -23 0
3 18 -19 0
3 -4 0
3 -18 19 0
-4 -5 -8 13 14 0
-4 5 8 13 14 0
-4 -5 -8 -13 -14 0
-4 5 8 -13 -14 0
4 -5 8 0
4 5 -8 0
4 -13 14 0
4 13 -14 0
-5 41 6 0
-5 34 41 0
-5 34 6 0
5 -34 -41 0
5 -41 -6 0
5 -34 -6 0
-6 33 7 0
-6 40 7 0
-6 33 40 0
6 -33 -40 0
6 -40 -7 0
6 -33 -7 0
7 -32 -39 0
-7 32 0
-7 39 0
-8 9 10 0
8 -9 0
8 -10 0
9 -34 -41 0
-9 34 0
-9 41 0
10 -11 -12 0
-10 11 0
-10 12 0
11 34 -41 0
11 -34 41 0
-11 -34 -41 0
-11 34 41 0
-12 33 7 0
-12 40 7 0
-12 33 40 0
12 -33 -40 0
12 -40 -7 0
12 -33 -7 0
-13 42 5 0
-13 35 42 0
-13 35 5 0
13 -35 -42 0
13 -42 -5 0
13 -35 -5 0
-14 11 16 0
-14 12 16 0
-14 15 16 0
14 -16 0
14 -11 -12 -15 0
15 35 -42 0
15 -35 42 0
-15 -35 -42 0
-15 35 42 0
-16 17 15 0
-16 9 17 0
16 -17 0
16 -9 -15 0
17 -35 -42 0
-17 35 0
-17 42 0
-18 43 13 0
-18 36 43 0
-18 36 13 0
18 -36 -43 0
18 -43 -13 0
18 -36 -13 0
-19 20 21 0
19 -20 0
19 -21 0
20 -36 -43 0
-20 36 0
-20 43 0
21 -22 -14 0
-21 22 0
-21 14 0
22 36 -43 0
22 -36 43 0
-22 -36 -43 0
-22 36 43 0
-23 -24 -27 0
-23 24 27 0
23 24 -27 0
23 -24 27 0
24 -25 26 0
24 25 -26 0
-24 25 26 0
-24 -25 -26 0
25 38 -45 0
25 -38 45 0
-25 -38 -45 0
-25 38 45 0
-26 44 18 0
-26 37 44 0
-26 37 18 0
26 -37 -44 0
26 -44 -18 0
26 -37 -18 0
27 -25 28 0
27 25 -28 0
-27 25 28 0
-27 -25 -28 0
-28 22 30 0
-28 14 30 0
-28 29 30 0
28 -30 0
28 -22 -14 -29 0
29 37 -44 0
29 -37 44 0
-29 -37 -44 0
-29 37 44 0
-30 31 29 0
-30 20 31 0
30 -31 0
30 -20 -29 0
31 -37 -44 0
-31 37 0
-31 44 0
-46 0
2 0

