c Result of efficient AIG-to-CNF conversion using package CNF
p cnf 105 325
-2 3 30 49 63 0
2 -63 0
2 -3 0
2 -49 0
2 -30 0
-3 4 -13 -14 18 0
-3 4 13 14 18 0
3 -18 0
3 13 -14 0
3 -4 0
3 -13 14 0
-4 5 8 0
-4 -5 -8 0
4 -5 8 0
4 5 -8 0
-5 93 6 0
-5 79 93 0
-5 79 6 0
5 -79 -93 0
5 -93 -6 0
5 -79 -6 0
-6 78 7 0
-6 92 7 0
-6 78 92 0
6 -78 -92 0
6 -92 -7 0
6 -78 -7 0
7 -77 -91 0
-7 77 0
-7 91 0
-8 9 10 0
8 -9 0
8 -10 0
9 -79 -93 0
-9 79 0
-9 93 0
10 -11 -12 0
-10 11 0
-10 12 0
11 79 -93 0
11 -79 93 0
-11 -79 -93 0
-11 79 93 0
-12 78 7 0
-12 92 7 0
-12 78 92 0
12 -78 -92 0
12 -92 -7 0
12 -78 -7 0
-13 94 5 0
-13 80 94 0
-13 80 5 0
13 -80 -94 0
13 -94 -5 0
13 -80 -5 0
-14 11 16 0
-14 12 16 0
-14 15 16 0
14 -16 0
14 -11 -12 -15 0
15 80 -94 0
15 -80 94 0
-15 -80 -94 0
-15 80 94 0
-16 17 15 0
-16 9 17 0
16 -17 0
16 -9 -15 0
17 -80 -94 0
-17 80 0
-17 94 0
-18 -19 -20 24 25 0
-18 19 20 24 25 0
-18 -19 -20 -24 -25 0
-18 19 20 -24 -25 0
18 -19 20 0
18 19 -20 0
18 -24 25 0
18 24 -25 0
-19 95 13 0
-19 81 95 0
-19 81 13 0
19 -81 -95 0
19 -95 -13 0
19 -81 -13 0
-20 21 22 0
20 -21 0
20 -22 0
21 -81 -95 0
-21 81 0
-21 95 0
22 -23 -14 0
-22 23 0
-22 14 0
23 81 -95 0
23 -81 95 0
-23 -81 -95 0
-23 81 95 0
-24 96 19 0
-24 82 96 0
-24 82 19 0
24 -82 -96 0
24 -96 -19 0
24 -82 -19 0
-25 14 26 0
-25 26 29 0
25 -26 0
25 -14 -29 0
-26 27 28 0
-26 21 27 0
26 -27 0
26 -21 -28 0
27 -82 -96 0
-27 82 0
-27 96 0
28 82 -96 0
28 -82 96 0
-28 -82 -96 0
-28 82 96 0
29 -23 -28 0
-29 23 0
-29 28 0
-30 31 32 36 0
-30 -31 -32 36 0
30 -36 0
30 31 -32 0
30 -31 32 0
-31 97 24 0
-31 83 97 0
-31 83 24 0
31 -83 -97 0
31 -97 -24 0
31 -83 -24 0
-32 33 34 0
32 -33 0
32 -34 0
33 -83 -97 0
-33 83 0
-33 97 0
34 -35 -25 0
-34 35 0
-34 25 0
35 83 -97 0
35 -83 97 0
-35 -83 -97 0
-35 83 97 0
-36 -37 -38 44 45 0
-36 37 38 44 45 0
-36 -37 -38 -44 -45 0
-36 37 38 -44 -45 0
36 -37 38 0
36 37 -38 0
36 -44 45 0
36 44 -45 0
-37 98 31 0
-37 84 98 0
-37 84 31 0
37 -84 -98 0
37 -98 -31 0
37 -84 -31 0
-38 29 41 0
-38 39 41 0
-38 14 41 0
38 -41 0
38 -14 -29 -39 0
39 -35 -40 0
-39 35 0
-39 40 0
40 84 -98 0
40 -84 98 0
-40 -84 -98 0
-40 84 98 0
-41 33 42 43 0
-41 42 40 43 0
41 -43 0
41 -42 0
41 -33 -40 0
42 -84 -98 0
-42 84 0
-42 98 0
43 -26 -39 0
-43 26 0
-43 39 0
-44 99 37 0
-44 85 99 0
-44 85 37 0
44 -85 -99 0
44 -99 -37 0
44 -85 -37 0
-45 46 47 0
45 -46 0
45 -47 0
46 -85 -99 0
-46 85 0
-46 99 0
47 -48 -38 0
-47 48 0
-47 38 0
48 85 -99 0
48 -85 99 0
-48 -85 -99 0
-48 85 99 0
-49 50 53 59 60 0
-49 -50 -53 59 60 0
-49 50 53 -59 -60 0
-49 -50 -53 -59 -60 0
49 50 -53 0
49 -50 53 0
49 -59 60 0
49 59 -60 0
50 -51 52 0
50 51 -52 0
-50 51 52 0
-50 -51 -52 0
51 87 -101 0
51 -87 101 0
-51 -87 -101 0
-51 87 101 0
-52 100 44 0
-52 86 100 0
-52 86 44 0
52 -86 -100 0
52 -100 -44 0
52 -86 -44 0
53 -51 54 0
53 51 -54 0
-53 51 54 0
-53 -51 -54 0
-54 38 55 0
-54 55 58 0
54 -55 0
54 -38 -58 0
-55 56 57 0
-55 46 56 0
55 -56 0
55 -46 -57 0
56 -86 -100 0
-56 86 0
-56 100 0
57 86 -100 0
57 -86 100 0
-57 -86 -100 0
-57 86 100 0
58 -48 -57 0
-58 48 0
-58 57 0
-59 101 52 0
-59 87 101 0
-59 87 52 0
59 -87 -101 0
59 -101 -52 0
59 -87 -52 0
-60 61 62 0
60 -61 0
60 -62 0
61 -87 -101 0
-61 87 0
-61 101 0
62 -51 -54 0
-62 51 0
-62 54 0
-63 64 67 74 75 0
-63 -64 -67 74 75 0
-63 64 67 -74 -75 0
-63 -64 -67 -74 -75 0
63 64 -67 0
63 -64 67 0
63 -74 75 0
63 74 -75 0
64 -65 66 0
64 65 -66 0
-64 65 66 0
-64 -65 -66 0
65 89 -103 0
65 -89 103 0
-65 -89 -103 0
-65 89 103 0
-66 102 59 0
-66 88 102 0
-66 88 59 0
66 -88 -102 0
66 -102 -59 0
66 -88 -59 0
67 -65 68 0
67 65 -68 0
-67 65 68 0
-67 -65 -68 0
-68 58 71 0
-68 69 71 0
-68 38 71 0
68 -71 0
68 -38 -58 -69 0
69 -51 -70 0
-69 51 0
-69 70 0
70 88 -102 0
70 -88 102 0
-70 -88 -102 0
-70 88 102 0
-71 61 72 73 0
-71 72 70 73 0
71 -73 0
71 -72 0
71 -61 -70 0
72 -88 -102 0
-72 88 0
-72 102 0
73 -55 -69 0
-73 55 0
-73 69 0
-74 103 66 0
-74 89 103 0
-74 89 66 0
74 -89 -103 0
74 -103 -66 0
74 -89 -66 0
-75 89 76 0
-75 103 76 0
75 -76 0
75 -89 -103 0
76 -65 -68 0
-76 65 0
-76 68 0
-105 0
2 0

