c Result of efficient AIG-to-CNF conversion using package CNF
p cnf 62 216
-2 3 4 5 22 0
-2 -3 -4 5 22 0
2 -22 0
2 3 -4 0
2 -5 0
2 -3 4 0
3 -56 -59 0
-3 56 0
-3 59 0
-4 3 0
4 -3 0
-5 6 9 11 16 0
-5 -6 -9 -11 -16 0
-5 6 9 -11 -16 0
-5 -6 -9 11 16 0
5 6 -9 0
5 -6 9 0
5 -11 16 0
5 11 -16 0
-6 7 0
6 -7 0
-7 56 8 0
-7 60 8 0
-7 -56 -60 -8 0
7 56 -8 0
7 -56 -60 8 0
7 60 -8 0
8 -57 -59 0
-8 57 0
-8 59 0
9 8 -10 0
9 -8 10 0
-9 -8 -10 0
-9 8 10 0
10 -56 -60 0
-10 56 0
-10 60 0
-11 56 12 0
-11 -56 -61 -12 0
-11 61 12 0
11 56 -12 0
11 61 -12 0
11 -56 -61 12 0
-12 60 14 0
-12 -60 -13 -15 0
-12 -60 13 15 0
12 60 -14 0
12 -60 -13 15 0
12 -60 13 -15 0
13 -56 -8 0
-13 56 0
-13 8 0
14 -58 -59 0
-14 58 0
-14 59 0
15 57 -14 0
15 -57 14 0
-15 -57 -14 0
-15 57 14 0
16 17 -18 0
16 -17 18 0
-16 -17 -18 0
-16 17 18 0
17 -56 -60 -8 0
-17 56 0
-17 60 0
-17 8 0
18 14 -19 0
18 -14 19 0
-18 -14 -19 0
-18 14 19 0
19 20 -21 0
19 -20 21 0
-19 -20 -21 0
-19 20 21 0
20 -56 -61 0
-20 56 0
-20 61 0
21 -57 -60 0
-21 57 0
-21 60 0
-22 -23 -28 37 0
-22 23 28 37 0
22 -37 0
22 -23 28 0
22 23 -28 0
-23 61 25 0
-23 -61 -24 -27 0
-23 -61 24 27 0
23 61 -25 0
23 -61 -24 27 0
23 -61 24 -27 0
24 -56 -12 0
-24 56 0
-24 12 0
25 58 -60 -26 0
25 -58 -60 26 0
-25 60 0
-25 -58 -26 0
-25 58 26 0
-26 59 0
-26 57 0
-26 56 58 0
26 -56 -57 -59 0
26 -57 -58 -59 0
27 57 -25 0
27 -57 25 0
-27 -57 -25 0
-27 57 25 0
28 29 -30 0
28 -29 30 0
-28 -29 -30 0
-28 29 30 0
29 -17 -18 0
-29 17 0
-29 18 0
30 -31 34 0
30 31 -34 0
-30 31 34 0
-30 -31 -34 0
31 32 -33 0
31 -32 33 0
-31 -32 -33 0
-31 32 33 0
32 -57 -61 0
-32 57 0
-32 61 0
33 -58 -60 0
-33 58 0
-33 60 0
-34 35 36 0
34 -35 0
34 -36 0
35 -56 -57 -60 -61 0
-35 61 0
-35 56 0
-35 60 0
-35 57 0
36 -14 -19 0
-36 14 0
-36 19 0
-37 38 45 -50 -53 0
-37 -38 -45 50 53 0
-37 38 45 50 53 0
-37 -38 -45 -50 -53 0
37 38 -45 0
37 -38 45 0
37 50 -53 0
37 -50 53 0
-38 61 39 0
-38 -61 41 42 0
-38 -61 -41 -42 0
38 61 -39 0
38 -61 41 -42 0
38 -61 -41 42 0
39 -60 -40 0
-39 60 0
-39 40 0
40 -57 -58 -59 0
-40 57 0
-40 58 0
-40 59 0
41 58 -39 0
41 -58 39 0
-41 -58 -39 0
-41 58 39 0
-42 43 44 0
42 -43 0
42 -44 0
43 -57 -25 0
-43 57 0
-43 25 0
44 -24 -27 0
-44 24 0
-44 27 0
45 -46 47 0
45 46 -47 0
-45 46 47 0
-45 -46 -47 0
46 57 -58 -61 0
46 -58 60 -61 0
-46 61 0
-46 58 0
-46 -57 -60 0
-47 48 49 0
47 -48 0
47 -49 0
48 -31 -34 0
-48 31 0
-48 34 0
49 -29 -30 0
-49 29 0
-49 30 0
50 -61 -51 0
50 -61 -52 0
-50 61 0
-50 51 52 0
51 -58 -39 0
-51 58 0
-51 39 0
52 -41 -42 0
-52 41 0
-52 42 0
-53 54 55 0
53 -54 0
53 -55 0
54 -57 -58 -60 -61 0
-54 61 0
-54 57 0
-54 60 0
-54 58 0
55 -46 -47 0
-55 46 0
-55 47 0
-62 0
2 0

