c Result of efficient AIG-to-CNF conversion using package CNF
p cnf 598 1969
-2 3 91 153 216 0
2 -216 0
2 -3 0
2 -153 0
2 -91 0
-3 4 13 37 0
3 -4 0
3 -13 0
3 -37 0
-4 5 8 0
-4 -5 -8 0
4 -5 8 0
4 5 -8 0
-5 536 6 0
-5 472 536 0
-5 472 6 0
5 -472 -536 0
5 -536 -6 0
5 -472 -6 0
-6 471 7 0
-6 535 7 0
-6 471 535 0
6 -471 -535 0
6 -535 -7 0
6 -471 -7 0
7 -470 -534 0
-7 470 0
-7 534 0
-8 9 10 0
8 -9 0
8 -10 0
9 -472 -536 0
-9 472 0
-9 536 0
10 -11 -12 0
-10 11 0
-10 12 0
11 472 -536 0
11 -472 536 0
-11 -472 -536 0
-11 472 536 0
-12 471 7 0
-12 535 7 0
-12 471 535 0
12 -471 -535 0
12 -535 -7 0
12 -471 -7 0
-13 -14 -15 19 25 0
-13 14 15 19 25 0
13 -25 0
13 14 -15 0
13 -19 0
13 -14 15 0
-14 537 5 0
-14 473 537 0
-14 473 5 0
14 -473 -537 0
14 -537 -5 0
14 -473 -5 0
-15 11 17 0
-15 12 17 0
-15 16 17 0
15 -17 0
15 -11 -12 -16 0
16 473 -537 0
16 -473 537 0
-16 -473 -537 0
-16 473 537 0
-17 18 16 0
-17 9 18 0
17 -18 0
17 -9 -16 0
18 -473 -537 0
-18 473 0
-18 537 0
-19 20 21 0
-19 -20 -21 0
19 -20 21 0
19 20 -21 0
-20 538 14 0
-20 474 538 0
-20 474 14 0
20 -474 -538 0
20 -538 -14 0
20 -474 -14 0
-21 22 23 0
21 -22 0
21 -23 0
22 -474 -538 0
-22 474 0
-22 538 0
23 -24 -15 0
-23 24 0
-23 15 0
24 474 -538 0
24 -474 538 0
-24 -474 -538 0
-24 474 538 0
-25 -26 -27 32 33 0
-25 26 27 32 33 0
-25 -26 -27 -32 -33 0
-25 26 27 -32 -33 0
25 -26 27 0
25 26 -27 0
25 -32 33 0
25 32 -33 0
-26 539 20 0
-26 475 539 0
-26 475 20 0
26 -475 -539 0
26 -539 -20 0
26 -475 -20 0
-27 15 28 0
-27 28 31 0
27 -28 0
27 -15 -31 0
-28 29 30 0
-28 22 29 0
28 -29 0
28 -22 -30 0
29 -475 -539 0
-29 475 0
-29 539 0
30 475 -539 0
30 -475 539 0
-30 -475 -539 0
-30 475 539 0
31 -24 -30 0
-31 24 0
-31 30 0
-32 540 26 0
-32 476 540 0
-32 476 26 0
32 -476 -540 0
32 -540 -26 0
32 -476 -26 0
-33 34 35 0
33 -34 0
33 -35 0
34 -476 -540 0
-34 476 0
-34 540 0
35 -36 -27 0
-35 36 0
-35 27 0
36 476 -540 0
36 -476 540 0
-36 -476 -540 0
-36 476 540 0
-37 38 51 63 77 0
37 -77 0
37 -38 0
37 -63 0
37 -51 0
-38 -39 -40 46 47 0
-38 39 40 46 47 0
-38 -39 -40 -46 -47 0
-38 39 40 -46 -47 0
38 -39 40 0
38 39 -40 0
38 -46 47 0
38 46 -47 0
-39 541 32 0
-39 477 541 0
-39 477 32 0
39 -477 -541 0
39 -541 -32 0
39 -477 -32 0
-40 31 43 0
-40 41 43 0
-40 15 43 0
40 -43 0
40 -15 -31 -41 0
41 -36 -42 0
-41 36 0
-41 42 0
42 477 -541 0
42 -477 541 0
-42 -477 -541 0
-42 477 541 0
-43 34 44 45 0
-43 44 42 45 0
43 -45 0
43 -44 0
43 -34 -42 0
44 -477 -541 0
-44 477 0
-44 541 0
45 -28 -41 0
-45 28 0
-45 41 0
-46 542 39 0
-46 478 542 0
-46 478 39 0
46 -478 -542 0
46 -542 -39 0
46 -478 -39 0
-47 48 49 0
47 -48 0
47 -49 0
48 -478 -542 0
-48 478 0
-48 542 0
49 -50 -40 0
-49 50 0
-49 40 0
50 478 -542 0
50 -478 542 0
-50 -478 -542 0
-50 478 542 0
-51 -52 -53 58 59 0
-51 52 53 58 59 0
-51 -52 -53 -58 -59 0
-51 52 53 -58 -59 0
51 -52 53 0
51 52 -53 0
51 -58 59 0
51 58 -59 0
-52 543 46 0
-52 479 543 0
-52 479 46 0
52 -479 -543 0
52 -543 -46 0
52 -479 -46 0
-53 40 54 0
-53 54 57 0
53 -54 0
53 -40 -57 0
-54 55 56 0
-54 48 55 0
54 -55 0
54 -48 -56 0
55 -479 -543 0
-55 479 0
-55 543 0
56 479 -543 0
56 -479 543 0
-56 -479 -543 0
-56 479 543 0
57 -50 -56 0
-57 50 0
-57 56 0
-58 544 52 0
-58 480 544 0
-58 480 52 0
58 -480 -544 0
58 -544 -52 0
58 -480 -52 0
-59 60 61 0
59 -60 0
59 -61 0
60 -480 -544 0
-60 480 0
-60 544 0
61 -62 -53 0
-61 62 0
-61 53 0
62 480 -544 0
62 -480 544 0
-62 -480 -544 0
-62 480 544 0
-63 -64 -65 72 73 0
-63 64 65 72 73 0
-63 -64 -65 -72 -73 0
-63 64 65 -72 -73 0
63 -64 65 0
63 64 -65 0
63 -72 73 0
63 72 -73 0
-64 545 58 0
-64 481 545 0
-64 481 58 0
64 -481 -545 0
64 -545 -58 0
64 -481 -58 0
-65 40 66 0
-65 66 71 0
65 -66 0
65 -40 -71 0
-66 60 67 69 0
-66 67 68 69 0
66 -69 0
66 -67 0
66 -60 -68 0
67 -481 -545 0
-67 481 0
-67 545 0
68 481 -545 0
68 -481 545 0
-68 -481 -545 0
-68 481 545 0
69 -54 -70 0
-69 54 0
-69 70 0
70 -62 -68 0
-70 62 0
-70 68 0
71 -57 -70 0
-71 57 0
-71 70 0
-72 546 64 0
-72 482 546 0
-72 482 64 0
72 -482 -546 0
72 -546 -64 0
72 -482 -64 0
-73 74 75 0
73 -74 0
73 -75 0
74 -482 -546 0
-74 482 0
-74 546 0
75 -76 -65 0
-75 76 0
-75 65 0
76 482 -546 0
76 -482 546 0
-76 -482 -546 0
-76 482 546 0
-77 78 81 87 88 0
-77 -78 -81 87 88 0
-77 78 81 -87 -88 0
-77 -78 -81 -87 -88 0
77 78 -81 0
77 -78 81 0
77 -87 88 0
77 87 -88 0
78 -79 80 0
78 79 -80 0
-78 79 80 0
-78 -79 -80 0
79 484 -548 0
79 -484 548 0
-79 -484 -548 0
-79 484 548 0
-80 547 72 0
-80 483 547 0
-80 483 72 0
80 -483 -547 0
80 -547 -72 0
80 -483 -72 0
81 -79 82 0
81 79 -82 0
-81 79 82 0
-81 -79 -82 0
-82 65 83 0
-82 83 86 0
82 -83 0
82 -65 -86 0
-83 84 85 0
-83 74 84 0
83 -84 0
83 -74 -85 0
84 -483 -547 0
-84 483 0
-84 547 0
85 483 -547 0
85 -483 547 0
-85 -483 -547 0
-85 483 547 0
86 -76 -85 0
-86 76 0
-86 85 0
-87 548 80 0
-87 484 548 0
-87 484 80 0
87 -484 -548 0
87 -548 -80 0
87 -484 -80 0
-88 89 90 0
88 -89 0
88 -90 0
89 -484 -548 0
-89 484 0
-89 548 0
90 -79 -82 0
-90 79 0
-90 82 0
-91 92 109 123 139 0
91 -139 0
91 -92 0
91 -123 0
91 -109 0
-92 93 96 105 106 0
-92 -93 -96 105 106 0
-92 93 96 -105 -106 0
-92 -93 -96 -105 -106 0
92 93 -96 0
92 -93 96 0
92 -105 106 0
92 105 -106 0
93 -94 95 0
93 94 -95 0
-93 94 95 0
-93 -94 -95 0
94 486 -550 0
94 -486 550 0
-94 -486 -550 0
-94 486 550 0
-95 549 87 0
-95 485 549 0
-95 485 87 0
95 -485 -549 0
95 -549 -87 0
95 -485 -87 0
96 -94 97 0
96 94 -97 0
-96 94 97 0
-96 -94 -97 0
-97 71 101 0
-97 98 101 0
-97 40 101 0
97 -101 0
97 -40 -71 -98 0
98 -86 -99 0
-98 86 0
-98 99 0
99 -79 -100 0
-99 79 0
-99 100 0
100 485 -549 0
100 -485 549 0
-100 -485 -549 0
-100 485 549 0
-101 66 102 104 0
-101 102 104 98 0
101 -102 0
101 -104 0
101 -66 -98 0
-102 103 100 0
-102 89 103 0
102 -103 0
102 -89 -100 0
103 -485 -549 0
-103 485 0
-103 549 0
104 -83 -99 0
-104 83 0
-104 99 0
-105 550 95 0
-105 486 550 0
-105 486 95 0
105 -486 -550 0
105 -550 -95 0
105 -486 -95 0
-106 107 108 0
106 -107 0
106 -108 0
107 -486 -550 0
-107 486 0
-107 550 0
108 -94 -97 0
-108 94 0
-108 97 0
-109 110 113 119 120 0
-109 -110 -113 119 120 0
-109 110 113 -119 -120 0
-109 -110 -113 -119 -120 0
109 110 -113 0
109 -110 113 0
109 -119 120 0
109 119 -120 0
110 -111 112 0
110 111 -112 0
-110 111 112 0
-110 -111 -112 0
111 488 -552 0
111 -488 552 0
-111 -488 -552 0
-111 488 552 0
-112 551 105 0
-112 487 551 0
-112 487 105 0
112 -487 -551 0
112 -551 -105 0
112 -487 -105 0
113 -111 114 0
113 111 -114 0
-113 111 114 0
-113 -111 -114 0
-114 97 115 0
-114 115 118 0
114 -115 0
114 -97 -118 0
-115 116 117 0
-115 107 116 0
115 -116 0
115 -107 -117 0
116 -487 -551 0
-116 487 0
-116 551 0
117 487 -551 0
117 -487 551 0
-117 -487 -551 0
-117 487 551 0
118 -94 -117 0
-118 94 0
-118 117 0
-119 552 112 0
-119 488 552 0
-119 488 112 0
119 -488 -552 0
119 -552 -112 0
119 -488 -112 0
-120 121 122 0
120 -121 0
120 -122 0
121 -488 -552 0
-121 488 0
-121 552 0
122 -111 -114 0
-122 111 0
-122 114 0
-123 124 127 135 136 0
-123 -124 -127 135 136 0
-123 124 127 -135 -136 0
-123 -124 -127 -135 -136 0
123 124 -127 0
123 -124 127 0
123 -135 136 0
123 135 -136 0
124 -125 126 0
124 125 -126 0
-124 125 126 0
-124 -125 -126 0
125 490 -554 0
125 -490 554 0
-125 -490 -554 0
-125 490 554 0
-126 553 119 0
-126 489 553 0
-126 489 119 0
126 -489 -553 0
126 -553 -119 0
126 -489 -119 0
127 -125 128 0
127 125 -128 0
-127 125 128 0
-127 -125 -128 0
-128 97 129 0
-128 129 134 0
128 -129 0
128 -97 -134 0
-129 121 130 132 0
-129 130 131 132 0
129 -132 0
129 -130 0
129 -121 -131 0
130 -489 -553 0
-130 489 0
-130 553 0
131 489 -553 0
131 -489 553 0
-131 -489 -553 0
-131 489 553 0
132 -115 -133 0
-132 115 0
-132 133 0
133 -111 -131 0
-133 111 0
-133 131 0
134 -118 -133 0
-134 118 0
-134 133 0
-135 554 126 0
-135 490 554 0
-135 490 126 0
135 -490 -554 0
135 -554 -126 0
135 -490 -126 0
-136 137 138 0
136 -137 0
136 -138 0
137 -490 -554 0
-137 490 0
-137 554 0
138 -125 -128 0
-138 125 0
-138 128 0
-139 140 143 149 150 0
-139 -140 -143 149 150 0
-139 140 143 -149 -150 0
-139 -140 -143 -149 -150 0
139 140 -143 0
139 -140 143 0
139 -149 150 0
139 149 -150 0
140 -141 142 0
140 141 -142 0
-140 141 142 0
-140 -141 -142 0
141 492 -556 0
141 -492 556 0
-141 -492 -556 0
-141 492 556 0
-142 555 135 0
-142 491 555 0
-142 491 135 0
142 -491 -555 0
142 -555 -135 0
142 -491 -135 0
143 -141 144 0
143 141 -144 0
-143 141 144 0
-143 -141 -144 0
-144 128 145 0
-144 145 148 0
144 -145 0
144 -128 -148 0
-145 146 147 0
-145 137 146 0
145 -146 0
145 -137 -147 0
146 -491 -555 0
-146 491 0
-146 555 0
147 491 -555 0
147 -491 555 0
-147 -491 -555 0
-147 491 555 0
148 -125 -147 0
-148 125 0
-148 147 0
-149 556 142 0
-149 492 556 0
-149 492 142 0
149 -492 -556 0
149 -556 -142 0
149 -492 -142 0
-150 151 152 0
150 -151 0
150 -152 0
151 -492 -556 0
-151 492 0
-151 556 0
152 -141 -144 0
-152 141 0
-152 144 0
-153 154 172 186 202 0
153 -202 0
153 -154 0
153 -186 0
153 -172 0
-154 155 158 168 169 0
-154 -155 -158 168 169 0
-154 155 158 -168 -169 0
-154 -155 -158 -168 -169 0
154 155 -158 0
154 -155 158 0
154 -168 169 0
154 168 -169 0
155 -156 157 0
155 156 -157 0
-155 156 157 0
-155 -156 -157 0
156 494 -558 0
156 -494 558 0
-156 -494 -558 0
-156 494 558 0
-157 557 149 0
-157 493 557 0
-157 493 149 0
157 -493 -557 0
157 -557 -149 0
157 -493 -149 0
158 -156 159 0
158 156 -159 0
-158 156 159 0
-158 -156 -159 0
-159 97 160 0
-159 160 167 0
159 -160 0
159 -97 -167 0
-160 129 161 164 0
-160 161 164 166 0
160 -161 0
160 -164 0
160 -129 -166 0
-161 162 163 0
-161 151 162 0
161 -162 0
161 -151 -163 0
162 -493 -557 0
-162 493 0
-162 557 0
163 493 -557 0
163 -493 557 0
-163 -493 -557 0
-163 493 557 0
164 -145 -165 0
-164 145 0
-164 165 0
165 -141 -163 0
-165 141 0
-165 163 0
166 -148 -165 0
-166 148 0
-166 165 0
167 -134 -166 0
-167 134 0
-167 166 0
-168 558 157 0
-168 494 558 0
-168 494 157 0
168 -494 -558 0
168 -558 -157 0
168 -494 -157 0
-169 170 171 0
169 -170 0
169 -171 0
170 -494 -558 0
-170 494 0
-170 558 0
171 -156 -159 0
-171 156 0
-171 159 0
-172 173 176 182 183 0
-172 -173 -176 182 183 0
-172 173 176 -182 -183 0
-172 -173 -176 -182 -183 0
172 173 -176 0
172 -173 176 0
172 -182 183 0
172 182 -183 0
173 -174 175 0
173 174 -175 0
-173 174 175 0
-173 -174 -175 0
174 496 -560 0
174 -496 560 0
-174 -496 -560 0
-174 496 560 0
-175 559 168 0
-175 495 559 0
-175 495 168 0
175 -495 -559 0
175 -559 -168 0
175 -495 -168 0
176 -174 177 0
176 174 -177 0
-176 174 177 0
-176 -174 -177 0
-177 159 178 0
-177 178 181 0
177 -178 0
177 -159 -181 0
-178 179 180 0
-178 170 179 0
178 -179 0
178 -170 -180 0
179 -495 -559 0
-179 495 0
-179 559 0
180 495 -559 0
180 -495 559 0
-180 -495 -559 0
-180 495 559 0
181 -156 -180 0
-181 156 0
-181 180 0
-182 560 175 0
-182 496 560 0
-182 496 175 0
182 -496 -560 0
182 -560 -175 0
182 -496 -175 0
-183 184 185 0
183 -184 0
183 -185 0
184 -496 -560 0
-184 496 0
-184 560 0
185 -174 -177 0
-185 174 0
-185 177 0
-186 187 190 198 199 0
-186 -187 -190 198 199 0
-186 187 190 -198 -199 0
-186 -187 -190 -198 -199 0
186 187 -190 0
186 -187 190 0
186 -198 199 0
186 198 -199 0
187 -188 189 0
187 188 -189 0
-187 188 189 0
-187 -188 -189 0
188 498 -562 0
188 -498 562 0
-188 -498 -562 0
-188 498 562 0
-189 561 182 0
-189 497 561 0
-189 497 182 0
189 -497 -561 0
189 -561 -182 0
189 -497 -182 0
190 -188 191 0
190 188 -191 0
-190 188 191 0
-190 -188 -191 0
-191 159 192 0
-191 192 197 0
191 -192 0
191 -159 -197 0
-192 184 193 195 0
-192 193 194 195 0
192 -195 0
192 -193 0
192 -184 -194 0
193 -497 -561 0
-193 497 0
-193 561 0
194 497 -561 0
194 -497 561 0
-194 -497 -561 0
-194 497 561 0
195 -178 -196 0
-195 178 0
-195 196 0
196 -174 -194 0
-196 174 0
-196 194 0
197 -181 -196 0
-197 181 0
-197 196 0
-198 562 189 0
-198 498 562 0
-198 498 189 0
198 -498 -562 0
198 -562 -189 0
198 -498 -189 0
-199 200 201 0
199 -200 0
199 -201 0
200 -498 -562 0
-200 498 0
-200 562 0
201 -188 -191 0
-201 188 0
-201 191 0
-202 203 206 212 213 0
-202 -203 -206 212 213 0
-202 203 206 -212 -213 0
-202 -203 -206 -212 -213 0
202 203 -206 0
202 -203 206 0
202 -212 213 0
202 212 -213 0
203 -204 205 0
203 204 -205 0
-203 204 205 0
-203 -204 -205 0
204 500 -564 0
204 -500 564 0
-204 -500 -564 0
-204 500 564 0
-205 563 198 0
-205 499 563 0
-205 499 198 0
205 -499 -563 0
205 -563 -198 0
205 -499 -198 0
206 -204 207 0
206 204 -207 0
-206 204 207 0
-206 -204 -207 0
-207 191 208 0
-207 208 211 0
207 -208 0
207 -191 -211 0
-208 209 210 0
-208 200 209 0
208 -209 0
208 -200 -210 0
209 -499 -563 0
-209 499 0
-209 563 0
210 499 -563 0
210 -499 563 0
-210 -499 -563 0
-210 499 563 0
211 -188 -210 0
-211 188 0
-211 210 0
-212 564 205 0
-212 500 564 0
-212 500 205 0
212 -500 -564 0
212 -564 -205 0
212 -500 -205 0
-213 214 215 0
213 -214 0
213 -215 0
214 -500 -564 0
-214 500 0
-214 564 0
215 -204 -207 0
-215 204 0
-215 207 0
-216 217 281 344 408 0
216 -408 0
216 -217 0
216 -344 0
216 -281 0
-217 218 237 251 267 0
217 -267 0
217 -218 0
217 -251 0
217 -237 0
-218 219 222 233 234 0
-218 -219 -222 233 234 0
-218 219 222 -233 -234 0
-218 -219 -222 -233 -234 0
218 219 -222 0
218 -219 222 0
218 -233 234 0
218 233 -234 0
219 -220 221 0
219 220 -221 0
-219 220 221 0
-219 -220 -221 0
220 502 -566 0
220 -502 566 0
-220 -502 -566 0
-220 502 566 0
-221 565 212 0
-221 501 565 0
-221 501 212 0
221 -501 -565 0
221 -565 -212 0
221 -501 -212 0
222 -220 223 0
222 220 -223 0
-222 220 223 0
-222 -220 -223 0
-223 167 228 0
-223 224 228 0
-223 97 228 0
223 -228 0
223 -97 -167 -224 0
224 -197 -225 0
-224 197 0
-224 225 0
225 -211 -226 0
-225 211 0
-225 226 0
226 -204 -227 0
-226 204 0
-226 227 0
227 501 -565 0
227 -501 565 0
-227 -501 -565 0
-227 501 565 0
-228 160 229 232 0
-228 229 232 224 0
228 -229 0
228 -232 0
228 -160 -224 0
-229 214 230 231 0
-229 230 227 231 0
229 -231 0
229 -230 0
229 -214 -227 0
230 -501 -565 0
-230 501 0
-230 565 0
231 -208 -226 0
-231 208 0
-231 226 0
232 -192 -225 0
-232 192 0
-232 225 0
-233 566 221 0
-233 502 566 0
-233 502 221 0
233 -502 -566 0
233 -566 -221 0
233 -502 -221 0
-234 235 236 0
234 -235 0
234 -236 0
235 -502 -566 0
-235 502 0
-235 566 0
236 -220 -223 0
-236 220 0
-236 223 0
-237 238 241 247 248 0
-237 -238 -241 247 248 0
-237 238 241 -247 -248 0
-237 -238 -241 -247 -248 0
237 238 -241 0
237 -238 241 0
237 -247 248 0
237 247 -248 0
238 -239 240 0
238 239 -240 0
-238 239 240 0
-238 -239 -240 0
239 504 -568 0
239 -504 568 0
-239 -504 -568 0
-239 504 568 0
-240 567 233 0
-240 503 567 0
-240 503 233 0
240 -503 -567 0
240 -567 -233 0
240 -503 -233 0
241 -239 242 0
241 239 -242 0
-241 239 242 0
-241 -239 -242 0
-242 223 243 0
-242 243 246 0
242 -243 0
242 -223 -246 0
-243 244 245 0
-243 235 244 0
243 -244 0
243 -235 -245 0
244 -503 -567 0
-244 503 0
-244 567 0
245 503 -567 0
245 -503 567 0
-245 -503 -567 0
-245 503 567 0
246 -220 -245 0
-246 220 0
-246 245 0
-247 568 240 0
-247 504 568 0
-247 504 240 0
247 -504 -568 0
247 -568 -240 0
247 -504 -240 0
-248 249 250 0
248 -249 0
248 -250 0
249 -504 -568 0
-249 504 0
-249 568 0
250 -239 -242 0
-250 239 0
-250 242 0
-251 252 255 263 264 0
-251 -252 -255 263 264 0
-251 252 255 -263 -264 0
-251 -252 -255 -263 -264 0
251 252 -255 0
251 -252 255 0
251 -263 264 0
251 263 -264 0
252 -253 254 0
252 253 -254 0
-252 253 254 0
-252 -253 -254 0
253 506 -570 0
253 -506 570 0
-253 -506 -570 0
-253 506 570 0
-254 569 247 0
-254 505 569 0
-254 505 247 0
254 -505 -569 0
254 -569 -247 0
254 -505 -247 0
255 -253 256 0
255 253 -256 0
-255 253 256 0
-255 -253 -256 0
-256 223 257 0
-256 257 262 0
256 -257 0
256 -223 -262 0
-257 249 258 260 0
-257 258 259 260 0
257 -260 0
257 -258 0
257 -249 -259 0
258 -505 -569 0
-258 505 0
-258 569 0
259 505 -569 0
259 -505 569 0
-259 -505 -569 0
-259 505 569 0
260 -243 -261 0
-260 243 0
-260 261 0
261 -239 -259 0
-261 239 0
-261 259 0
262 -246 -261 0
-262 246 0
-262 261 0
-263 570 254 0
-263 506 570 0
-263 506 254 0
263 -506 -570 0
263 -570 -254 0
263 -506 -254 0
-264 265 266 0
264 -265 0
264 -266 0
265 -506 -570 0
-265 506 0
-265 570 0
266 -253 -256 0
-266 253 0
-266 256 0
-267 268 271 277 278 0
-267 -268 -271 277 278 0
-267 268 271 -277 -278 0
-267 -268 -271 -277 -278 0
267 268 -271 0
267 -268 271 0
267 -277 278 0
267 277 -278 0
268 -269 270 0
268 269 -270 0
-268 269 270 0
-268 -269 -270 0
269 508 -572 0
269 -508 572 0
-269 -508 -572 0
-269 508 572 0
-270 571 263 0
-270 507 571 0
-270 507 263 0
270 -507 -571 0
270 -571 -263 0
270 -507 -263 0
271 -269 272 0
271 269 -272 0
-271 269 272 0
-271 -269 -272 0
-272 256 273 0
-272 273 276 0
272 -273 0
272 -256 -276 0
-273 274 275 0
-273 265 274 0
273 -274 0
273 -265 -275 0
274 -507 -571 0
-274 507 0
-274 571 0
275 507 -571 0
275 -507 571 0
-275 -507 -571 0
-275 507 571 0
276 -253 -275 0
-276 253 0
-276 275 0
-277 572 270 0
-277 508 572 0
-277 508 270 0
277 -508 -572 0
277 -572 -270 0
277 -508 -270 0
-278 279 280 0
278 -279 0
278 -280 0
279 -508 -572 0
-279 508 0
-279 572 0
280 -269 -272 0
-280 269 0
-280 272 0
-281 282 300 314 330 0
281 -330 0
281 -282 0
281 -314 0
281 -300 0
-282 283 286 296 297 0
-282 -283 -286 296 297 0
-282 283 286 -296 -297 0
-282 -283 -286 -296 -297 0
282 283 -286 0
282 -283 286 0
282 -296 297 0
282 296 -297 0
283 -284 285 0
283 284 -285 0
-283 284 285 0
-283 -284 -285 0
284 510 -574 0
284 -510 574 0
-284 -510 -574 0
-284 510 574 0
-285 573 277 0
-285 509 573 0
-285 509 277 0
285 -509 -573 0
285 -573 -277 0
285 -509 -277 0
286 -284 287 0
286 284 -287 0
-286 284 287 0
-286 -284 -287 0
-287 223 288 0
-287 288 295 0
287 -288 0
287 -223 -295 0
-288 257 289 292 0
-288 289 292 294 0
288 -289 0
288 -292 0
288 -257 -294 0
-289 290 291 0
-289 279 290 0
289 -290 0
289 -279 -291 0
290 -509 -573 0
-290 509 0
-290 573 0
291 509 -573 0
291 -509 573 0
-291 -509 -573 0
-291 509 573 0
292 -273 -293 0
-292 273 0
-292 293 0
293 -269 -291 0
-293 269 0
-293 291 0
294 -276 -293 0
-294 276 0
-294 293 0
295 -262 -294 0
-295 262 0
-295 294 0
-296 574 285 0
-296 510 574 0
-296 510 285 0
296 -510 -574 0
296 -574 -285 0
296 -510 -285 0
-297 298 299 0
297 -298 0
297 -299 0
298 -510 -574 0
-298 510 0
-298 574 0
299 -284 -287 0
-299 284 0
-299 287 0
-300 301 304 310 311 0
-300 -301 -304 310 311 0
-300 301 304 -310 -311 0
-300 -301 -304 -310 -311 0
300 301 -304 0
300 -301 304 0
300 -310 311 0
300 310 -311 0
301 -302 303 0
301 302 -303 0
-301 302 303 0
-301 -302 -303 0
302 512 -576 0
302 -512 576 0
-302 -512 -576 0
-302 512 576 0
-303 575 296 0
-303 511 575 0
-303 511 296 0
303 -511 -575 0
303 -575 -296 0
303 -511 -296 0
304 -302 305 0
304 302 -305 0
-304 302 305 0
-304 -302 -305 0
-305 287 306 0
-305 306 309 0
305 -306 0
305 -287 -309 0
-306 307 308 0
-306 298 307 0
306 -307 0
306 -298 -308 0
307 -511 -575 0
-307 511 0
-307 575 0
308 511 -575 0
308 -511 575 0
-308 -511 -575 0
-308 511 575 0
309 -284 -308 0
-309 284 0
-309 308 0
-310 576 303 0
-310 512 576 0
-310 512 303 0
310 -512 -576 0
310 -576 -303 0
310 -512 -303 0
-311 312 313 0
311 -312 0
311 -313 0
312 -512 -576 0
-312 512 0
-312 576 0
313 -302 -305 0
-313 302 0
-313 305 0
-314 315 318 326 327 0
-314 -315 -318 326 327 0
-314 315 318 -326 -327 0
-314 -315 -318 -326 -327 0
314 315 -318 0
314 -315 318 0
314 -326 327 0
314 326 -327 0
315 -316 317 0
315 316 -317 0
-315 316 317 0
-315 -316 -317 0
316 514 -578 0
316 -514 578 0
-316 -514 -578 0
-316 514 578 0
-317 577 310 0
-317 513 577 0
-317 513 310 0
317 -513 -577 0
317 -577 -310 0
317 -513 -310 0
318 -316 319 0
318 316 -319 0
-318 316 319 0
-318 -316 -319 0
-319 287 320 0
-319 320 325 0
319 -320 0
319 -287 -325 0
-320 312 321 323 0
-320 321 322 323 0
320 -323 0
320 -321 0
320 -312 -322 0
321 -513 -577 0
-321 513 0
-321 577 0
322 513 -577 0
322 -513 577 0
-322 -513 -577 0
-322 513 577 0
323 -306 -324 0
-323 306 0
-323 324 0
324 -302 -322 0
-324 302 0
-324 322 0
325 -309 -324 0
-325 309 0
-325 324 0
-326 578 317 0
-326 514 578 0
-326 514 317 0
326 -514 -578 0
326 -578 -317 0
326 -514 -317 0
-327 328 329 0
327 -328 0
327 -329 0
328 -514 -578 0
-328 514 0
-328 578 0
329 -316 -319 0
-329 316 0
-329 319 0
-330 331 334 340 341 0
-330 -331 -334 340 341 0
-330 331 334 -340 -341 0
-330 -331 -334 -340 -341 0
330 331 -334 0
330 -331 334 0
330 -340 341 0
330 340 -341 0
331 -332 333 0
331 332 -333 0
-331 332 333 0
-331 -332 -333 0
332 516 -580 0
332 -516 580 0
-332 -516 -580 0
-332 516 580 0
-333 579 326 0
-333 515 579 0
-333 515 326 0
333 -515 -579 0
333 -579 -326 0
333 -515 -326 0
334 -332 335 0
334 332 -335 0
-334 332 335 0
-334 -332 -335 0
-335 319 336 0
-335 336 339 0
335 -336 0
335 -319 -339 0
-336 337 338 0
-336 328 337 0
336 -337 0
336 -328 -338 0
337 -515 -579 0
-337 515 0
-337 579 0
338 515 -579 0
338 -515 579 0
-338 -515 -579 0
-338 515 579 0
339 -316 -338 0
-339 316 0
-339 338 0
-340 580 333 0
-340 516 580 0
-340 516 333 0
340 -516 -580 0
340 -580 -333 0
340 -516 -333 0
-341 342 343 0
341 -342 0
341 -343 0
342 -516 -580 0
-342 516 0
-342 580 0
343 -332 -335 0
-343 332 0
-343 335 0
-344 345 364 378 394 0
344 -394 0
344 -345 0
344 -378 0
344 -364 0
-345 346 349 360 361 0
-345 -346 -349 360 361 0
-345 346 349 -360 -361 0
-345 -346 -349 -360 -361 0
345 346 -349 0
345 -346 349 0
345 -360 361 0
345 360 -361 0
346 -347 348 0
346 347 -348 0
-346 347 348 0
-346 -347 -348 0
347 518 -582 0
347 -518 582 0
-347 -518 -582 0
-347 518 582 0
-348 581 340 0
-348 517 581 0
-348 517 340 0
348 -517 -581 0
348 -581 -340 0
348 -517 -340 0
349 -347 350 0
349 347 -350 0
-349 347 350 0
-349 -347 -350 0
-350 295 355 0
-350 351 355 0
-350 223 355 0
350 -355 0
350 -223 -295 -351 0
351 -325 -352 0
-351 325 0
-351 352 0
352 -339 -353 0
-352 339 0
-352 353 0
353 -332 -354 0
-353 332 0
-353 354 0
354 517 -581 0
354 -517 581 0
-354 -517 -581 0
-354 517 581 0
-355 288 356 359 0
-355 356 359 351 0
355 -356 0
355 -359 0
355 -288 -351 0
-356 342 357 358 0
-356 357 354 358 0
356 -358 0
356 -357 0
356 -342 -354 0
357 -517 -581 0
-357 517 0
-357 581 0
358 -336 -353 0
-358 336 0
-358 353 0
359 -320 -352 0
-359 320 0
-359 352 0
-360 582 348 0
-360 518 582 0
-360 518 348 0
360 -518 -582 0
360 -582 -348 0
360 -518 -348 0
-361 362 363 0
361 -362 0
361 -363 0
362 -518 -582 0
-362 518 0
-362 582 0
363 -347 -350 0
-363 347 0
-363 350 0
-364 365 368 374 375 0
-364 -365 -368 374 375 0
-364 365 368 -374 -375 0
-364 -365 -368 -374 -375 0
364 365 -368 0
364 -365 368 0
364 -374 375 0
364 374 -375 0
365 -366 367 0
365 366 -367 0
-365 366 367 0
-365 -366 -367 0
366 520 -584 0
366 -520 584 0
-366 -520 -584 0
-366 520 584 0
-367 583 360 0
-367 519 583 0
-367 519 360 0
367 -519 -583 0
367 -583 -360 0
367 -519 -360 0
368 -366 369 0
368 366 -369 0
-368 366 369 0
-368 -366 -369 0
-369 350 370 0
-369 370 373 0
369 -370 0
369 -350 -373 0
-370 371 372 0
-370 362 371 0
370 -371 0
370 -362 -372 0
371 -519 -583 0
-371 519 0
-371 583 0
372 519 -583 0
372 -519 583 0
-372 -519 -583 0
-372 519 583 0
373 -347 -372 0
-373 347 0
-373 372 0
-374 584 367 0
-374 520 584 0
-374 520 367 0
374 -520 -584 0
374 -584 -367 0
374 -520 -367 0
-375 376 377 0
375 -376 0
375 -377 0
376 -520 -584 0
-376 520 0
-376 584 0
377 -366 -369 0
-377 366 0
-377 369 0
-378 379 382 390 391 0
-378 -379 -382 390 391 0
-378 379 382 -390 -391 0
-378 -379 -382 -390 -391 0
378 379 -382 0
378 -379 382 0
378 -390 391 0
378 390 -391 0
379 -380 381 0
379 380 -381 0
-379 380 381 0
-379 -380 -381 0
380 522 -586 0
380 -522 586 0
-380 -522 -586 0
-380 522 586 0
-381 585 374 0
-381 521 585 0
-381 521 374 0
381 -521 -585 0
381 -585 -374 0
381 -521 -374 0
382 -380 383 0
382 380 -383 0
-382 380 383 0
-382 -380 -383 0
-383 350 384 0
-383 384 389 0
383 -384 0
383 -350 -389 0
-384 376 385 387 0
-384 385 386 387 0
384 -387 0
384 -385 0
384 -376 -386 0
385 -521 -585 0
-385 521 0
-385 585 0
386 521 -585 0
386 -521 585 0
-386 -521 -585 0
-386 521 585 0
387 -370 -388 0
-387 370 0
-387 388 0
388 -366 -386 0
-388 366 0
-388 386 0
389 -373 -388 0
-389 373 0
-389 388 0
-390 586 381 0
-390 522 586 0
-390 522 381 0
390 -522 -586 0
390 -586 -381 0
390 -522 -381 0
-391 392 393 0
391 -392 0
391 -393 0
392 -522 -586 0
-392 522 0
-392 586 0
393 -380 -383 0
-393 380 0
-393 383 0
-394 395 398 404 405 0
-394 -395 -398 404 405 0
-394 395 398 -404 -405 0
-394 -395 -398 -404 -405 0
394 395 -398 0
394 -395 398 0
394 -404 405 0
394 404 -405 0
395 -396 397 0
395 396 -397 0
-395 396 397 0
-395 -396 -397 0
396 524 -588 0
396 -524 588 0
-396 -524 -588 0
-396 524 588 0
-397 587 390 0
-397 523 587 0
-397 523 390 0
397 -523 -587 0
397 -587 -390 0
397 -523 -390 0
398 -396 399 0
398 396 -399 0
-398 396 399 0
-398 -396 -399 0
-399 383 400 0
-399 400 403 0
399 -400 0
399 -383 -403 0
-400 401 402 0
-400 392 401 0
400 -401 0
400 -392 -402 0
401 -523 -587 0
-401 523 0
-401 587 0
402 523 -587 0
402 -523 587 0
-402 -523 -587 0
-402 523 587 0
403 -380 -402 0
-403 380 0
-403 402 0
-404 588 397 0
-404 524 588 0
-404 524 397 0
404 -524 -588 0
404 -588 -397 0
404 -524 -397 0
-405 406 407 0
405 -406 0
405 -407 0
406 -524 -588 0
-406 524 0
-406 588 0
407 -396 -399 0
-407 396 0
-407 399 0
-408 409 426 440 455 0
408 -455 0
408 -409 0
408 -440 0
408 -426 0
-409 410 413 422 423 0
-409 -410 -413 422 423 0
-409 410 413 -422 -423 0
-409 -410 -413 -422 -423 0
409 410 -413 0
409 -410 413 0
409 -422 423 0
409 422 -423 0
410 -411 412 0
410 411 -412 0
-410 411 412 0
-410 -411 -412 0
411 526 -590 0
411 -526 590 0
-411 -526 -590 0
-411 526 590 0
-412 589 404 0
-412 525 589 0
-412 525 404 0
412 -525 -589 0
412 -589 -404 0
412 -525 -404 0
413 -411 414 0
413 411 -414 0
-413 411 414 0
-413 -411 -414 0
-414 389 418 0
-414 415 418 0
-414 350 418 0
414 -418 0
414 -350 -389 -415 0
415 -403 -416 0
-415 403 0
-415 416 0
416 -396 -417 0
-416 396 0
-416 417 0
417 525 -589 0
417 -525 589 0
-417 -525 -589 0
-417 525 589 0
-418 384 419 421 0
-418 419 421 415 0
418 -419 0
418 -421 0
418 -384 -415 0
-419 420 417 0
-419 406 420 0
419 -420 0
419 -406 -417 0
420 -525 -589 0
-420 525 0
-420 589 0
421 -400 -416 0
-421 400 0
-421 416 0
-422 590 412 0
-422 526 590 0
-422 526 412 0
422 -526 -590 0
422 -590 -412 0
422 -526 -412 0
-423 424 425 0
423 -424 0
423 -425 0
424 -526 -590 0
-424 526 0
-424 590 0
425 -411 -414 0
-425 411 0
-425 414 0
-426 427 430 436 437 0
-426 -427 -430 436 437 0
-426 427 430 -436 -437 0
-426 -427 -430 -436 -437 0
426 427 -430 0
426 -427 430 0
426 -436 437 0
426 436 -437 0
427 -428 429 0
427 428 -429 0
-427 428 429 0
-427 -428 -429 0
428 528 -592 0
428 -528 592 0
-428 -528 -592 0
-428 528 592 0
-429 591 422 0
-429 527 591 0
-429 527 422 0
429 -527 -591 0
429 -591 -422 0
429 -527 -422 0
430 -428 431 0
430 428 -431 0
-430 428 431 0
-430 -428 -431 0
-431 414 432 0
-431 432 435 0
431 -432 0
431 -414 -435 0
-432 433 434 0
-432 424 433 0
432 -433 0
432 -424 -434 0
433 -527 -591 0
-433 527 0
-433 591 0
434 527 -591 0
434 -527 591 0
-434 -527 -591 0
-434 527 591 0
435 -411 -434 0
-435 411 0
-435 434 0
-436 592 429 0
-436 528 592 0
-436 528 429 0
436 -528 -592 0
436 -592 -429 0
436 -528 -429 0
-437 438 439 0
437 -438 0
437 -439 0
438 -528 -592 0
-438 528 0
-438 592 0
439 -428 -431 0
-439 428 0
-439 431 0
-440 441 444 451 452 0
-440 -441 -444 451 452 0
-440 441 444 -451 -452 0
-440 -441 -444 -451 -452 0
440 441 -444 0
440 -441 444 0
440 -451 452 0
440 451 -452 0
441 -442 443 0
441 442 -443 0
-441 442 443 0
-441 -442 -443 0
442 530 -594 0
442 -530 594 0
-442 -530 -594 0
-442 530 594 0
-443 593 436 0
-443 529 593 0
-443 529 436 0
443 -529 -593 0
443 -593 -436 0
443 -529 -436 0
444 -442 445 0
444 442 -445 0
-444 442 445 0
-444 -442 -445 0
-445 435 448 0
-445 446 448 0
-445 414 448 0
445 -448 0
445 -414 -435 -446 0
446 -428 -447 0
-446 428 0
-446 447 0
447 529 -593 0
447 -529 593 0
-447 -529 -593 0
-447 529 593 0
-448 438 449 450 0
-448 449 447 450 0
448 -450 0
448 -449 0
448 -438 -447 0
449 -529 -593 0
-449 529 0
-449 593 0
450 -432 -446 0
-450 432 0
-450 446 0
-451 594 443 0
-451 530 594 0
-451 530 443 0
451 -530 -594 0
451 -594 -443 0
451 -530 -443 0
-452 453 454 0
452 -453 0
452 -454 0
453 -530 -594 0
-453 530 0
-453 594 0
454 -442 -445 0
-454 442 0
-454 445 0
-455 456 459 -464 -467 0
-455 -456 -459 -464 -467 0
-455 456 459 464 467 0
-455 -456 -459 464 467 0
455 456 -459 0
455 -456 459 0
455 464 -467 0
455 -464 467 0
456 -457 458 0
456 457 -458 0
-456 457 458 0
-456 -457 -458 0
457 532 -596 0
457 -532 596 0
-457 -532 -596 0
-457 532 596 0
-458 595 451 0
-458 531 595 0
-458 531 451 0
458 -531 -595 0
458 -595 -451 0
458 -531 -451 0
459 -457 460 0
459 457 -460 0
-459 457 460 0
-459 -457 -460 0
-460 442 462 0
-460 445 462 0
-460 461 462 0
460 -462 0
460 -442 -445 -461 0
461 531 -595 0
461 -531 595 0
-461 -531 -595 0
-461 531 595 0
-462 463 461 0
-462 453 463 0
462 -463 0
462 -453 -461 0
463 -531 -595 0
-463 531 0
-463 595 0
464 -465 466 0
464 465 -466 0
-464 465 466 0
-464 -465 -466 0
465 533 -597 0
465 -533 597 0
-465 -533 -597 0
-465 533 597 0
-466 596 458 0
-466 532 596 0
-466 532 458 0
466 -532 -596 0
466 -596 -458 0
466 -532 -458 0
467 -465 468 0
467 465 -468 0
-467 465 468 0
-467 -465 -468 0
-468 532 469 0
-468 596 469 0
468 -469 0
468 -532 -596 0
469 -457 -460 0
-469 457 0
-469 460 0
-598 0
2 0

