c Result of efficient AIG-to-CNF conversion using package CNF
p cnf 1631 6185
-2 3 168 712 1352 0
2 -1352 0
2 -3 0
2 -712 0
2 -168 0
-3 4 5 16 50 0
-3 -4 -5 16 50 0
3 -50 0
3 4 -5 0
3 -16 0
3 -4 5 0
4 -1607 -1619 0
-4 1607 0
-4 1619 0
-5 6 0
5 -6 0
-6 7 0
6 -7 0
-7 8 0
7 -8 0
-8 9 0
8 -9 0
-9 10 0
9 -10 0
-10 11 0
10 -11 0
-11 12 0
11 -12 0
-12 13 0
12 -13 0
-13 14 0
13 -14 0
-14 15 0
14 -15 0
-15 4 0
15 -4 0
-16 17 28 30 44 0
-16 -17 -28 -30 -44 0
-16 17 28 -30 -44 0
-16 -17 -28 30 44 0
16 17 -28 0
16 -17 28 0
16 -30 44 0
16 30 -44 0
-17 18 0
17 -18 0
-18 19 0
18 -19 0
-19 20 0
19 -20 0
-20 21 0
20 -21 0
-21 22 0
21 -22 0
-22 23 0
22 -23 0
-23 24 0
23 -24 0
-24 25 0
24 -25 0
-25 26 0
25 -26 0
-26 1607 27 0
-26 1620 27 0
-26 -1607 -1620 -27 0
26 1607 -27 0
26 -1607 -1620 27 0
26 1620 -27 0
27 -1608 -1619 0
-27 1608 0
-27 1619 0
28 27 -29 0
28 -27 29 0
-28 -27 -29 0
-28 27 29 0
29 -1607 -1620 0
-29 1607 0
-29 1620 0
-30 31 0
30 -31 0
-31 32 0
31 -32 0
-32 33 0
32 -33 0
-33 34 0
33 -34 0
-34 35 0
34 -35 0
-35 36 0
35 -36 0
-36 37 0
36 -37 0
-37 38 0
37 -38 0
-38 39 0
38 -39 0
-39 1607 40 0
-39 -1607 -1621 -40 0
-39 1621 40 0
39 1607 -40 0
39 1621 -40 0
39 -1607 -1621 40 0
-40 1620 42 0
-40 -1620 -41 -43 0
-40 -1620 41 43 0
40 1620 -42 0
40 -1620 -41 43 0
40 -1620 41 -43 0
41 -1607 -27 0
-41 1607 0
-41 27 0
42 -1609 -1619 0
-42 1609 0
-42 1619 0
43 1608 -42 0
43 -1608 42 0
-43 -1608 -42 0
-43 1608 42 0
44 45 -46 0
44 -45 46 0
-44 -45 -46 0
-44 45 46 0
45 -1607 -1620 -27 0
-45 1607 0
-45 1620 0
-45 27 0
46 42 -47 0
46 -42 47 0
-46 -42 -47 0
-46 42 47 0
47 48 -49 0
47 -48 49 0
-47 -48 -49 0
-47 48 49 0
48 -1607 -1621 0
-48 1607 0
-48 1621 0
49 -1608 -1620 0
-49 1608 0
-49 1620 0
-50 -51 -66 78 0
-50 51 66 78 0
50 -78 0
50 -51 66 0
50 51 -66 0
-51 52 0
51 -52 0
-52 53 0
52 -53 0
-53 54 0
53 -54 0
-54 55 0
54 -55 0
-55 56 0
55 -56 0
-56 57 0
56 -57 0
-57 58 0
57 -58 0
-58 1607 59 0
-58 -1607 -1622 -59 0
-58 1622 59 0
58 1607 -59 0
58 1622 -59 0
58 -1607 -1622 59 0
-59 1621 61 0
-59 -1621 -60 -65 0
-59 -1621 60 65 0
59 1621 -61 0
59 -1621 -60 65 0
59 -1621 60 -65 0
60 -1607 -40 0
-60 1607 0
-60 40 0
-61 1620 62 0
-61 -1620 63 64 0
-61 -1620 -63 -64 0
61 1620 -62 0
61 -1620 63 -64 0
61 -1620 -63 64 0
62 -1610 -1619 0
-62 1610 0
-62 1619 0
63 1609 -62 0
63 -1609 62 0
-63 -1609 -62 0
-63 1609 62 0
-64 1619 0
-64 1608 0
-64 1607 1609 0
64 -1607 -1608 -1619 0
64 -1608 -1609 -1619 0
65 -1608 61 0
65 1608 -61 0
-65 1608 61 0
-65 -1608 -61 0
66 67 -68 0
66 -67 68 0
-66 -67 -68 0
-66 67 68 0
67 -45 -46 0
-67 45 0
-67 46 0
68 69 -70 0
68 -69 70 0
-68 -69 -70 0
-68 69 70 0
69 -1607 -1622 0
-69 1607 0
-69 1622 0
70 -71 75 0
70 71 -75 0
-70 71 75 0
-70 -71 -75 0
71 62 -72 0
71 -62 72 0
-71 -62 -72 0
-71 62 72 0
72 73 -74 0
72 -73 74 0
-72 -73 -74 0
-72 73 74 0
73 -1608 -1621 0
-73 1608 0
-73 1621 0
74 -1609 -1620 0
-74 1609 0
-74 1620 0
-75 76 77 0
75 -76 0
75 -77 0
76 -1607 -1608 -1620 -1621 0
-76 1621 0
-76 1607 0
-76 1620 0
-76 1608 0
77 -42 -47 0
-77 42 0
-77 47 0
-78 79 99 117 142 0
-78 -79 -99 -117 -142 0
-78 79 99 -117 -142 0
-78 -79 -99 117 142 0
78 79 -99 0
78 -79 99 0
78 -117 142 0
78 117 -142 0
-79 80 0
79 -80 0
-80 81 0
80 -81 0
-81 82 0
81 -82 0
-82 83 0
82 -83 0
-83 84 0
83 -84 0
-84 85 0
84 -85 0
-85 1607 86 0
-85 -1607 -1623 -86 0
-85 1623 86 0
85 1607 -86 0
85 1623 -86 0
85 -1607 -1623 86 0
-86 1622 88 0
-86 -1622 -87 -98 0
-86 -1622 87 98 0
86 1622 -88 0
86 -1622 -87 98 0
86 -1622 87 -98 0
87 -1607 -59 0
-87 1607 0
-87 59 0
-88 1621 89 0
-88 -1621 94 95 0
-88 -1621 -94 -95 0
88 1621 -89 0
88 -1621 94 -95 0
88 -1621 -94 95 0
-89 1620 90 0
-89 -1620 91 92 0
-89 -1620 -91 -92 0
89 1620 -90 0
89 -1620 91 -92 0
89 -1620 -91 92 0
90 -1611 -1619 0
-90 1611 0
-90 1619 0
91 1610 -90 0
91 -1610 90 0
-91 -1610 -90 0
-91 1610 90 0
-92 43 93 0
-92 41 93 0
-92 63 93 0
92 -93 0
92 -41 -43 -63 0
-93 1619 0
-93 1609 0
-93 1608 1610 0
93 -1608 -1609 -1619 0
93 -1609 -1610 -1619 0
94 -1609 89 0
94 1609 -89 0
-94 1609 89 0
-94 -1609 -89 0
-95 96 97 0
95 -96 0
95 -97 0
96 -1608 -61 0
-96 1608 0
-96 61 0
97 -60 -65 0
-97 60 0
-97 65 0
98 -1608 88 0
98 1608 -88 0
-98 1608 88 0
-98 -1608 -88 0
99 100 -101 0
99 -100 101 0
-99 -100 -101 0
-99 100 101 0
100 -67 -68 0
-100 67 0
-100 68 0
101 102 -103 0
101 -102 103 0
-101 -102 -103 0
-101 102 103 0
102 -71 -75 0
-102 71 0
-102 75 0
103 104 -105 0
103 -104 105 0
-103 -104 -105 0
-103 104 105 0
104 -1607 -1622 -70 0
-104 1607 0
-104 1622 0
-104 70 0
105 106 -109 0
105 -106 109 0
-105 -106 -109 0
-105 106 109 0
106 107 -108 0
106 -107 108 0
-106 -107 -108 0
-106 107 108 0
107 -1607 -1623 0
-107 1607 0
-107 1623 0
108 -1608 -1622 0
-108 1608 0
-108 1622 0
109 -110 114 0
109 110 -114 0
-109 110 114 0
-109 -110 -114 0
110 90 -111 0
110 -90 111 0
-110 -90 -111 0
-110 90 111 0
111 112 -113 0
111 -112 113 0
-111 -112 -113 0
-111 112 113 0
112 -1609 -1621 0
-112 1609 0
-112 1621 0
113 -1610 -1620 0
-113 1610 0
-113 1620 0
-114 115 116 0
114 -115 0
114 -116 0
115 -1608 -1609 -1620 -1621 0
-115 1621 0
-115 1608 0
-115 1620 0
-115 1609 0
116 -62 -72 0
-116 62 0
-116 72 0
-117 118 0
117 -118 0
-118 119 0
118 -119 0
-119 120 0
119 -120 0
-120 121 0
120 -121 0
-121 122 0
121 -122 0
-122 123 0
122 -123 0
-123 1607 124 0
-123 -1607 -1624 -124 0
-123 1624 124 0
123 1607 -124 0
123 1624 -124 0
123 -1607 -1624 124 0
-124 1623 126 0
-124 1608 125 126 0
-124 -1608 -125 126 0
-124 1608 -1623 -125 -126 0
-124 -1608 -1623 125 -126 0
124 1623 -126 0
124 -1608 -125 -126 0
124 1608 125 -126 0
124 1608 -1623 -125 126 0
124 -1608 -1623 125 126 0
125 -1607 -86 0
-125 1607 0
-125 86 0
-126 1622 127 0
-126 -1622 138 139 0
-126 -1622 -138 -139 0
126 1622 -127 0
126 -1622 138 -139 0
126 -1622 -138 139 0
-127 1621 128 0
-127 -1621 134 135 0
-127 -1621 -134 -135 0
127 1621 -128 0
127 -1621 134 -135 0
127 -1621 -134 135 0
-128 1620 129 0
-128 -1620 130 131 0
-128 -1620 -130 -131 0
128 1620 -129 0
128 -1620 130 -131 0
128 -1620 -130 131 0
129 -1612 -1619 0
-129 1612 0
-129 1619 0
130 1611 -129 0
130 -1611 129 0
-130 -1611 -129 0
-130 1611 129 0
-131 132 133 0
131 -132 0
131 -133 0
132 -1610 -90 0
-132 1610 0
-132 90 0
133 -91 -92 0
-133 91 0
-133 92 0
134 -1610 128 0
134 1610 -128 0
-134 1610 128 0
-134 -1610 -128 0
-135 136 137 0
135 -136 0
135 -137 0
136 -1609 -89 0
-136 1609 0
-136 89 0
137 -94 -95 0
-137 94 0
-137 95 0
138 -1609 127 0
138 1609 -127 0
-138 1609 127 0
-138 -1609 -127 0
-139 140 141 0
139 -140 0
139 -141 0
140 -1608 -88 0
-140 1608 0
-140 88 0
141 -87 -98 0
-141 87 0
-141 98 0
142 143 -144 0
142 -143 144 0
-142 -143 -144 0
-142 143 144 0
143 -100 -101 0
-143 100 0
-143 101 0
144 -145 165 0
144 145 -165 0
-144 145 165 0
-144 -145 -165 0
145 146 -147 0
145 -146 147 0
-145 -146 -147 0
-145 146 147 0
146 -110 -114 0
-146 110 0
-146 114 0
147 148 -149 0
147 -148 149 0
-147 -148 -149 0
-147 148 149 0
148 -106 -109 0
-148 106 0
-148 109 0
149 150 -157 0
149 -150 157 0
-149 -150 -157 0
-149 150 157 0
150 151 -152 0
150 -151 152 0
-150 -151 -152 0
-150 151 152 0
151 -1607 -1608 -1622 -1623 0
-151 1623 0
-151 1607 0
-151 1622 0
-151 1608 0
152 153 -156 0
152 -153 156 0
-152 -153 -156 0
-152 153 156 0
153 154 -155 0
153 -154 155 0
-153 -154 -155 0
-153 154 155 0
154 -1607 -1624 0
-154 1607 0
-154 1624 0
155 -1608 -1623 0
-155 1608 0
-155 1623 0
156 -1609 -1622 0
-156 1609 0
-156 1622 0
157 -158 162 0
157 158 -162 0
-157 158 162 0
-157 -158 -162 0
158 129 -159 0
158 -129 159 0
-158 -129 -159 0
-158 129 159 0
159 160 -161 0
159 -160 161 0
-159 -160 -161 0
-159 160 161 0
160 -1610 -1621 0
-160 1610 0
-160 1621 0
161 -1611 -1620 0
-161 1611 0
-161 1620 0
-162 163 164 0
162 -163 0
162 -164 0
163 -1609 -1610 -1620 -1621 0
-163 1621 0
-163 1609 0
-163 1620 0
-163 1610 0
164 -90 -111 0
-164 90 0
-164 111 0
-165 166 167 0
165 -166 0
165 -167 0
166 -104 -105 0
-166 104 0
-166 105 0
167 -102 -105 0
-167 102 0
-167 105 0
-168 -169 -201 235 395 0
-168 169 201 235 395 0
168 -395 0
168 -169 201 0
168 -235 0
168 169 -201 0
-169 170 0
169 -170 0
-170 171 0
170 -171 0
-171 172 0
171 -172 0
-172 173 0
172 -173 0
-173 174 0
173 -174 0
-174 1607 175 0
-174 -1607 -1625 -175 0
-174 1625 175 0
174 1607 -175 0
174 1625 -175 0
174 -1607 -1625 175 0
-175 1624 177 0
-175 -1624 -176 -200 0
-175 -1624 176 200 0
175 1624 -177 0
175 -1624 -176 200 0
175 -1624 176 -200 0
176 -1607 -124 0
-176 1607 0
-176 124 0
-177 1623 178 0
-177 -1609 178 -196 0
-177 1609 178 196 0
-177 -1609 -1623 -178 196 0
-177 1609 -1623 -178 -196 0
177 1623 -178 0
177 1609 -1623 178 -196 0
177 1609 -178 196 0
177 -1609 -178 -196 0
177 -1609 -1623 178 196 0
-178 1622 179 0
-178 -1622 191 192 0
-178 -1622 -191 -192 0
178 1622 -179 0
178 -1622 191 -192 0
178 -1622 -191 192 0
-179 1621 180 0
-179 -1621 186 187 0
-179 -1621 -186 -187 0
179 1621 -180 0
179 -1621 186 -187 0
179 -1621 -186 187 0
-180 1620 181 0
-180 -1620 182 183 0
-180 -1620 -182 -183 0
180 1620 -181 0
180 -1620 182 -183 0
180 -1620 -182 183 0
181 -1613 -1619 0
-181 1613 0
-181 1619 0
182 1612 -181 0
182 -1612 181 0
-182 -1612 -181 0
-182 1612 181 0
-183 92 184 0
-183 184 185 0
183 -184 0
183 -92 -185 0
-184 1619 0
-184 1611 0
-184 1610 1612 0
184 -1610 -1611 -1619 0
184 -1611 -1612 -1619 0
185 -91 -130 0
-185 91 0
-185 130 0
186 -1611 180 0
186 1611 -180 0
-186 1611 180 0
-186 -1611 -180 0
-187 95 188 0
-187 188 190 0
187 -188 0
187 -95 -190 0
-188 189 134 0
-188 136 189 0
188 -189 0
188 -136 -134 0
189 -1610 -128 0
-189 1610 0
-189 128 0
190 -94 -134 0
-190 94 0
-190 134 0
191 -1610 179 0
191 1610 -179 0
-191 1610 179 0
-191 -1610 -179 0
-192 87 193 0
-192 193 195 0
192 -193 0
192 -87 -195 0
-193 194 138 0
-193 140 194 0
193 -194 0
193 -140 -138 0
194 -1609 -127 0
-194 1609 0
-194 127 0
195 -98 -138 0
-195 98 0
-195 138 0
-196 197 198 0
196 -197 0
196 -198 0
197 -1608 -126 0
-197 1608 0
-197 126 0
198 -125 -199 0
-198 125 0
-198 199 0
199 -1608 126 0
199 1608 -126 0
-199 1608 126 0
-199 -1608 -126 0
200 -1608 177 0
200 1608 -177 0
-200 1608 177 0
-200 -1608 -177 0
201 -202 232 0
201 202 -232 0
-201 202 232 0
-201 -202 -232 0
202 -203 229 0
202 203 -229 0
-202 203 229 0
-202 -203 -229 0
203 204 -205 0
203 -204 205 0
-203 -204 -205 0
-203 204 205 0
204 -158 -162 0
-204 158 0
-204 162 0
205 206 -207 0
205 -206 207 0
-205 -206 -207 0
-205 206 207 0
206 -150 -157 0
-206 150 0
-206 157 0
207 208 -219 0
207 -208 219 0
-207 -208 -219 0
-207 208 219 0
208 209 -210 0
208 -209 210 0
-208 -209 -210 0
-208 209 210 0
209 -1607 -1625 0
-209 1607 0
-209 1625 0
210 -211 216 0
210 211 -216 0
-210 211 216 0
-210 -211 -216 0
211 212 -215 0
211 -212 215 0
-211 -212 -215 0
-211 212 215 0
212 213 -214 0
212 -213 214 0
-212 -213 -214 0
-212 213 214 0
213 -1608 -1624 0
-213 1608 0
-213 1624 0
214 -1609 -1623 0
-214 1609 0
-214 1623 0
215 -1610 -1622 0
-215 1610 0
-215 1622 0
-216 217 218 0
216 -217 0
216 -218 0
217 -1607 -1608 -1623 -1624 0
-217 1624 0
-217 1607 0
-217 1623 0
-217 1608 0
218 -1609 -1622 -153 0
-218 1609 0
-218 1622 0
-218 153 0
219 -220 226 0
219 220 -226 0
-219 220 226 0
-219 -220 -226 0
220 221 -222 0
220 -221 222 0
-220 -221 -222 0
-220 221 222 0
221 -151 -152 0
-221 151 0
-221 152 0
222 181 -223 0
222 -181 223 0
-222 -181 -223 0
-222 181 223 0
223 224 -225 0
223 -224 225 0
-223 -224 -225 0
-223 224 225 0
224 -1611 -1621 0
-224 1611 0
-224 1621 0
225 -1612 -1620 0
-225 1612 0
-225 1620 0
-226 227 228 0
226 -227 0
226 -228 0
227 -1610 -1611 -1620 -1621 0
-227 1621 0
-227 1610 0
-227 1620 0
-227 1611 0
228 -129 -159 0
-228 129 0
-228 159 0
-229 230 231 0
229 -230 0
229 -231 0
230 -148 -149 0
-230 148 0
-230 149 0
231 -146 -147 0
-231 146 0
-231 147 0
-232 233 234 0
232 -233 0
232 -234 0
233 -145 -165 0
-233 145 0
-233 165 0
234 -143 -144 0
-234 143 0
-234 144 0
-235 236 270 310 349 0
-235 -236 -270 -310 -349 0
-235 236 270 -310 -349 0
-235 -236 -270 310 349 0
235 236 -270 0
235 -236 270 0
235 -310 349 0
235 310 -349 0
-236 237 0
236 -237 0
-237 238 0
237 -238 0
-238 239 0
238 -239 0
-239 240 0
239 -240 0
-240 1607 241 0
-240 -1607 -1626 -241 0
-240 1626 241 0
240 1607 -241 0
240 1626 -241 0
240 -1607 -1626 241 0
-241 1625 243 0
-241 1608 242 243 0
-241 -1608 -242 243 0
-241 1608 -1625 -242 -243 0
-241 -1608 -1625 242 -243 0
241 1625 -243 0
241 -1608 -242 -243 0
241 1608 242 -243 0
241 1608 -1625 -242 243 0
241 -1608 -1625 242 243 0
242 -1607 -175 0
-242 1607 0
-242 175 0
-243 1624 244 0
-243 -1624 266 267 0
-243 -1624 -266 -267 0
243 1624 -244 0
243 -1624 266 -267 0
243 -1624 -266 267 0
-244 1623 245 0
-244 -1623 261 262 0
-244 -1623 -261 -262 0
244 1623 -245 0
244 -1623 261 -262 0
244 -1623 -261 262 0
-245 1622 246 0
-245 -1622 257 258 0
-245 -1622 -257 -258 0
245 1622 -246 0
245 -1622 257 -258 0
245 -1622 -257 258 0
-246 1621 247 0
-246 -1621 253 254 0
-246 -1621 -253 -254 0
246 1621 -247 0
246 -1621 253 -254 0
246 -1621 -253 254 0
-247 1620 248 0
-247 -1620 249 250 0
-247 -1620 -249 -250 0
247 1620 -248 0
247 -1620 249 -250 0
247 -1620 -249 250 0
248 -1614 -1619 0
-248 1614 0
-248 1619 0
249 1613 -248 0
249 -1613 248 0
-249 -1613 -248 0
-249 1613 248 0
-250 251 252 0
250 -251 0
250 -252 0
251 -1612 -181 0
-251 1612 0
-251 181 0
252 -182 -183 0
-252 182 0
-252 183 0
253 -1612 247 0
253 1612 -247 0
-253 1612 247 0
-253 -1612 -247 0
-254 255 256 0
254 -255 0
254 -256 0
255 -1611 -180 0
-255 1611 0
-255 180 0
256 -186 -187 0
-256 186 0
-256 187 0
257 -1611 246 0
257 1611 -246 0
-257 1611 246 0
-257 -1611 -246 0
-258 259 260 0
258 -259 0
258 -260 0
259 -1610 -179 0
-259 1610 0
-259 179 0
260 -191 -192 0
-260 191 0
-260 192 0
261 -1610 245 0
261 1610 -245 0
-261 1610 245 0
-261 -1610 -245 0
-262 263 264 0
262 -263 0
262 -264 0
263 -1609 -178 0
-263 1609 0
-263 178 0
264 -265 -196 0
-264 265 0
-264 196 0
265 -1609 178 0
265 1609 -178 0
-265 1609 178 0
-265 -1609 -178 0
266 -1609 244 0
266 1609 -244 0
-266 1609 244 0
-266 -1609 -244 0
-267 268 269 0
267 -268 0
267 -269 0
268 -1608 -177 0
-268 1608 0
-268 177 0
269 -176 -200 0
-269 176 0
-269 200 0
270 -271 307 0
270 271 -307 0
-270 271 307 0
-270 -271 -307 0
271 -272 304 0
271 272 -304 0
-271 272 304 0
-271 -272 -304 0
272 -273 301 0
272 273 -301 0
-272 273 301 0
-272 -273 -301 0
273 274 -275 0
273 -274 275 0
-273 -274 -275 0
-273 274 275 0
274 -208 -219 0
-274 208 0
-274 219 0
275 276 -291 0
275 -276 291 0
-275 -276 -291 0
-275 276 291 0
276 277 -278 0
276 -277 278 0
-276 -277 -278 0
-276 277 278 0
277 -1607 -1625 -210 0
-277 1607 0
-277 1625 0
-277 210 0
278 279 -282 0
278 -279 282 0
-278 -279 -282 0
-278 279 282 0
279 280 -281 0
279 -280 281 0
-279 -280 -281 0
-279 280 281 0
280 -1607 -1626 0
-280 1607 0
-280 1626 0
281 -1608 -1625 0
-281 1608 0
-281 1625 0
282 -283 288 0
282 283 -288 0
-282 283 288 0
-282 -283 -288 0
283 284 -287 0
283 -284 287 0
-283 -284 -287 0
-283 284 287 0
284 285 -286 0
284 -285 286 0
-284 -285 -286 0
-284 285 286 0
285 -1609 -1624 0
-285 1609 0
-285 1624 0
286 -1610 -1623 0
-286 1610 0
-286 1623 0
287 -1611 -1622 0
-287 1611 0
-287 1622 0
-288 289 290 0
288 -289 0
288 -290 0
289 -1608 -1609 -1623 -1624 0
-289 1624 0
-289 1608 0
-289 1623 0
-289 1609 0
290 -1610 -1622 -212 0
-290 1610 0
-290 1622 0
-290 212 0
291 -292 298 0
291 292 -298 0
-291 292 298 0
-291 -292 -298 0
292 293 -294 0
292 -293 294 0
-292 -293 -294 0
-292 293 294 0
293 -211 -216 0
-293 211 0
-293 216 0
294 248 -295 0
294 -248 295 0
-294 -248 -295 0
-294 248 295 0
295 296 -297 0
295 -296 297 0
-295 -296 -297 0
-295 296 297 0
296 -1612 -1621 0
-296 1612 0
-296 1621 0
297 -1613 -1620 0
-297 1613 0
-297 1620 0
-298 299 300 0
298 -299 0
298 -300 0
299 -1611 -1612 -1620 -1621 0
-299 1621 0
-299 1611 0
-299 1620 0
-299 1612 0
300 -181 -223 0
-300 181 0
-300 223 0
-301 302 303 0
301 -302 0
301 -303 0
302 -221 -222 0
-302 221 0
-302 222 0
303 -220 -226 0
-303 220 0
-303 226 0
-304 305 306 0
304 -305 0
304 -306 0
305 -206 -207 0
-305 206 0
-305 207 0
306 -204 -205 0
-306 204 0
-306 205 0
-307 308 309 0
307 -308 0
307 -309 0
308 -203 -229 0
-308 203 0
-308 229 0
309 -202 -232 0
-309 202 0
-309 232 0
-310 311 0
310 -311 0
-311 312 0
311 -312 0
-312 313 0
312 -313 0
-313 1607 314 0
-313 -1607 -1627 -314 0
-313 1627 314 0
313 1607 -314 0
313 1627 -314 0
313 -1607 -1627 314 0
-314 1626 316 0
-314 -1626 -315 -348 0
-314 -1626 315 348 0
314 1626 -316 0
314 -1626 -315 348 0
314 -1626 315 -348 0
315 -1607 -241 0
-315 1607 0
-315 241 0
-316 1625 317 0
-316 -1609 317 -344 0
-316 1609 317 344 0
-316 -1609 -1625 -317 344 0
-316 1609 -1625 -317 -344 0
316 1625 -317 0
316 1609 -1625 317 -344 0
316 1609 -317 344 0
316 -1609 -317 -344 0
316 -1609 -1625 317 344 0
-317 1624 318 0
-317 -1610 318 -341 0
-317 1610 318 341 0
-317 -1610 -1624 -318 341 0
-317 1610 -1624 -318 -341 0
317 1624 -318 0
317 1610 -1624 318 -341 0
317 1610 -318 341 0
317 -1610 -318 -341 0
317 -1610 -1624 318 341 0
-318 1623 319 0
-318 -1611 319 -339 0
-318 1611 319 339 0
-318 -1611 -1623 -319 339 0
-318 1611 -1623 -319 -339 0
318 1623 -319 0
318 1611 -1623 319 -339 0
318 1611 -319 339 0
318 -1611 -319 -339 0
318 -1611 -1623 319 339 0
-319 1622 320 0
-319 -1612 320 -334 0
-319 1612 320 334 0
-319 -1612 -1622 -320 334 0
-319 1612 -1622 -320 -334 0
319 1622 -320 0
319 1612 -1622 320 -334 0
319 1612 -320 334 0
319 -1612 -320 -334 0
319 -1612 -1622 320 334 0
-320 1621 321 0
-320 -1621 328 329 0
-320 -1621 -328 -329 0
320 1621 -321 0
320 -1621 328 -329 0
320 -1621 -328 329 0
-321 1620 322 0
-321 -1620 323 324 0
-321 -1620 -323 -324 0
321 1620 -322 0
321 -1620 323 -324 0
321 -1620 -323 324 0
322 -1615 -1619 0
-322 1615 0
-322 1619 0
323 1614 -322 0
323 -1614 322 0
-323 -1614 -322 0
-323 1614 322 0
-324 185 326 0
-324 325 326 0
-324 92 326 0
324 -326 0
324 -92 -185 -325 0
325 -182 -249 0
-325 182 0
-325 249 0
-326 184 327 0
-326 327 325 0
326 -327 0
326 -184 -325 0
-327 1619 0
-327 1613 0
-327 1612 1614 0
327 -1612 -1613 -1619 0
327 -1613 -1614 -1619 0
328 -1613 321 0
328 1613 -321 0
-328 1613 321 0
-328 -1613 -321 0
-329 190 331 0
-329 330 331 0
-329 95 331 0
329 -331 0
329 -95 -190 -330 0
330 -186 -253 0
-330 186 0
-330 253 0
-331 188 332 333 0
-331 332 333 330 0
331 -333 0
331 -332 0
331 -188 -330 0
332 -1612 -247 0
-332 1612 0
-332 247 0
333 -255 -253 0
-333 255 0
-333 253 0
-334 195 336 0
-334 87 336 0
-334 335 336 0
334 -336 0
334 -87 -195 -335 0
335 -191 -257 0
-335 191 0
-335 257 0
-336 259 337 338 0
-336 337 257 338 0
336 -338 0
336 -337 0
336 -259 -257 0
337 -1611 -246 0
-337 1611 0
-337 246 0
338 -193 -335 0
-338 193 0
-338 335 0
-339 1610 263 340 0
-339 263 245 340 0
-339 1610 245 340 0
339 -1610 -263 0
339 -263 -245 0
339 -340 0
339 -1610 -245 0
340 -265 -196 -261 0
-340 265 0
-340 196 0
-340 261 0
-341 200 342 0
-341 176 342 0
-341 266 342 0
341 -342 0
341 -176 -200 -266 0
-342 343 266 0
-342 268 343 0
342 -343 0
342 -268 -266 0
343 -1609 -244 0
-343 1609 0
-343 244 0
-344 345 346 0
344 -345 0
344 -346 0
345 -1608 -243 0
-345 1608 0
-345 243 0
346 -242 -347 0
-346 242 0
-346 347 0
347 -1608 243 0
347 1608 -243 0
-347 1608 243 0
-347 -1608 -243 0
348 -1608 316 0
348 1608 -316 0
-348 1608 316 0
-348 -1608 -316 0
349 -350 392 0
349 350 -392 0
-349 350 392 0
-349 -350 -392 0
350 -351 389 0
350 351 -389 0
-350 351 389 0
-350 -351 -389 0
351 -352 386 0
351 352 -386 0
-351 352 386 0
-351 -352 -386 0
352 -353 383 0
352 353 -383 0
-352 353 383 0
-352 -353 -383 0
353 354 -373 0
353 -354 373 0
-353 -354 -373 0
-353 354 373 0
354 355 -356 0
354 -355 356 0
-354 -355 -356 0
-354 355 356 0
355 -279 -282 0
-355 279 0
-355 282 0
356 357 -362 0
356 -357 362 0
-356 -357 -362 0
-356 357 362 0
357 358 -361 0
357 -358 361 0
-357 -358 -361 0
-357 358 361 0
358 359 -360 0
358 -359 360 0
-358 -359 -360 0
-358 359 360 0
359 -1607 -1627 0
-359 1607 0
-359 1627 0
360 -1608 -1626 0
-360 1608 0
-360 1626 0
361 -1609 -1625 0
-361 1609 0
-361 1625 0
362 -363 370 0
362 363 -370 0
-362 363 370 0
-362 -363 -370 0
363 364 -365 0
363 -364 365 0
-363 -364 -365 0
-363 364 365 0
364 -1607 -1608 -1625 -1626 0
-364 1626 0
-364 1607 0
-364 1625 0
-364 1608 0
365 366 -369 0
365 -366 369 0
-365 -366 -369 0
-365 366 369 0
366 367 -368 0
366 -367 368 0
-366 -367 -368 0
-366 367 368 0
367 -1610 -1624 0
-367 1610 0
-367 1624 0
368 -1611 -1623 0
-368 1611 0
-368 1623 0
369 -1612 -1622 0
-369 1612 0
-369 1622 0
-370 371 372 0
370 -371 0
370 -372 0
371 -1609 -1610 -1623 -1624 0
-371 1624 0
-371 1609 0
-371 1623 0
-371 1610 0
372 -1611 -1622 -284 0
-372 1611 0
-372 1622 0
-372 284 0
373 -374 380 0
373 374 -380 0
-373 374 380 0
-373 -374 -380 0
374 375 -376 0
374 -375 376 0
-374 -375 -376 0
-374 375 376 0
375 -283 -288 0
-375 283 0
-375 288 0
376 322 -377 0
376 -322 377 0
-376 -322 -377 0
-376 322 377 0
377 378 -379 0
377 -378 379 0
-377 -378 -379 0
-377 378 379 0
378 -1613 -1621 0
-378 1613 0
-378 1621 0
379 -1614 -1620 0
-379 1614 0
-379 1620 0
-380 381 382 0
380 -381 0
380 -382 0
381 -1612 -1613 -1620 -1621 0
-381 1621 0
-381 1612 0
-381 1620 0
-381 1613 0
382 -248 -295 0
-382 248 0
-382 295 0
-383 384 385 0
383 -384 0
383 -385 0
384 -277 -278 0
-384 277 0
-384 278 0
385 -276 -291 0
-385 276 0
-385 291 0
-386 387 388 0
386 -387 0
386 -388 0
387 -293 -294 0
-387 293 0
-387 294 0
388 -292 -298 0
-388 292 0
-388 298 0
-389 390 391 0
389 -390 0
389 -391 0
390 -274 -275 0
-390 274 0
-390 275 0
391 -273 -301 0
-391 273 0
-391 301 0
-392 202 393 0
-392 232 393 0
-392 271 393 0
392 -393 0
392 -202 -232 -271 0
-393 394 271 0
-393 308 394 0
393 -394 0
393 -308 -271 0
394 -272 -304 0
-394 272 0
-394 304 0
-395 -396 -441 493 0
-395 396 441 493 0
395 -493 0
395 -396 441 0
395 396 -441 0
-396 397 0
396 -397 0
-397 398 0
397 -398 0
-398 1607 399 0
-398 -1607 -1628 -399 0
-398 1628 399 0
398 1607 -399 0
398 1628 -399 0
398 -1607 -1628 399 0
-399 1627 401 0
-399 1608 400 401 0
-399 -1608 -400 401 0
-399 1608 -1627 -400 -401 0
-399 -1608 -1627 400 -401 0
399 1627 -401 0
399 -1608 -400 -401 0
399 1608 400 -401 0
399 1608 -1627 -400 401 0
399 -1608 -1627 400 401 0
400 -1607 -314 0
-400 1607 0
-400 314 0
-401 1626 402 0
-401 -1626 437 438 0
-401 -1626 -437 -438 0
401 1626 -402 0
401 -1626 437 -438 0
401 -1626 -437 438 0
-402 1625 403 0
-402 -1625 432 433 0
-402 -1625 -432 -433 0
402 1625 -403 0
402 -1625 432 -433 0
402 -1625 -432 433 0
-403 1624 404 0
-403 -1624 427 428 0
-403 -1624 -427 -428 0
403 1624 -404 0
403 -1624 427 -428 0
403 -1624 -427 428 0
-404 1623 405 0
-404 -1623 422 423 0
-404 -1623 -422 -423 0
404 1623 -405 0
404 -1623 422 -423 0
404 -1623 -422 423 0
-405 1622 406 0
-405 -1622 417 418 0
-405 -1622 -417 -418 0
405 1622 -406 0
405 -1622 417 -418 0
405 -1622 -417 418 0
-406 1621 407 0
-406 -1621 413 414 0
-406 -1621 -413 -414 0
406 1621 -407 0
406 -1621 413 -414 0
406 -1621 -413 414 0
-407 1620 408 0
-407 -1620 409 410 0
-407 -1620 -409 -410 0
407 1620 -408 0
407 -1620 409 -410 0
407 -1620 -409 410 0
408 -1616 -1619 0
-408 1616 0
-408 1619 0
409 1615 -408 0
409 -1615 408 0
-409 -1615 -408 0
-409 1615 408 0
-410 411 412 0
410 -411 0
410 -412 0
411 -1614 -322 0
-411 1614 0
-411 322 0
412 -323 -324 0
-412 323 0
-412 324 0
413 -1614 407 0
413 1614 -407 0
-413 1614 407 0
-413 -1614 -407 0
-414 415 416 0
414 -415 0
414 -416 0
415 -1613 -321 0
-415 1613 0
-415 321 0
416 -328 -329 0
-416 328 0
-416 329 0
417 -1613 406 0
417 1613 -406 0
-417 1613 406 0
-417 -1613 -406 0
-418 419 420 0
418 -419 0
418 -420 0
419 -1612 -320 0
-419 1612 0
-419 320 0
420 -421 -334 0
-420 421 0
-420 334 0
421 -1612 320 0
421 1612 -320 0
-421 1612 320 0
-421 -1612 -320 0
422 -1612 405 0
422 1612 -405 0
-422 1612 405 0
-422 -1612 -405 0
-423 424 425 0
423 -424 0
423 -425 0
424 -1611 -319 0
-424 1611 0
-424 319 0
425 -426 -339 0
-425 426 0
-425 339 0
426 -1611 319 0
426 1611 -319 0
-426 1611 319 0
-426 -1611 -319 0
427 -1611 404 0
427 1611 -404 0
-427 1611 404 0
-427 -1611 -404 0
-428 429 430 0
428 -429 0
428 -430 0
429 -1610 -318 0
-429 1610 0
-429 318 0
430 -431 -341 0
-430 431 0
-430 341 0
431 -1610 318 0
431 1610 -318 0
-431 1610 318 0
-431 -1610 -318 0
432 -1610 403 0
432 1610 -403 0
-432 1610 403 0
-432 -1610 -403 0
-433 434 435 0
433 -434 0
433 -435 0
434 -1609 -317 0
-434 1609 0
-434 317 0
435 -436 -344 0
-435 436 0
-435 344 0
436 -1609 317 0
436 1609 -317 0
-436 1609 317 0
-436 -1609 -317 0
437 -1609 402 0
437 1609 -402 0
-437 1609 402 0
-437 -1609 -402 0
-438 439 440 0
438 -439 0
438 -440 0
439 -1608 -316 0
-439 1608 0
-439 316 0
440 -315 -348 0
-440 315 0
-440 348 0
441 -442 490 0
441 442 -490 0
-441 442 490 0
-441 -442 -490 0
442 -443 487 0
442 443 -487 0
-442 443 487 0
-442 -443 -487 0
443 -444 484 0
443 444 -484 0
-443 444 484 0
-443 -444 -484 0
444 -445 481 0
444 445 -481 0
-444 445 481 0
-444 -445 -481 0
445 446 -469 0
445 -446 469 0
-445 -446 -469 0
-445 446 469 0
446 447 -448 0
446 -447 448 0
-446 -447 -448 0
-446 447 448 0
447 -357 -362 0
-447 357 0
-447 362 0
448 449 -456 0
448 -449 456 0
-448 -449 -456 0
-448 449 456 0
449 450 -451 0
449 -450 451 0
-449 -450 -451 0
-449 450 451 0
450 -1607 -1628 0
-450 1607 0
-450 1628 0
451 452 -455 0
451 -452 455 0
-451 -452 -455 0
-451 452 455 0
452 453 -454 0
452 -453 454 0
-452 -453 -454 0
-452 453 454 0
453 -1608 -1627 0
-453 1608 0
-453 1627 0
454 -1609 -1626 0
-454 1609 0
-454 1626 0
455 -1610 -1625 0
-455 1610 0
-455 1625 0
456 -457 466 0
456 457 -466 0
-456 457 466 0
-456 -457 -466 0
457 458 -461 0
457 -458 461 0
-457 -458 -461 0
-457 458 461 0
-458 459 460 0
458 -459 0
458 -460 0
459 -1607 -1608 -1626 -1627 0
-459 1627 0
-459 1607 0
-459 1626 0
-459 1608 0
460 -1609 -1625 -358 0
-460 1609 0
-460 1625 0
-460 358 0
461 462 -465 0
461 -462 465 0
-461 -462 -465 0
-461 462 465 0
462 463 -464 0
462 -463 464 0
-462 -463 -464 0
-462 463 464 0
463 -1611 -1624 0
-463 1611 0
-463 1624 0
464 -1612 -1623 0
-464 1612 0
-464 1623 0
465 -1613 -1622 0
-465 1613 0
-465 1622 0
-466 467 468 0
466 -467 0
466 -468 0
467 -1610 -1611 -1623 -1624 0
-467 1624 0
-467 1610 0
-467 1623 0
-467 1611 0
468 -1612 -1622 -366 0
-468 1612 0
-468 1622 0
-468 366 0
469 -470 478 0
469 470 -478 0
-469 470 478 0
-469 -470 -478 0
470 471 -474 0
470 -471 474 0
-470 -471 -474 0
-470 471 474 0
-471 472 473 0
471 -472 0
471 -473 0
472 -364 -365 0
-472 364 0
-472 365 0
473 -363 -370 0
-473 363 0
-473 370 0
474 408 -475 0
474 -408 475 0
-474 -408 -475 0
-474 408 475 0
475 476 -477 0
475 -476 477 0
-475 -476 -477 0
-475 476 477 0
476 -1614 -1621 0
-476 1614 0
-476 1621 0
477 -1615 -1620 0
-477 1615 0
-477 1620 0
-478 479 480 0
478 -479 0
478 -480 0
479 -1613 -1614 -1620 -1621 0
-479 1621 0
-479 1613 0
-479 1620 0
-479 1614 0
480 -322 -377 0
-480 322 0
-480 377 0
-481 482 483 0
481 -482 0
481 -483 0
482 -355 -356 0
-482 355 0
-482 356 0
483 -354 -373 0
-483 354 0
-483 373 0
-484 485 486 0
484 -485 0
484 -486 0
485 -375 -376 0
-485 375 0
-485 376 0
486 -374 -380 0
-486 374 0
-486 380 0
-487 488 489 0
487 -488 0
487 -489 0
488 -353 -383 0
-488 353 0
-488 383 0
489 -352 -386 0
-489 352 0
-489 386 0
-490 491 492 0
490 -491 0
490 -492 0
491 -351 -389 0
-491 351 0
-491 389 0
492 -350 -392 0
-492 350 0
-492 392 0
-493 494 537 594 650 0
-493 -494 -537 -594 -650 0
-493 494 537 -594 -650 0
-493 -494 -537 594 650 0
493 494 -537 0
493 -494 537 0
493 -594 650 0
493 594 -650 0
-494 495 0
494 -495 0
-495 1607 496 0
-495 -1607 -1629 -496 0
-495 1629 496 0
495 1607 -496 0
495 1629 -496 0
495 -1607 -1629 496 0
-496 1628 498 0
-496 1608 497 498 0
-496 -1608 -497 498 0
-496 1608 -1628 -497 -498 0
-496 -1608 -1628 497 -498 0
496 1628 -498 0
496 -1608 -497 -498 0
496 1608 497 -498 0
496 1608 -1628 -497 498 0
496 -1608 -1628 497 498 0
497 -1607 -399 0
-497 1607 0
-497 399 0
-498 1627 499 0
-498 -1609 499 -533 0
-498 1609 499 533 0
-498 -1609 -1627 -499 533 0
-498 1609 -1627 -499 -533 0
498 1627 -499 0
498 1609 -1627 499 -533 0
498 1609 -499 533 0
498 -1609 -499 -533 0
498 -1609 -1627 499 533 0
-499 1626 500 0
-499 -1610 500 -529 0
-499 1610 500 529 0
-499 -1610 -1626 -500 529 0
-499 1610 -1626 -500 -529 0
499 1626 -500 0
499 1610 -1626 500 -529 0
499 1610 -500 529 0
499 -1610 -500 -529 0
499 -1610 -1626 500 529 0
-500 1625 501 0
-500 -1611 501 -526 0
-500 1611 501 526 0
-500 -1611 -1625 -501 526 0
-500 1611 -1625 -501 -526 0
500 1625 -501 0
500 1611 -1625 501 -526 0
500 1611 -501 526 0
500 -1611 -501 -526 0
500 -1611 -1625 501 526 0
-501 1624 502 0
-501 -1612 502 -523 0
-501 1612 502 523 0
-501 -1612 -1624 -502 523 0
-501 1612 -1624 -502 -523 0
501 1624 -502 0
501 1612 -1624 502 -523 0
501 1612 -502 523 0
501 -1612 -502 -523 0
501 -1612 -1624 502 523 0
-502 1623 503 0
-502 -1613 503 -519 0
-502 1613 503 519 0
-502 -1613 -1623 -503 519 0
-502 1613 -1623 -503 -519 0
502 1623 -503 0
502 1613 -1623 503 -519 0
502 1613 -503 519 0
502 -1613 -503 -519 0
502 -1613 -1623 503 519 0
-503 1622 504 0
-503 -1614 504 -516 0
-503 1614 504 516 0
-503 -1614 -1622 -504 516 0
-503 1614 -1622 -504 -516 0
503 1622 -504 0
503 1614 -1622 504 -516 0
503 1614 -504 516 0
503 -1614 -504 -516 0
503 -1614 -1622 504 516 0
-504 1621 505 0
-504 -1621 511 512 0
-504 -1621 -511 -512 0
504 1621 -505 0
504 -1621 511 -512 0
504 -1621 -511 512 0
-505 1620 506 0
-505 -1620 507 508 0
-505 -1620 -507 -508 0
505 1620 -506 0
505 -1620 507 -508 0
505 -1620 -507 508 0
506 -1617 -1619 0
-506 1617 0
-506 1619 0
507 1616 -506 0
507 -1616 506 0
-507 -1616 -506 0
-507 1616 506 0
-508 324 509 0
-508 509 510 0
508 -509 0
508 -324 -510 0
-509 1619 0
-509 1615 0
-509 1614 1616 0
509 -1614 -1615 -1619 0
509 -1615 -1616 -1619 0
510 -323 -409 0
-510 323 0
-510 409 0
511 -1615 505 0
511 1615 -505 0
-511 1615 505 0
-511 -1615 -505 0
-512 329 513 0
-512 513 515 0
512 -513 0
512 -329 -515 0
-513 514 413 0
-513 415 514 0
513 -514 0
513 -415 -413 0
514 -1614 -407 0
-514 1614 0
-514 407 0
515 -328 -413 0
-515 328 0
-515 413 0
-516 334 517 0
-516 517 518 0
516 -517 0
516 -334 -518 0
-517 419 406 0
-517 1613 419 0
-517 1613 406 0
517 -1613 -419 0
517 -419 -406 0
517 -1613 -406 0
518 -421 -417 0
-518 421 0
-518 417 0
-519 339 520 0
-519 520 522 0
519 -520 0
519 -339 -522 0
-520 521 422 0
-520 424 521 0
520 -521 0
520 -424 -422 0
521 -1612 -405 0
-521 1612 0
-521 405 0
522 -426 -422 0
-522 426 0
-522 422 0
-523 341 524 0
-523 524 525 0
523 -524 0
523 -341 -525 0
-524 429 404 0
-524 1611 429 0
-524 1611 404 0
524 -1611 -429 0
524 -429 -404 0
524 -1611 -404 0
525 -431 -427 0
-525 431 0
-525 427 0
-526 344 527 0
-526 527 528 0
526 -527 0
526 -344 -528 0
-527 434 403 0
-527 1610 434 0
-527 1610 403 0
527 -1610 -434 0
527 -434 -403 0
527 -1610 -403 0
528 -436 -432 0
-528 436 0
-528 432 0
-529 315 530 0
-529 530 532 0
529 -530 0
529 -315 -532 0
-530 531 437 0
-530 439 531 0
530 -531 0
530 -439 -437 0
531 -1609 -402 0
-531 1609 0
-531 402 0
532 -348 -437 0
-532 348 0
-532 437 0
-533 534 535 0
533 -534 0
533 -535 0
534 -1608 -401 0
-534 1608 0
-534 401 0
535 -400 -536 0
-535 400 0
-535 536 0
536 -1608 401 0
536 1608 -401 0
-536 1608 401 0
-536 -1608 -401 0
537 -538 590 0
537 538 -590 0
-537 538 590 0
-537 -538 -590 0
538 -539 587 0
538 539 -587 0
-538 539 587 0
-538 -539 -587 0
539 -540 584 0
539 540 -584 0
-539 540 584 0
-539 -540 -584 0
540 -541 581 0
540 541 -581 0
-540 541 581 0
-540 -541 -581 0
541 542 -569 0
541 -542 569 0
-541 -542 -569 0
-541 542 569 0
542 543 -544 0
542 -543 544 0
-542 -543 -544 0
-542 543 544 0
543 -449 -456 0
-543 449 0
-543 456 0
544 545 -556 0
544 -545 556 0
-544 -545 -556 0
-544 545 556 0
545 546 -547 0
545 -546 547 0
-545 -546 -547 0
-545 546 547 0
546 -1607 -1628 -451 0
-546 1607 0
-546 1628 0
-546 451 0
547 548 -551 0
547 -548 551 0
-547 -548 -551 0
-547 548 551 0
548 549 -550 0
548 -549 550 0
-548 -549 -550 0
-548 549 550 0
549 -1607 -1629 0
-549 1607 0
-549 1629 0
550 -1608 -1628 0
-550 1608 0
-550 1628 0
551 552 -555 0
551 -552 555 0
-551 -552 -555 0
-551 552 555 0
552 553 -554 0
552 -553 554 0
-552 -553 -554 0
-552 553 554 0
553 -1609 -1627 0
-553 1609 0
-553 1627 0
554 -1610 -1626 0
-554 1610 0
-554 1626 0
555 -1611 -1625 0
-555 1611 0
-555 1625 0
556 -557 566 0
556 557 -566 0
-556 557 566 0
-556 -557 -566 0
557 558 -561 0
557 -558 561 0
-557 -558 -561 0
-557 558 561 0
-558 559 560 0
558 -559 0
558 -560 0
559 -1608 -1609 -1626 -1627 0
-559 1627 0
-559 1608 0
-559 1626 0
-559 1609 0
560 -1610 -1625 -452 0
-560 1610 0
-560 1625 0
-560 452 0
561 562 -565 0
561 -562 565 0
-561 -562 -565 0
-561 562 565 0
562 563 -564 0
562 -563 564 0
-562 -563 -564 0
-562 563 564 0
563 -1612 -1624 0
-563 1612 0
-563 1624 0
564 -1613 -1623 0
-564 1613 0
-564 1623 0
565 -1614 -1622 0
-565 1614 0
-565 1622 0
-566 567 568 0
566 -567 0
566 -568 0
567 -1611 -1612 -1623 -1624 0
-567 1624 0
-567 1611 0
-567 1623 0
-567 1612 0
568 -1613 -1622 -462 0
-568 1613 0
-568 1622 0
-568 462 0
569 -570 578 0
569 570 -578 0
-569 570 578 0
-569 -570 -578 0
570 571 -574 0
570 -571 574 0
-570 -571 -574 0
-570 571 574 0
-571 572 573 0
571 -572 0
571 -573 0
572 -458 -461 0
-572 458 0
-572 461 0
573 -457 -466 0
-573 457 0
-573 466 0
574 506 -575 0
574 -506 575 0
-574 -506 -575 0
-574 506 575 0
575 576 -577 0
575 -576 577 0
-575 -576 -577 0
-575 576 577 0
576 -1615 -1621 0
-576 1615 0
-576 1621 0
577 -1616 -1620 0
-577 1616 0
-577 1620 0
-578 579 580 0
578 -579 0
578 -580 0
579 -1614 -1615 -1620 -1621 0
-579 1621 0
-579 1614 0
-579 1620 0
-579 1615 0
580 -408 -475 0
-580 408 0
-580 475 0
-581 582 583 0
581 -582 0
581 -583 0
582 -447 -448 0
-582 447 0
-582 448 0
583 -446 -469 0
-583 446 0
-583 469 0
-584 585 586 0
584 -585 0
584 -586 0
585 -471 -474 0
-585 471 0
-585 474 0
586 -470 -478 0
-586 470 0
-586 478 0
-587 588 589 0
587 -588 0
587 -589 0
588 -445 -481 0
-588 445 0
-588 481 0
589 -444 -484 0
-589 444 0
-589 484 0
-590 392 591 0
-590 591 593 0
590 -591 0
590 -392 -593 0
-591 592 442 0
-591 491 592 0
591 -592 0
591 -491 -442 0
592 -443 -487 0
-592 443 0
-592 487 0
593 -350 -442 0
-593 350 0
-593 442 0
-594 1607 595 0
-594 -1607 -1630 -595 0
-594 1630 595 0
594 1607 -595 0
594 1630 -595 0
594 -1607 -1630 595 0
-595 1629 597 0
-595 1608 596 597 0
-595 -1608 -596 597 0
-595 1608 -1629 -596 -597 0
-595 -1608 -1629 596 -597 0
595 1629 -597 0
595 -1608 -596 -597 0
595 1608 596 -597 0
595 1608 -1629 -596 597 0
595 -1608 -1629 596 597 0
596 -1607 -496 0
-596 1607 0
-596 496 0
-597 1628 598 0
-597 -1628 645 646 0
-597 -1628 -645 -646 0
597 1628 -598 0
597 -1628 645 -646 0
597 -1628 -645 646 0
-598 1627 599 0
-598 -1627 640 641 0
-598 -1627 -640 -641 0
598 1627 -599 0
598 -1627 640 -641 0
598 -1627 -640 641 0
-599 1626 600 0
-599 -1626 635 636 0
-599 -1626 -635 -636 0
599 1626 -600 0
599 -1626 635 -636 0
599 -1626 -635 636 0
-600 1625 601 0
-600 -1625 630 631 0
-600 -1625 -630 -631 0
600 1625 -601 0
600 -1625 630 -631 0
600 -1625 -630 631 0
-601 1624 602 0
-601 -1624 625 626 0
-601 -1624 -625 -626 0
601 1624 -602 0
601 -1624 625 -626 0
601 -1624 -625 626 0
-602 1623 603 0
-602 -1623 620 621 0
-602 -1623 -620 -621 0
602 1623 -603 0
602 -1623 620 -621 0
602 -1623 -620 621 0
-603 1622 604 0
-603 -1622 615 616 0
-603 -1622 -615 -616 0
603 1622 -604 0
603 -1622 615 -616 0
603 -1622 -615 616 0
-604 1621 605 0
-604 -1621 611 612 0
-604 -1621 -611 -612 0
604 1621 -605 0
604 -1621 611 -612 0
604 -1621 -611 612 0
-605 1620 606 0
-605 -1620 607 608 0
-605 -1620 -607 -608 0
605 1620 -606 0
605 -1620 607 -608 0
605 -1620 -607 608 0
606 -1618 -1619 0
-606 1618 0
-606 1619 0
607 1617 -606 0
607 -1617 606 0
-607 -1617 -606 0
-607 1617 606 0
-608 609 610 0
608 -609 0
608 -610 0
609 -1616 -506 0
-609 1616 0
-609 506 0
610 -507 -508 0
-610 507 0
-610 508 0
611 -1616 605 0
611 1616 -605 0
-611 1616 605 0
-611 -1616 -605 0
-612 613 614 0
612 -613 0
612 -614 0
613 -1615 -505 0
-613 1615 0
-613 505 0
614 -511 -512 0
-614 511 0
-614 512 0
615 -1615 604 0
615 1615 -604 0
-615 1615 604 0
-615 -1615 -604 0
-616 617 618 0
616 -617 0
616 -618 0
617 -1614 -504 0
-617 1614 0
-617 504 0
618 -619 -516 0
-618 619 0
-618 516 0
619 -1614 504 0
619 1614 -504 0
-619 1614 504 0
-619 -1614 -504 0
620 -1614 603 0
620 1614 -603 0
-620 1614 603 0
-620 -1614 -603 0
-621 622 623 0
621 -622 0
621 -623 0
622 -1613 -503 0
-622 1613 0
-622 503 0
623 -624 -519 0
-623 624 0
-623 519 0
624 -1613 503 0
624 1613 -503 0
-624 1613 503 0
-624 -1613 -503 0
625 -1613 602 0
625 1613 -602 0
-625 1613 602 0
-625 -1613 -602 0
-626 627 628 0
626 -627 0
626 -628 0
627 -1612 -502 0
-627 1612 0
-627 502 0
628 -629 -523 0
-628 629 0
-628 523 0
629 -1612 502 0
629 1612 -502 0
-629 1612 502 0
-629 -1612 -502 0
630 -1612 601 0
630 1612 -601 0
-630 1612 601 0
-630 -1612 -601 0
-631 632 633 0
631 -632 0
631 -633 0
632 -1611 -501 0
-632 1611 0
-632 501 0
633 -634 -526 0
-633 634 0
-633 526 0
634 -1611 501 0
634 1611 -501 0
-634 1611 501 0
-634 -1611 -501 0
635 -1611 600 0
635 1611 -600 0
-635 1611 600 0
-635 -1611 -600 0
-636 637 638 0
636 -637 0
636 -638 0
637 -1610 -500 0
-637 1610 0
-637 500 0
638 -639 -529 0
-638 639 0
-638 529 0
639 -1610 500 0
639 1610 -500 0
-639 1610 500 0
-639 -1610 -500 0
640 -1610 599 0
640 1610 -599 0
-640 1610 599 0
-640 -1610 -599 0
-641 642 643 0
641 -642 0
641 -643 0
642 -1609 -499 0
-642 1609 0
-642 499 0
643 -644 -533 0
-643 644 0
-643 533 0
644 -1609 499 0
644 1609 -499 0
-644 1609 499 0
-644 -1609 -499 0
645 -1609 598 0
645 1609 -598 0
-645 1609 598 0
-645 -1609 -598 0
-646 647 648 0
646 -647 0
646 -648 0
647 -1608 -498 0
-647 1608 0
-647 498 0
648 -497 -649 0
-648 497 0
-648 649 0
649 -1608 498 0
649 1608 -498 0
-649 1608 498 0
-649 -1608 -498 0
650 -651 709 0
650 651 -709 0
-650 651 709 0
-650 -651 -709 0
651 -652 706 0
651 652 -706 0
-651 652 706 0
-651 -652 -706 0
652 -653 703 0
652 653 -703 0
-652 653 703 0
-652 -653 -703 0
653 -654 700 0
653 654 -700 0
-653 654 700 0
-653 -654 -700 0
654 655 -688 0
654 -655 688 0
-654 -655 -688 0
-654 655 688 0
655 -656 685 0
655 656 -685 0
-655 656 685 0
-655 -656 -685 0
656 657 -672 0
656 -657 672 0
-656 -657 -672 0
-656 657 672 0
657 658 -659 0
657 -658 659 0
-657 -658 -659 0
-657 658 659 0
658 -548 -551 0
-658 548 0
-658 551 0
659 660 -667 0
659 -660 667 0
-659 -660 -667 0
-659 660 667 0
660 661 -662 0
660 -661 662 0
-660 -661 -662 0
-660 661 662 0
661 -1607 -1608 -1628 -1629 0
-661 1629 0
-661 1607 0
-661 1628 0
-661 1608 0
662 663 -666 0
662 -663 666 0
-662 -663 -666 0
-662 663 666 0
663 664 -665 0
663 -664 665 0
-663 -664 -665 0
-663 664 665 0
664 -1607 -1630 0
-664 1607 0
-664 1630 0
665 -1608 -1629 0
-665 1608 0
-665 1629 0
666 -1609 -1628 0
-666 1609 0
-666 1628 0
667 668 -671 0
667 -668 671 0
-667 -668 -671 0
-667 668 671 0
668 669 -670 0
668 -669 670 0
-668 -669 -670 0
-668 669 670 0
669 -1610 -1627 0
-669 1610 0
-669 1627 0
670 -1611 -1626 0
-670 1611 0
-670 1626 0
671 -1612 -1625 0
-671 1612 0
-671 1625 0
672 -673 682 0
672 673 -682 0
-672 673 682 0
-672 -673 -682 0
673 674 -677 0
673 -674 677 0
-673 -674 -677 0
-673 674 677 0
-674 675 676 0
674 -675 0
674 -676 0
675 -1609 -1610 -1626 -1627 0
-675 1627 0
-675 1609 0
-675 1626 0
-675 1610 0
676 -1611 -1625 -552 0
-676 1611 0
-676 1625 0
-676 552 0
677 678 -681 0
677 -678 681 0
-677 -678 -681 0
-677 678 681 0
678 679 -680 0
678 -679 680 0
-678 -679 -680 0
-678 679 680 0
679 -1613 -1624 0
-679 1613 0
-679 1624 0
680 -1614 -1623 0
-680 1614 0
-680 1623 0
681 -1615 -1622 0
-681 1615 0
-681 1622 0
-682 683 684 0
682 -683 0
682 -684 0
683 -1612 -1613 -1623 -1624 0
-683 1624 0
-683 1612 0
-683 1623 0
-683 1613 0
684 -1614 -1622 -562 0
-684 1614 0
-684 1622 0
-684 562 0
-685 686 687 0
685 -686 0
685 -687 0
686 -546 -547 0
-686 546 0
-686 547 0
687 -545 -556 0
-687 545 0
-687 556 0
688 -689 697 0
688 689 -697 0
-688 689 697 0
-688 -689 -697 0
689 690 -693 0
689 -690 693 0
-689 -690 -693 0
-689 690 693 0
-690 691 692 0
690 -691 0
690 -692 0
691 -558 -561 0
-691 558 0
-691 561 0
692 -557 -566 0
-692 557 0
-692 566 0
693 606 -694 0
693 -606 694 0
-693 -606 -694 0
-693 606 694 0
694 695 -696 0
694 -695 696 0
-694 -695 -696 0
-694 695 696 0
695 -1616 -1621 0
-695 1616 0
-695 1621 0
696 -1617 -1620 0
-696 1617 0
-696 1620 0
-697 698 699 0
697 -698 0
697 -699 0
698 -1615 -1616 -1620 -1621 0
-698 1621 0
-698 1615 0
-698 1620 0
-698 1616 0
699 -506 -575 0
-699 506 0
-699 575 0
-700 701 702 0
700 -701 0
700 -702 0
701 -543 -544 0
-701 543 0
-701 544 0
702 -542 -569 0
-702 542 0
-702 569 0
-703 704 705 0
703 -704 0
703 -705 0
704 -571 -574 0
-704 571 0
-704 574 0
705 -570 -578 0
-705 570 0
-705 578 0
-706 707 708 0
706 -707 0
706 -708 0
707 -541 -581 0
-707 541 0
-707 581 0
708 -540 -584 0
-708 540 0
-708 584 0
-709 710 711 0
709 -710 0
709 -711 0
710 -539 -587 0
-710 539 0
-710 587 0
711 -538 -590 0
-711 538 0
-711 590 0
-712 -713 -774 842 1064 0
-712 713 774 842 1064 0
712 -1064 0
712 -713 774 0
712 -842 0
712 713 -774 0
-713 1630 715 0
-713 -1630 -714 -773 0
-713 -1630 714 773 0
713 1630 -715 0
713 -1630 -714 773 0
713 -1630 714 -773 0
714 -1607 -595 0
-714 1607 0
-714 595 0
-715 1629 716 0
-715 -1609 716 -769 0
-715 1609 716 769 0
-715 -1609 -1629 -716 769 0
-715 1609 -1629 -716 -769 0
715 1629 -716 0
715 1609 -1629 716 -769 0
715 1609 -716 769 0
715 -1609 -716 -769 0
715 -1609 -1629 716 769 0
-716 1628 717 0
-716 -1610 717 -766 0
-716 1610 717 766 0
-716 -1610 -1628 -717 766 0
-716 1610 -1628 -717 -766 0
716 1628 -717 0
716 1610 -1628 717 -766 0
716 1610 -717 766 0
716 -1610 -717 -766 0
716 -1610 -1628 717 766 0
-717 1627 718 0
-717 -1611 718 -764 0
-717 1611 718 764 0
-717 -1611 -1627 -718 764 0
-717 1611 -1627 -718 -764 0
717 1627 -718 0
717 1611 -1627 718 -764 0
717 1611 -718 764 0
717 -1611 -718 -764 0
717 -1611 -1627 718 764 0
-718 1626 719 0
-718 -1612 719 -758 0
-718 1612 719 758 0
-718 -1612 -1626 -719 758 0
-718 1612 -1626 -719 -758 0
718 1626 -719 0
718 1612 -1626 719 -758 0
718 1612 -719 758 0
718 -1612 -719 -758 0
718 -1612 -1626 719 758 0
-719 1625 720 0
-719 -1613 720 -752 0
-719 1613 720 752 0
-719 -1613 -1625 -720 752 0
-719 1613 -1625 -720 -752 0
719 1625 -720 0
719 1613 -1625 720 -752 0
719 1613 -720 752 0
719 -1613 -720 -752 0
719 -1613 -1625 720 752 0
-720 1624 721 0
-720 -1614 721 -746 0
-720 1614 721 746 0
-720 -1614 -1624 -721 746 0
-720 1614 -1624 -721 -746 0
720 1624 -721 0
720 1614 -1624 721 -746 0
720 1614 -721 746 0
720 -1614 -721 -746 0
720 -1614 -1624 721 746 0
-721 1623 722 0
-721 -1615 722 -740 0
-721 1615 722 740 0
-721 -1615 -1623 -722 740 0
-721 1615 -1623 -722 -740 0
721 1623 -722 0
721 1615 -1623 722 -740 0
721 1615 -722 740 0
721 -1615 -722 -740 0
721 -1615 -1623 722 740 0
-722 1622 723 0
-722 -1616 723 -735 0
-722 1616 723 735 0
-722 -1616 -1622 -723 735 0
-722 1616 -1622 -723 -735 0
722 1622 -723 0
722 1616 -1622 723 -735 0
722 1616 -723 735 0
722 -1616 -723 -735 0
722 -1616 -1622 723 735 0
-723 1621 724 0
-723 -1621 729 730 0
-723 -1621 -729 -730 0
723 1621 -724 0
723 -1621 729 -730 0
723 -1621 -729 730 0
724 1618 -1620 -725 0
724 -1618 -1620 725 0
-724 1620 0
-724 -1618 -725 0
-724 1618 725 0
-725 510 727 0
-725 726 727 0
-725 324 727 0
725 -727 0
725 -324 -510 -726 0
726 -507 -607 0
-726 507 0
-726 607 0
-727 509 728 0
-727 728 726 0
727 -728 0
727 -509 -726 0
-728 1619 0
-728 1617 0
-728 1616 1618 0
728 -1616 -1617 -1619 0
728 -1617 -1618 -1619 0
729 1617 -724 0
729 -1617 724 0
-729 -1617 -724 0
-729 1617 724 0
-730 515 732 0
-730 731 732 0
-730 329 732 0
730 -732 0
730 -329 -515 -731 0
731 -511 -611 0
-731 511 0
-731 611 0
-732 613 733 734 0
-732 733 611 734 0
732 -734 0
732 -733 0
732 -613 -611 0
733 -1616 -605 0
-733 1616 0
-733 605 0
734 -513 -731 0
-734 513 0
-734 731 0
-735 518 737 0
-735 736 737 0
-735 334 737 0
735 -737 0
735 -334 -518 -736 0
736 -619 -615 0
-736 619 0
-736 615 0
-737 517 738 739 0
-737 738 739 736 0
737 -739 0
737 -738 0
737 -517 -736 0
738 -1615 -604 0
-738 1615 0
-738 604 0
739 -617 -615 0
-739 617 0
-739 615 0
-740 339 741 0
-740 741 745 0
740 -741 0
740 -339 -745 0
-741 622 742 743 0
-741 742 620 743 0
741 -743 0
741 -742 0
741 -622 -620 0
742 -1614 -603 0
-742 1614 0
-742 603 0
743 -520 -744 0
-743 520 0
-743 744 0
744 -624 -620 0
-744 624 0
-744 620 0
745 -522 -744 0
-745 522 0
-745 744 0
-746 341 747 0
-746 747 751 0
746 -747 0
746 -341 -751 0
-747 524 748 749 0
-747 748 749 750 0
747 -749 0
747 -748 0
747 -524 -750 0
748 -1613 -602 0
-748 1613 0
-748 602 0
749 -627 -625 0
-749 627 0
-749 625 0
750 -629 -625 0
-750 629 0
-750 625 0
751 -525 -750 0
-751 525 0
-751 750 0
-752 344 753 0
-752 753 757 0
752 -753 0
752 -344 -757 0
-753 632 754 755 0
-753 754 630 755 0
753 -755 0
753 -754 0
753 -632 -630 0
754 -1612 -601 0
-754 1612 0
-754 601 0
755 -527 -756 0
-755 527 0
-755 756 0
756 -634 -630 0
-756 634 0
-756 630 0
757 -528 -756 0
-757 528 0
-757 756 0
-758 315 759 0
-758 759 763 0
758 -759 0
758 -315 -763 0
-759 637 760 761 0
-759 760 635 761 0
759 -761 0
759 -760 0
759 -637 -635 0
760 -1611 -600 0
-760 1611 0
-760 600 0
761 -530 -762 0
-761 530 0
-761 762 0
762 -639 -635 0
-762 639 0
-762 635 0
763 -532 -762 0
-763 532 0
-763 762 0
-764 1610 642 765 0
-764 642 599 765 0
-764 1610 599 765 0
764 -1610 -642 0
764 -642 -599 0
764 -765 0
764 -1610 -599 0
765 -644 -533 -640 0
-765 644 0
-765 533 0
-765 640 0
-766 649 767 0
-766 497 767 0
-766 645 767 0
766 -767 0
766 -497 -649 -645 0
-767 768 645 0
-767 647 768 0
767 -768 0
767 -647 -645 0
768 -1609 -598 0
-768 1609 0
-768 598 0
-769 770 771 0
769 -770 0
769 -771 0
770 -1608 -597 0
-770 1608 0
-770 597 0
771 -596 -772 0
-771 596 0
-771 772 0
772 -1608 597 0
772 1608 -597 0
-772 1608 597 0
-772 -1608 -597 0
773 -1608 715 0
773 1608 -715 0
-773 1608 715 0
-773 -1608 -715 0
774 -775 836 0
774 775 -836 0
-774 775 836 0
-774 -775 -836 0
775 -776 833 0
775 776 -833 0
-775 776 833 0
-775 -776 -833 0
776 -777 830 0
776 777 -830 0
-776 777 830 0
-776 -777 -830 0
777 -778 827 0
777 778 -827 0
-777 778 827 0
-777 -778 -827 0
778 779 -816 0
778 -779 816 0
-778 -779 -816 0
-778 779 816 0
779 -780 813 0
779 780 -813 0
-779 780 813 0
-779 -780 -813 0
780 781 -800 0
780 -781 800 0
-780 -781 -800 0
-780 781 800 0
781 -782 797 0
781 782 -797 0
-781 782 797 0
-781 -782 -797 0
782 783 -792 0
782 -783 792 0
-782 -783 -792 0
-782 783 792 0
783 -784 789 0
783 784 -789 0
-783 784 789 0
-783 -784 -789 0
784 785 -788 0
784 -785 788 0
-784 -785 -788 0
-784 785 788 0
785 786 -787 0
785 -786 787 0
-785 -786 -787 0
-785 786 787 0
786 -1608 -1630 0
-786 1608 0
-786 1630 0
787 -1609 -1629 0
-787 1609 0
-787 1629 0
788 -1610 -1628 0
-788 1610 0
-788 1628 0
-789 790 791 0
789 -790 0
789 -791 0
790 -1607 -1608 -1629 -1630 0
-790 1630 0
-790 1607 0
-790 1629 0
-790 1608 0
791 -1609 -1628 -663 0
-791 1609 0
-791 1628 0
-791 663 0
792 793 -796 0
792 -793 796 0
-792 -793 -796 0
-792 793 796 0
793 794 -795 0
793 -794 795 0
-793 -794 -795 0
-793 794 795 0
794 -1611 -1627 0
-794 1611 0
-794 1627 0
795 -1612 -1626 0
-795 1612 0
-795 1626 0
796 -1613 -1625 0
-796 1613 0
-796 1625 0
-797 798 799 0
797 -798 0
797 -799 0
798 -661 -662 0
-798 661 0
-798 662 0
799 -660 -667 0
-799 660 0
-799 667 0
800 -801 810 0
800 801 -810 0
-800 801 810 0
-800 -801 -810 0
801 802 -805 0
801 -802 805 0
-801 -802 -805 0
-801 802 805 0
-802 803 804 0
802 -803 0
802 -804 0
803 -1610 -1611 -1626 -1627 0
-803 1627 0
-803 1610 0
-803 1626 0
-803 1611 0
804 -1612 -1625 -668 0
-804 1612 0
-804 1625 0
-804 668 0
805 806 -809 0
805 -806 809 0
-805 -806 -809 0
-805 806 809 0
806 807 -808 0
806 -807 808 0
-806 -807 -808 0
-806 807 808 0
807 -1614 -1624 0
-807 1614 0
-807 1624 0
808 -1615 -1623 0
-808 1615 0
-808 1623 0
809 -1616 -1622 0
-809 1616 0
-809 1622 0
-810 811 812 0
810 -811 0
810 -812 0
811 -1613 -1614 -1623 -1624 0
-811 1624 0
-811 1613 0
-811 1623 0
-811 1614 0
812 -1615 -1622 -678 0
-812 1615 0
-812 1622 0
-812 678 0
-813 814 815 0
813 -814 0
813 -815 0
814 -658 -659 0
-814 658 0
-814 659 0
815 -657 -672 0
-815 657 0
-815 672 0
816 -817 824 0
816 817 -824 0
-816 817 824 0
-816 -817 -824 0
817 818 -821 0
817 -818 821 0
-817 -818 -821 0
-817 818 821 0
-818 819 820 0
818 -819 0
818 -820 0
819 -674 -677 0
-819 674 0
-819 677 0
820 -673 -682 0
-820 673 0
-820 682 0
821 822 -823 0
821 -822 823 0
-821 -822 -823 0
-821 822 823 0
822 -1617 -1621 0
-822 1617 0
-822 1621 0
823 -1618 -1620 0
-823 1618 0
-823 1620 0
-824 825 826 0
824 -825 0
824 -826 0
825 -1616 -1617 -1620 -1621 0
-825 1621 0
-825 1616 0
-825 1620 0
-825 1617 0
826 -606 -694 0
-826 606 0
-826 694 0
-827 828 829 0
827 -828 0
827 -829 0
828 -656 -685 0
-828 656 0
-828 685 0
829 -655 -688 0
-829 655 0
-829 688 0
-830 831 832 0
830 -831 0
830 -832 0
831 -690 -693 0
-831 690 0
-831 693 0
832 -689 -697 0
-832 689 0
-832 697 0
-833 834 835 0
833 -834 0
833 -835 0
834 -654 -700 0
-834 654 0
-834 700 0
835 -653 -703 0
-835 653 0
-835 703 0
-836 392 837 0
-836 837 841 0
836 -837 0
836 -392 -841 0
-837 710 838 839 0
-837 838 651 839 0
837 -839 0
837 -838 0
837 -710 -651 0
838 -652 -706 0
-838 652 0
-838 706 0
839 -591 -840 0
-839 591 0
-839 840 0
840 -538 -651 0
-840 538 0
-840 651 0
841 -593 -840 0
-841 593 0
-841 840 0
-842 843 904 965 1006 0
-842 -843 -904 -965 -1006 0
-842 843 904 -965 -1006 0
-842 -843 -904 965 1006 0
842 843 -904 0
842 -843 904 0
842 -965 1006 0
842 965 -1006 0
-843 1630 844 0
-843 -1630 900 901 0
-843 -1630 -900 -901 0
843 1630 -844 0
843 -1630 900 -901 0
843 -1630 -900 901 0
-844 1629 845 0
-844 -1629 895 896 0
-844 -1629 -895 -896 0
844 1629 -845 0
844 -1629 895 -896 0
844 -1629 -895 896 0
-845 1628 846 0
-845 -1628 890 891 0
-845 -1628 -890 -891 0
845 1628 -846 0
845 -1628 890 -891 0
845 -1628 -890 891 0
-846 1627 847 0
-846 -1627 885 886 0
-846 -1627 -885 -886 0
846 1627 -847 0
846 -1627 885 -886 0
846 -1627 -885 886 0
-847 1626 848 0
-847 -1626 880 881 0
-847 -1626 -880 -881 0
847 1626 -848 0
847 -1626 880 -881 0
847 -1626 -880 881 0
-848 1625 849 0
-848 -1625 875 876 0
-848 -1625 -875 -876 0
848 1625 -849 0
848 -1625 875 -876 0
848 -1625 -875 876 0
-849 1624 850 0
-849 -1624 870 871 0
-849 -1624 -870 -871 0
849 1624 -850 0
849 -1624 870 -871 0
849 -1624 -870 871 0
-850 1623 851 0
-850 -1623 865 866 0
-850 -1623 -865 -866 0
850 1623 -851 0
850 -1623 865 -866 0
850 -1623 -865 866 0
-851 1622 852 0
-851 -1622 860 861 0
-851 -1622 -860 -861 0
851 1622 -852 0
851 -1622 860 -861 0
851 -1622 -860 861 0
-852 1621 853 0
-852 -1621 855 857 0
-852 -1621 -855 -857 0
852 1621 -853 0
852 -1621 855 -857 0
852 -1621 -855 857 0
853 -1620 -854 0
-853 1620 0
-853 854 0
854 -1618 -725 0
-854 1618 0
-854 725 0
855 -1618 856 0
-855 1618 0
-855 -856 0
856 -1618 -853 0
-856 1618 0
-856 853 0
-857 858 859 0
857 -858 0
857 -859 0
858 -1617 -724 0
-858 1617 0
-858 724 0
859 -729 -730 0
-859 729 0
-859 730 0
860 -1617 852 0
860 1617 -852 0
-860 1617 852 0
-860 -1617 -852 0
-861 862 863 0
861 -862 0
861 -863 0
862 -1616 -723 0
-862 1616 0
-862 723 0
863 -864 -735 0
-863 864 0
-863 735 0
864 -1616 723 0
864 1616 -723 0
-864 1616 723 0
-864 -1616 -723 0
865 -1616 851 0
865 1616 -851 0
-865 1616 851 0
-865 -1616 -851 0
-866 867 868 0
866 -867 0
866 -868 0
867 -1615 -722 0
-867 1615 0
-867 722 0
868 -869 -740 0
-868 869 0
-868 740 0
869 -1615 722 0
869 1615 -722 0
-869 1615 722 0
-869 -1615 -722 0
870 -1615 850 0
870 1615 -850 0
-870 1615 850 0
-870 -1615 -850 0
-871 872 873 0
871 -872 0
871 -873 0
872 -1614 -721 0
-872 1614 0
-872 721 0
873 -874 -746 0
-873 874 0
-873 746 0
874 -1614 721 0
874 1614 -721 0
-874 1614 721 0
-874 -1614 -721 0
875 -1614 849 0
875 1614 -849 0
-875 1614 849 0
-875 -1614 -849 0
-876 877 878 0
876 -877 0
876 -878 0
877 -1613 -720 0
-877 1613 0
-877 720 0
878 -879 -752 0
-878 879 0
-878 752 0
879 -1613 720 0
879 1613 -720 0
-879 1613 720 0
-879 -1613 -720 0
880 -1613 848 0
880 1613 -848 0
-880 1613 848 0
-880 -1613 -848 0
-881 882 883 0
881 -882 0
881 -883 0
882 -1612 -719 0
-882 1612 0
-882 719 0
883 -884 -758 0
-883 884 0
-883 758 0
884 -1612 719 0
884 1612 -719 0
-884 1612 719 0
-884 -1612 -719 0
885 -1612 847 0
885 1612 -847 0
-885 1612 847 0
-885 -1612 -847 0
-886 887 888 0
886 -887 0
886 -888 0
887 -1611 -718 0
-887 1611 0
-887 718 0
888 -889 -764 0
-888 889 0
-888 764 0
889 -1611 718 0
889 1611 -718 0
-889 1611 718 0
-889 -1611 -718 0
890 -1611 846 0
890 1611 -846 0
-890 1611 846 0
-890 -1611 -846 0
-891 892 893 0
891 -892 0
891 -893 0
892 -1610 -717 0
-892 1610 0
-892 717 0
893 -894 -766 0
-893 894 0
-893 766 0
894 -1610 717 0
894 1610 -717 0
-894 1610 717 0
-894 -1610 -717 0
895 -1610 845 0
895 1610 -845 0
-895 1610 845 0
-895 -1610 -845 0
-896 897 898 0
896 -897 0
896 -898 0
897 -1609 -716 0
-897 1609 0
-897 716 0
898 -899 -769 0
-898 899 0
-898 769 0
899 -1609 716 0
899 1609 -716 0
-899 1609 716 0
-899 -1609 -716 0
900 -1609 844 0
900 1609 -844 0
-900 1609 844 0
-900 -1609 -844 0
-901 902 903 0
901 -902 0
901 -903 0
902 -1608 -715 0
-902 1608 0
-902 715 0
903 -714 -773 0
-903 714 0
-903 773 0
904 -905 962 0
904 905 -962 0
-904 905 962 0
-904 -905 -962 0
905 -906 959 0
905 906 -959 0
-905 906 959 0
-905 -906 -959 0
906 -907 956 0
906 907 -956 0
-906 907 956 0
-906 -907 -956 0
907 -908 953 0
907 908 -953 0
-907 908 953 0
-907 -908 -953 0
908 909 -946 0
908 -909 946 0
-908 -909 -946 0
-908 909 946 0
909 -910 943 0
909 910 -943 0
-909 910 943 0
-909 -910 -943 0
910 911 -930 0
910 -911 930 0
-910 -911 -930 0
-910 911 930 0
911 -912 927 0
911 912 -927 0
-911 912 927 0
-911 -912 -927 0
912 913 -922 0
912 -913 922 0
-912 -913 -922 0
-912 913 922 0
913 -914 919 0
913 914 -919 0
-913 914 919 0
-913 -914 -919 0
914 915 -918 0
914 -915 918 0
-914 -915 -918 0
-914 915 918 0
915 916 -917 0
915 -916 917 0
-915 -916 -917 0
-915 916 917 0
916 -1609 -1630 0
-916 1609 0
-916 1630 0
917 -1610 -1629 0
-917 1610 0
-917 1629 0
918 -1611 -1628 0
-918 1611 0
-918 1628 0
-919 920 921 0
919 -920 0
919 -921 0
920 -1608 -1609 -1629 -1630 0
-920 1630 0
-920 1608 0
-920 1629 0
-920 1609 0
921 -1610 -1628 -785 0
-921 1610 0
-921 1628 0
-921 785 0
922 923 -926 0
922 -923 926 0
-922 -923 -926 0
-922 923 926 0
923 924 -925 0
923 -924 925 0
-923 -924 -925 0
-923 924 925 0
924 -1612 -1627 0
-924 1612 0
-924 1627 0
925 -1613 -1626 0
-925 1613 0
-925 1626 0
926 -1614 -1625 0
-926 1614 0
-926 1625 0
-927 928 929 0
927 -928 0
927 -929 0
928 -784 -789 0
-928 784 0
-928 789 0
929 -783 -792 0
-929 783 0
-929 792 0
930 -931 940 0
930 931 -940 0
-930 931 940 0
-930 -931 -940 0
931 932 -935 0
931 -932 935 0
-931 -932 -935 0
-931 932 935 0
-932 933 934 0
932 -933 0
932 -934 0
933 -1611 -1612 -1626 -1627 0
-933 1627 0
-933 1611 0
-933 1626 0
-933 1612 0
934 -1613 -1625 -793 0
-934 1613 0
-934 1625 0
-934 793 0
935 936 -939 0
935 -936 939 0
-935 -936 -939 0
-935 936 939 0
936 937 -938 0
936 -937 938 0
-936 -937 -938 0
-936 937 938 0
937 -1615 -1624 0
-937 1615 0
-937 1624 0
938 -1616 -1623 0
-938 1616 0
-938 1623 0
939 -1617 -1622 0
-939 1617 0
-939 1622 0
-940 941 942 0
940 -941 0
940 -942 0
941 -1614 -1615 -1623 -1624 0
-941 1624 0
-941 1614 0
-941 1623 0
-941 1615 0
942 -1616 -1622 -806 0
-942 1616 0
-942 1622 0
-942 806 0
-943 944 945 0
943 -944 0
943 -945 0
944 -782 -797 0
-944 782 0
-944 797 0
945 -781 -800 0
-945 781 0
-945 800 0
946 947 -948 0
946 -947 948 0
-946 -947 -948 0
-946 947 948 0
947 -1617 -1618 -1620 -1621 0
-947 1621 0
-947 1617 0
-947 1620 0
-947 1618 0
948 949 -952 0
948 -949 952 0
-948 -949 -952 0
-948 949 952 0
-949 950 951 0
949 -950 0
949 -951 0
950 -802 -805 0
-950 802 0
-950 805 0
951 -801 -810 0
-951 801 0
-951 810 0
952 -1618 -1621 0
-952 1618 0
-952 1621 0
-953 954 955 0
953 -954 0
953 -955 0
954 -780 -813 0
-954 780 0
-954 813 0
955 -779 -816 0
-955 779 0
-955 816 0
-956 957 958 0
956 -957 0
956 -958 0
957 -818 -821 0
-957 818 0
-957 821 0
958 -817 -824 0
-958 817 0
-958 824 0
-959 960 961 0
959 -960 0
959 -961 0
960 -778 -827 0
-960 778 0
-960 827 0
961 -777 -830 0
-961 777 0
-961 830 0
-962 963 964 0
962 -963 0
962 -964 0
963 -776 -833 0
-963 776 0
-963 833 0
964 -775 -836 0
-964 775 0
-964 836 0
-965 1630 966 0
-965 -1610 966 -1003 0
-965 1610 966 1003 0
-965 -1610 -1630 -966 1003 0
-965 1610 -1630 -966 -1003 0
965 1630 -966 0
965 1610 -1630 966 -1003 0
965 1610 -966 1003 0
965 -1610 -966 -1003 0
965 -1610 -1630 966 1003 0
-966 1629 967 0
-966 -1611 967 -1000 0
-966 1611 967 1000 0
-966 -1611 -1629 -967 1000 0
-966 1611 -1629 -967 -1000 0
966 1629 -967 0
966 1611 -1629 967 -1000 0
966 1611 -967 1000 0
966 -1611 -967 -1000 0
966 -1611 -1629 967 1000 0
-967 1628 968 0
-967 -1612 968 -996 0
-967 1612 968 996 0
-967 -1612 -1628 -968 996 0
-967 1612 -1628 -968 -996 0
967 1628 -968 0
967 1612 -1628 968 -996 0
967 1612 -968 996 0
967 -1612 -968 -996 0
967 -1612 -1628 968 996 0
-968 1627 969 0
-968 -1613 969 -993 0
-968 1613 969 993 0
-968 -1613 -1627 -969 993 0
-968 1613 -1627 -969 -993 0
968 1627 -969 0
968 1613 -1627 969 -993 0
968 1613 -969 993 0
968 -1613 -969 -993 0
968 -1613 -1627 969 993 0
-969 1626 970 0
-969 -1614 970 -989 0
-969 1614 970 989 0
-969 -1614 -1626 -970 989 0
-969 1614 -1626 -970 -989 0
969 1626 -970 0
969 1614 -1626 970 -989 0
969 1614 -970 989 0
969 -1614 -970 -989 0
969 -1614 -1626 970 989 0
-970 1625 971 0
-970 -1615 971 -986 0
-970 1615 971 986 0
-970 -1615 -1625 -971 986 0
-970 1615 -1625 -971 -986 0
970 1625 -971 0
970 1615 -1625 971 -986 0
970 1615 -971 986 0
970 -1615 -971 -986 0
970 -1615 -1625 971 986 0
-971 1624 972 0
-971 -1616 972 -982 0
-971 1616 972 982 0
-971 -1616 -1624 -972 982 0
-971 1616 -1624 -972 -982 0
971 1624 -972 0
971 1616 -1624 972 -982 0
971 1616 -972 982 0
971 -1616 -972 -982 0
971 -1616 -1624 972 982 0
-972 1623 973 0
-972 -1617 973 -979 0
-972 1617 973 979 0
-972 -1617 -1623 -973 979 0
-972 1617 -1623 -973 -979 0
972 1623 -973 0
972 1617 -1623 973 -979 0
972 1617 -973 979 0
972 -1617 -973 -979 0
972 -1617 -1623 973 979 0
-973 1622 974 0
-973 1618 -1622 -974 -977 0
-973 1618 974 977 0
-973 -1618 974 -977 0
-973 -1618 -1622 -974 977 0
973 1622 -974 0
973 -1618 -974 -977 0
973 1618 -974 977 0
973 -1618 -1622 974 977 0
973 1618 -1622 974 -977 0
974 -1621 -856 0
974 -1621 -976 0
974 -1621 -975 0
-974 1621 0
-974 856 975 976 0
975 -858 -855 0
-975 858 0
-975 855 0
976 -729 -730 -855 0
-976 729 0
-976 730 0
-976 855 0
-977 1617 862 978 0
-977 862 852 978 0
-977 1617 852 978 0
977 -1617 -862 0
977 -862 -852 0
977 -978 0
977 -1617 -852 0
978 -864 -735 -860 0
-978 864 0
-978 735 0
-978 860 0
-979 740 980 0
-979 980 981 0
979 -980 0
979 -740 -981 0
-980 867 851 0
-980 1616 867 0
-980 1616 851 0
980 -1616 -867 0
980 -867 -851 0
980 -1616 -851 0
981 -869 -865 0
-981 869 0
-981 865 0
-982 746 983 0
-982 983 985 0
982 -983 0
982 -746 -985 0
-983 984 870 0
-983 872 984 0
983 -984 0
983 -872 -870 0
984 -1615 -850 0
-984 1615 0
-984 850 0
985 -874 -870 0
-985 874 0
-985 870 0
-986 752 987 0
-986 987 988 0
986 -987 0
986 -752 -988 0
-987 877 849 0
-987 1614 877 0
-987 1614 849 0
987 -1614 -877 0
987 -877 -849 0
987 -1614 -849 0
988 -879 -875 0
-988 879 0
-988 875 0
-989 758 990 0
-989 990 992 0
989 -990 0
989 -758 -992 0
-990 991 880 0
-990 882 991 0
990 -991 0
990 -882 -880 0
991 -1613 -848 0
-991 1613 0
-991 848 0
992 -884 -880 0
-992 884 0
-992 880 0
-993 764 994 0
-993 994 995 0
993 -994 0
993 -764 -995 0
-994 887 847 0
-994 1612 887 0
-994 1612 847 0
994 -1612 -887 0
994 -887 -847 0
994 -1612 -847 0
995 -889 -885 0
-995 889 0
-995 885 0
-996 766 997 0
-996 997 999 0
996 -997 0
996 -766 -999 0
-997 998 890 0
-997 892 998 0
997 -998 0
997 -892 -890 0
998 -1611 -846 0
-998 1611 0
-998 846 0
999 -894 -890 0
-999 894 0
-999 890 0
-1000 769 1001 0
-1000 1001 1002 0
1000 -1001 0
1000 -769 -1002 0
-1001 897 845 0
-1001 1610 897 0
-1001 1610 845 0
1001 -1610 -897 0
1001 -897 -845 0
1001 -1610 -845 0
1002 -899 -895 0
-1002 899 0
-1002 895 0
-1003 714 1004 0
-1003 1004 1005 0
1003 -1004 0
1003 -714 -1005 0
-1004 902 844 0
-1004 1609 902 0
-1004 1609 844 0
1004 -1609 -902 0
1004 -902 -844 0
1004 -1609 -844 0
1005 -773 -900 0
-1005 773 0
-1005 900 0
1006 -1007 1060 0
1006 1007 -1060 0
-1006 1007 1060 0
-1006 -1007 -1060 0
1007 -1008 1057 0
1007 1008 -1057 0
-1007 1008 1057 0
-1007 -1008 -1057 0
1008 -1009 1054 0
1008 1009 -1054 0
-1008 1009 1054 0
-1008 -1009 -1054 0
1009 -1010 1051 0
1009 1010 -1051 0
-1009 1010 1051 0
-1009 -1010 -1051 0
1010 -1011 1048 0
1010 1011 -1048 0
-1010 1011 1048 0
-1010 -1011 -1048 0
1011 -1012 1045 0
1011 1012 -1045 0
-1011 1012 1045 0
-1011 -1012 -1045 0
1012 1013 -1032 0
1012 -1013 1032 0
-1012 -1013 -1032 0
-1012 1013 1032 0
1013 -1014 1029 0
1013 1014 -1029 0
-1013 1014 1029 0
-1013 -1014 -1029 0
1014 1015 -1024 0
1014 -1015 1024 0
-1014 -1015 -1024 0
-1014 1015 1024 0
1015 -1016 1021 0
1015 1016 -1021 0
-1015 1016 1021 0
-1015 -1016 -1021 0
1016 1017 -1020 0
1016 -1017 1020 0
-1016 -1017 -1020 0
-1016 1017 1020 0
1017 1018 -1019 0
1017 -1018 1019 0
-1017 -1018 -1019 0
-1017 1018 1019 0
1018 -1610 -1630 0
-1018 1610 0
-1018 1630 0
1019 -1611 -1629 0
-1019 1611 0
-1019 1629 0
1020 -1612 -1628 0
-1020 1612 0
-1020 1628 0
-1021 1022 1023 0
1021 -1022 0
1021 -1023 0
1022 -1609 -1610 -1629 -1630 0
-1022 1630 0
-1022 1609 0
-1022 1629 0
-1022 1610 0
1023 -1611 -1628 -915 0
-1023 1611 0
-1023 1628 0
-1023 915 0
1024 1025 -1028 0
1024 -1025 1028 0
-1024 -1025 -1028 0
-1024 1025 1028 0
1025 1026 -1027 0
1025 -1026 1027 0
-1025 -1026 -1027 0
-1025 1026 1027 0
1026 -1613 -1627 0
-1026 1613 0
-1026 1627 0
1027 -1614 -1626 0
-1027 1614 0
-1027 1626 0
1028 -1615 -1625 0
-1028 1615 0
-1028 1625 0
-1029 1030 1031 0
1029 -1030 0
1029 -1031 0
1030 -914 -919 0
-1030 914 0
-1030 919 0
1031 -913 -922 0
-1031 913 0
-1031 922 0
1032 -1033 1042 0
1032 1033 -1042 0
-1032 1033 1042 0
-1032 -1033 -1042 0
1033 1034 -1037 0
1033 -1034 1037 0
-1033 -1034 -1037 0
-1033 1034 1037 0
-1034 1035 1036 0
1034 -1035 0
1034 -1036 0
1035 -1612 -1613 -1626 -1627 0
-1035 1627 0
-1035 1612 0
-1035 1626 0
-1035 1613 0
1036 -1614 -1625 -923 0
-1036 1614 0
-1036 1625 0
-1036 923 0
1037 1038 -1041 0
1037 -1038 1041 0
-1037 -1038 -1041 0
-1037 1038 1041 0
1038 1039 -1040 0
1038 -1039 1040 0
-1038 -1039 -1040 0
-1038 1039 1040 0
1039 -1616 -1624 0
-1039 1616 0
-1039 1624 0
1040 -1617 -1623 0
-1040 1617 0
-1040 1623 0
1041 -1618 -1622 0
-1041 1618 0
-1041 1622 0
-1042 1043 1044 0
1042 -1043 0
1042 -1044 0
1043 -1615 -1616 -1623 -1624 0
-1043 1624 0
-1043 1615 0
-1043 1623 0
-1043 1616 0
1044 -1617 -1622 -936 0
-1044 1617 0
-1044 1622 0
-1044 936 0
-1045 1046 1047 0
1045 -1046 0
1045 -1047 0
1046 -912 -927 0
-1046 912 0
-1046 927 0
1047 -911 -930 0
-1047 911 0
-1047 930 0
-1048 1049 1050 0
1048 -1049 0
1048 -1050 0
1049 -932 -935 0
-1049 932 0
-1049 935 0
1050 -931 -940 0
-1050 931 0
-1050 940 0
-1051 1052 1053 0
1051 -1052 0
1051 -1053 0
1052 -910 -943 0
-1052 910 0
-1052 943 0
1053 -909 -946 0
-1053 909 0
-1053 946 0
-1054 1055 1056 0
1054 -1055 0
1054 -1056 0
1055 -1618 -1621 -949 0
-1055 1618 0
-1055 1621 0
-1055 949 0
1056 -947 -948 0
-1056 947 0
-1056 948 0
-1057 1058 1059 0
1057 -1058 0
1057 -1059 0
1058 -908 -953 0
-1058 908 0
-1058 953 0
1059 -907 -956 0
-1059 907 0
-1059 956 0
-1060 836 1061 0
-1060 1061 1063 0
1060 -1061 0
1060 -836 -1063 0
-1061 1062 905 0
-1061 963 1062 0
1061 -1062 0
1061 -963 -905 0
1062 -906 -959 0
-1062 906 0
-1062 959 0
1063 -775 -905 0
-1063 775 0
-1063 905 0
-1064 -1065 -1117 1168 0
-1064 1065 1117 1168 0
1064 -1168 0
1064 -1065 1117 0
1064 1065 -1117 0
-1065 1630 1066 0
-1065 -1630 1112 1113 0
-1065 -1630 -1112 -1113 0
1065 1630 -1066 0
1065 -1630 1112 -1113 0
1065 -1630 -1112 1113 0
-1066 1629 1067 0
-1066 -1629 1107 1108 0
-1066 -1629 -1107 -1108 0
1066 1629 -1067 0
1066 -1629 1107 -1108 0
1066 -1629 -1107 1108 0
-1067 1628 1068 0
-1067 -1628 1102 1103 0
-1067 -1628 -1102 -1103 0
1067 1628 -1068 0
1067 -1628 1102 -1103 0
1067 -1628 -1102 1103 0
-1068 1627 1069 0
-1068 -1627 1097 1098 0
-1068 -1627 -1097 -1098 0
1068 1627 -1069 0
1068 -1627 1097 -1098 0
1068 -1627 -1097 1098 0
-1069 1626 1070 0
-1069 -1626 1092 1093 0
-1069 -1626 -1092 -1093 0
1069 1626 -1070 0
1069 -1626 1092 -1093 0
1069 -1626 -1092 1093 0
-1070 1625 1071 0
-1070 -1625 1087 1088 0
-1070 -1625 -1087 -1088 0
1070 1625 -1071 0
1070 -1625 1087 -1088 0
1070 -1625 -1087 1088 0
-1071 1624 1072 0
-1071 -1624 1082 1083 0
-1071 -1624 -1082 -1083 0
1071 1624 -1072 0
1071 -1624 1082 -1083 0
1071 -1624 -1082 1083 0
-1072 1623 1073 0
-1072 -1623 1077 1078 0
-1072 -1623 -1077 -1078 0
1072 1623 -1073 0
1072 -1623 1077 -1078 0
1072 -1623 -1077 1078 0
1073 -1622 -1074 0
1073 -1622 -1075 0
-1073 1622 0
-1073 1074 1075 0
1074 -1618 -974 0
-1074 1618 0
-1074 974 0
1075 -1076 -977 0
-1075 1076 0
-1075 977 0
1076 1618 -974 0
1076 -1618 974 0
-1076 -1618 -974 0
-1076 1618 974 0
1077 1618 -1073 0
1077 -1618 1073 0
-1077 -1618 -1073 0
-1077 1618 1073 0
-1078 1079 1080 0
1078 -1079 0
1078 -1080 0
1079 -1617 -973 0
-1079 1617 0
-1079 973 0
1080 -1081 -979 0
-1080 1081 0
-1080 979 0
1081 -1617 973 0
1081 1617 -973 0
-1081 1617 973 0
-1081 -1617 -973 0
1082 -1617 1072 0
1082 1617 -1072 0
-1082 1617 1072 0
-1082 -1617 -1072 0
-1083 1084 1085 0
1083 -1084 0
1083 -1085 0
1084 -1616 -972 0
-1084 1616 0
-1084 972 0
1085 -1086 -982 0
-1085 1086 0
-1085 982 0
1086 -1616 972 0
1086 1616 -972 0
-1086 1616 972 0
-1086 -1616 -972 0
1087 -1616 1071 0
1087 1616 -1071 0
-1087 1616 1071 0
-1087 -1616 -1071 0
-1088 1089 1090 0
1088 -1089 0
1088 -1090 0
1089 -1615 -971 0
-1089 1615 0
-1089 971 0
1090 -1091 -986 0
-1090 1091 0
-1090 986 0
1091 -1615 971 0
1091 1615 -971 0
-1091 1615 971 0
-1091 -1615 -971 0
1092 -1615 1070 0
1092 1615 -1070 0
-1092 1615 1070 0
-1092 -1615 -1070 0
-1093 1094 1095 0
1093 -1094 0
1093 -1095 0
1094 -1614 -970 0
-1094 1614 0
-1094 970 0
1095 -1096 -989 0
-1095 1096 0
-1095 989 0
1096 -1614 970 0
1096 1614 -970 0
-1096 1614 970 0
-1096 -1614 -970 0
1097 -1614 1069 0
1097 1614 -1069 0
-1097 1614 1069 0
-1097 -1614 -1069 0
-1098 1099 1100 0
1098 -1099 0
1098 -1100 0
1099 -1613 -969 0
-1099 1613 0
-1099 969 0
1100 -1101 -993 0
-1100 1101 0
-1100 993 0
1101 -1613 969 0
1101 1613 -969 0
-1101 1613 969 0
-1101 -1613 -969 0
1102 -1613 1068 0
1102 1613 -1068 0
-1102 1613 1068 0
-1102 -1613 -1068 0
-1103 1104 1105 0
1103 -1104 0
1103 -1105 0
1104 -1612 -968 0
-1104 1612 0
-1104 968 0
1105 -1106 -996 0
-1105 1106 0
-1105 996 0
1106 -1612 968 0
1106 1612 -968 0
-1106 1612 968 0
-1106 -1612 -968 0
1107 -1612 1067 0
1107 1612 -1067 0
-1107 1612 1067 0
-1107 -1612 -1067 0
-1108 1109 1110 0
1108 -1109 0
1108 -1110 0
1109 -1611 -967 0
-1109 1611 0
-1109 967 0
1110 -1111 -1000 0
-1110 1111 0
-1110 1000 0
1111 -1611 967 0
1111 1611 -967 0
-1111 1611 967 0
-1111 -1611 -967 0
1112 -1611 1066 0
1112 1611 -1066 0
-1112 1611 1066 0
-1112 -1611 -1066 0
-1113 1114 1115 0
1113 -1114 0
1113 -1115 0
1114 -1610 -966 0
-1114 1610 0
-1114 966 0
1115 -1116 -1003 0
-1115 1116 0
-1115 1003 0
1116 -1610 966 0
1116 1610 -966 0
-1116 1610 966 0
-1116 -1610 -966 0
1117 -1118 1165 0
1117 1118 -1165 0
-1117 1118 1165 0
-1117 -1118 -1165 0
1118 -1119 1162 0
1118 1119 -1162 0
-1118 1119 1162 0
-1118 -1119 -1162 0
1119 -1120 1159 0
1119 1120 -1159 0
-1119 1120 1159 0
-1119 -1120 -1159 0
1120 -1121 1156 0
1120 1121 -1156 0
-1120 1121 1156 0
-1120 -1121 -1156 0
1121 -1122 1153 0
1121 1122 -1153 0
-1121 1122 1153 0
-1121 -1122 -1153 0
1122 1123 -1142 0
1122 -1123 1142 0
-1122 -1123 -1142 0
-1122 1123 1142 0
1123 -1124 1139 0
1123 1124 -1139 0
-1123 1124 1139 0
-1123 -1124 -1139 0
1124 1125 -1134 0
1124 -1125 1134 0
-1124 -1125 -1134 0
-1124 1125 1134 0
1125 -1126 1131 0
1125 1126 -1131 0
-1125 1126 1131 0
-1125 -1126 -1131 0
1126 1127 -1130 0
1126 -1127 1130 0
-1126 -1127 -1130 0
-1126 1127 1130 0
1127 1128 -1129 0
1127 -1128 1129 0
-1127 -1128 -1129 0
-1127 1128 1129 0
1128 -1611 -1630 0
-1128 1611 0
-1128 1630 0
1129 -1612 -1629 0
-1129 1612 0
-1129 1629 0
1130 -1613 -1628 0
-1130 1613 0
-1130 1628 0
-1131 1132 1133 0
1131 -1132 0
1131 -1133 0
1132 -1610 -1611 -1629 -1630 0
-1132 1630 0
-1132 1610 0
-1132 1629 0
-1132 1611 0
1133 -1612 -1628 -1017 0
-1133 1612 0
-1133 1628 0
-1133 1017 0
1134 1135 -1138 0
1134 -1135 1138 0
-1134 -1135 -1138 0
-1134 1135 1138 0
1135 1136 -1137 0
1135 -1136 1137 0
-1135 -1136 -1137 0
-1135 1136 1137 0
1136 -1614 -1627 0
-1136 1614 0
-1136 1627 0
1137 -1615 -1626 0
-1137 1615 0
-1137 1626 0
1138 -1616 -1625 0
-1138 1616 0
-1138 1625 0
-1139 1140 1141 0
1139 -1140 0
1139 -1141 0
1140 -1016 -1021 0
-1140 1016 0
-1140 1021 0
1141 -1015 -1024 0
-1141 1015 0
-1141 1024 0
1142 -1143 1150 0
1142 1143 -1150 0
-1142 1143 1150 0
-1142 -1143 -1150 0
1143 1144 -1147 0
1143 -1144 1147 0
-1143 -1144 -1147 0
-1143 1144 1147 0
-1144 1145 1146 0
1144 -1145 0
1144 -1146 0
1145 -1613 -1614 -1626 -1627 0
-1145 1627 0
-1145 1613 0
-1145 1626 0
-1145 1614 0
1146 -1615 -1625 -1025 0
-1146 1615 0
-1146 1625 0
-1146 1025 0
1147 1148 -1149 0
1147 -1148 1149 0
-1147 -1148 -1149 0
-1147 1148 1149 0
1148 -1617 -1624 0
-1148 1617 0
-1148 1624 0
1149 -1618 -1623 0
-1149 1618 0
-1149 1623 0
-1150 1151 1152 0
1150 -1151 0
1150 -1152 0
1151 -1616 -1617 -1623 -1624 0
-1151 1624 0
-1151 1616 0
-1151 1623 0
-1151 1617 0
1152 -1618 -1622 -1038 0
-1152 1618 0
-1152 1622 0
-1152 1038 0
-1153 1154 1155 0
1153 -1154 0
1153 -1155 0
1154 -1014 -1029 0
-1154 1014 0
-1154 1029 0
1155 -1013 -1032 0
-1155 1013 0
-1155 1032 0
-1156 1157 1158 0
1156 -1157 0
1156 -1158 0
1157 -1034 -1037 0
-1157 1034 0
-1157 1037 0
1158 -1033 -1042 0
-1158 1033 0
-1158 1042 0
-1159 1160 1161 0
1159 -1160 0
1159 -1161 0
1160 -1012 -1045 0
-1160 1012 0
-1160 1045 0
1161 -1011 -1048 0
-1161 1011 0
-1161 1048 0
-1162 1163 1164 0
1162 -1163 0
1162 -1164 0
1163 -1010 -1051 0
-1163 1010 0
-1163 1051 0
1164 -1009 -1054 0
-1164 1009 0
-1164 1054 0
-1165 1166 1167 0
1165 -1166 0
1165 -1167 0
1166 -1008 -1057 0
-1166 1008 0
-1166 1057 0
1167 -1007 -1060 0
-1167 1007 0
-1167 1060 0
-1168 1169 1225 1274 1311 0
-1168 -1169 -1225 -1274 -1311 0
-1168 1169 1225 -1274 -1311 0
-1168 -1169 -1225 1274 1311 0
1168 1169 -1225 0
1168 -1169 1225 0
1168 -1274 1311 0
1168 1274 -1311 0
-1169 1630 1170 0
-1169 -1612 1170 -1220 0
-1169 1612 1170 1220 0
-1169 -1612 -1630 -1170 1220 0
-1169 1612 -1630 -1170 -1220 0
1169 1630 -1170 0
1169 1612 -1630 1170 -1220 0
1169 1612 -1170 1220 0
1169 -1612 -1170 -1220 0
1169 -1612 -1630 1170 1220 0
-1170 1629 1171 0
-1170 -1613 1171 -1215 0
-1170 1613 1171 1215 0
-1170 -1613 -1629 -1171 1215 0
-1170 1613 -1629 -1171 -1215 0
1170 1629 -1171 0
1170 1613 -1629 1171 -1215 0
1170 1613 -1171 1215 0
1170 -1613 -1171 -1215 0
1170 -1613 -1629 1171 1215 0
-1171 1628 1172 0
-1171 -1614 1172 -1210 0
-1171 1614 1172 1210 0
-1171 -1614 -1628 -1172 1210 0
-1171 1614 -1628 -1172 -1210 0
1171 1628 -1172 0
1171 1614 -1628 1172 -1210 0
1171 1614 -1172 1210 0
1171 -1614 -1172 -1210 0
1171 -1614 -1628 1172 1210 0
-1172 1627 1173 0
-1172 -1615 1173 -1205 0
-1172 1615 1173 1205 0
-1172 -1615 -1627 -1173 1205 0
-1172 1615 -1627 -1173 -1205 0
1172 1627 -1173 0
1172 1615 -1627 1173 -1205 0
1172 1615 -1173 1205 0
1172 -1615 -1173 -1205 0
1172 -1615 -1627 1173 1205 0
-1173 1626 1174 0
-1173 -1616 1174 -1198 0
-1173 1616 1174 1198 0
-1173 -1616 -1626 -1174 1198 0
-1173 1616 -1626 -1174 -1198 0
1173 1626 -1174 0
1173 1616 -1626 1174 -1198 0
1173 1616 -1174 1198 0
1173 -1616 -1174 -1198 0
1173 -1616 -1626 1174 1198 0
-1174 1625 1175 0
-1174 -1617 1175 -1191 0
-1174 1617 1175 1191 0
-1174 -1617 -1625 -1175 1191 0
-1174 1617 -1625 -1175 -1191 0
1174 1625 -1175 0
1174 1617 -1625 1175 -1191 0
1174 1617 -1175 1191 0
1174 -1617 -1175 -1191 0
1174 -1617 -1625 1175 1191 0
-1175 1624 1176 0
-1175 1618 -1624 -1176 -1184 0
-1175 1618 1176 1184 0
-1175 -1618 1176 -1184 0
-1175 -1618 -1624 -1176 1184 0
1175 1624 -1176 0
1175 -1618 -1176 -1184 0
1175 1618 -1176 1184 0
1175 -1618 -1624 1176 1184 0
1175 1618 -1624 1176 -1184 0
1176 -1623 -1177 0
1176 -1623 -339 -1183 0
-1176 1623 0
-1176 339 1177 0
-1176 1177 1183 0
-1177 741 1178 0
-1177 1178 1182 0
1177 -1178 0
1177 -741 -1182 0
-1178 980 1179 1180 0
-1178 1179 1180 1181 0
1178 -1180 0
1178 -1179 0
1178 -980 -1181 0
1179 -1618 -1073 0
-1179 1618 0
-1179 1073 0
1180 -1079 -1077 0
-1180 1079 0
-1180 1077 0
1181 -1081 -1077 0
-1181 1081 0
-1181 1077 0
1182 -981 -1181 0
-1182 981 0
-1182 1181 0
1183 -745 -1182 0
-1183 745 0
-1183 1182 0
-1184 751 1187 0
-1184 1185 1187 0
-1184 341 1187 0
1184 -1187 0
1184 -341 -751 -1185 0
1185 -985 -1186 0
-1185 985 0
-1185 1186 0
1186 -1086 -1082 0
-1186 1086 0
-1186 1082 0
-1187 747 1188 1190 0
-1187 1188 1190 1185 0
1187 -1188 0
1187 -1190 0
1187 -747 -1185 0
-1188 1189 1082 0
-1188 1084 1189 0
1188 -1189 0
1188 -1084 -1082 0
1189 -1617 -1072 0
-1189 1617 0
-1189 1072 0
1190 -983 -1186 0
-1190 983 0
-1190 1186 0
-1191 757 1194 0
-1191 1192 1194 0
-1191 344 1194 0
1191 -1194 0
1191 -344 -757 -1192 0
1192 -988 -1193 0
-1192 988 0
-1192 1193 0
1193 -1091 -1087 0
-1193 1091 0
-1193 1087 0
-1194 753 1195 1197 0
-1194 1195 1197 1192 0
1194 -1195 0
1194 -1197 0
1194 -753 -1192 0
-1195 1196 1087 0
-1195 1089 1196 0
1195 -1196 0
1195 -1089 -1087 0
1196 -1616 -1071 0
-1196 1616 0
-1196 1071 0
1197 -987 -1193 0
-1197 987 0
-1197 1193 0
-1198 763 1201 0
-1198 315 1201 0
-1198 1199 1201 0
1198 -1201 0
1198 -315 -763 -1199 0
1199 -992 -1200 0
-1199 992 0
-1199 1200 0
1200 -1096 -1092 0
-1200 1096 0
-1200 1092 0
-1201 759 1202 0
-1201 1202 1199 0
1201 -1202 0
1201 -759 -1199 0
-1202 990 1203 1204 0
-1202 1203 1204 1200 0
1202 -1204 0
1202 -1203 0
1202 -990 -1200 0
1203 -1615 -1070 0
-1203 1615 0
-1203 1070 0
1204 -1094 -1092 0
-1204 1094 0
-1204 1092 0
-1205 995 1207 0
-1205 1206 1207 0
-1205 764 1207 0
1205 -1207 0
1205 -764 -995 -1206 0
1206 -1101 -1097 0
-1206 1101 0
-1206 1097 0
-1207 1099 1208 1209 0
-1207 1208 1097 1209 0
1207 -1209 0
1207 -1208 0
1207 -1099 -1097 0
1208 -1614 -1069 0
-1208 1614 0
-1208 1069 0
1209 -994 -1206 0
-1209 994 0
-1209 1206 0
-1210 999 1212 0
-1210 1211 1212 0
-1210 766 1212 0
1210 -1212 0
1210 -766 -999 -1211 0
1211 -1106 -1102 0
-1211 1106 0
-1211 1102 0
-1212 997 1213 1214 0
-1212 1213 1214 1211 0
1212 -1214 0
1212 -1213 0
1212 -997 -1211 0
1213 -1613 -1068 0
-1213 1613 0
-1213 1068 0
1214 -1104 -1102 0
-1214 1104 0
-1214 1102 0
-1215 1002 1217 0
-1215 1216 1217 0
-1215 769 1217 0
1215 -1217 0
1215 -769 -1002 -1216 0
1216 -1111 -1107 0
-1216 1111 0
-1216 1107 0
-1217 1109 1218 1219 0
-1217 1218 1107 1219 0
1217 -1219 0
1217 -1218 0
1217 -1109 -1107 0
1218 -1612 -1067 0
-1218 1612 0
-1218 1067 0
1219 -1001 -1216 0
-1219 1001 0
-1219 1216 0
-1220 1005 1222 0
-1220 714 1222 0
-1220 1221 1222 0
1220 -1222 0
1220 -714 -1005 -1221 0
1221 -1116 -1112 0
-1221 1116 0
-1221 1112 0
-1222 1114 1223 1224 0
-1222 1223 1112 1224 0
1222 -1224 0
1222 -1223 0
1222 -1114 -1112 0
1223 -1611 -1066 0
-1223 1611 0
-1223 1066 0
1224 -1004 -1221 0
-1224 1004 0
-1224 1221 0
1225 -1226 1267 0
1225 1226 -1267 0
-1225 1226 1267 0
-1225 -1226 -1267 0
1226 1227 -1228 0
1226 -1227 1228 0
-1226 -1227 -1228 0
-1226 1227 1228 0
1227 -1120 -1159 0
-1227 1120 0
-1227 1159 0
1228 -1229 1264 0
1228 1229 -1264 0
-1228 1229 1264 0
-1228 -1229 -1264 0
1229 -1230 1261 0
1229 1230 -1261 0
-1229 1230 1261 0
-1229 -1230 -1261 0
1230 -1231 1258 0
1230 1231 -1258 0
-1230 1231 1258 0
-1230 -1231 -1258 0
1231 1232 -1251 0
1231 -1232 1251 0
-1231 -1232 -1251 0
-1231 1232 1251 0
1232 -1233 1248 0
1232 1233 -1248 0
-1232 1233 1248 0
-1232 -1233 -1248 0
1233 1234 -1243 0
1233 -1234 1243 0
-1233 -1234 -1243 0
-1233 1234 1243 0
1234 -1235 1240 0
1234 1235 -1240 0
-1234 1235 1240 0
-1234 -1235 -1240 0
1235 1236 -1239 0
1235 -1236 1239 0
-1235 -1236 -1239 0
-1235 1236 1239 0
1236 1237 -1238 0
1236 -1237 1238 0
-1236 -1237 -1238 0
-1236 1237 1238 0
1237 -1612 -1630 0
-1237 1612 0
-1237 1630 0
1238 -1613 -1629 0
-1238 1613 0
-1238 1629 0
1239 -1614 -1628 0
-1239 1614 0
-1239 1628 0
-1240 1241 1242 0
1240 -1241 0
1240 -1242 0
1241 -1611 -1612 -1629 -1630 0
-1241 1630 0
-1241 1611 0
-1241 1629 0
-1241 1612 0
1242 -1613 -1628 -1127 0
-1242 1613 0
-1242 1628 0
-1242 1127 0
1243 1244 -1247 0
1243 -1244 1247 0
-1243 -1244 -1247 0
-1243 1244 1247 0
1244 1245 -1246 0
1244 -1245 1246 0
-1244 -1245 -1246 0
-1244 1245 1246 0
1245 -1615 -1627 0
-1245 1615 0
-1245 1627 0
1246 -1616 -1626 0
-1246 1616 0
-1246 1626 0
1247 -1617 -1625 0
-1247 1617 0
-1247 1625 0
-1248 1249 1250 0
1248 -1249 0
1248 -1250 0
1249 -1126 -1131 0
-1249 1126 0
-1249 1131 0
1250 -1125 -1134 0
-1250 1125 0
-1250 1134 0
1251 1252 -1253 0
1251 -1252 1253 0
-1251 -1252 -1253 0
-1251 1252 1253 0
1252 -1617 -1618 -1623 -1624 0
-1252 1624 0
-1252 1617 0
-1252 1623 0
-1252 1618 0
1253 1254 -1257 0
1253 -1254 1257 0
-1253 -1254 -1257 0
-1253 1254 1257 0
-1254 1255 1256 0
1254 -1255 0
1254 -1256 0
1255 -1614 -1615 -1626 -1627 0
-1255 1627 0
-1255 1614 0
-1255 1626 0
-1255 1615 0
1256 -1616 -1625 -1135 0
-1256 1616 0
-1256 1625 0
-1256 1135 0
1257 -1618 -1624 0
-1257 1618 0
-1257 1624 0
-1258 1259 1260 0
1258 -1259 0
1258 -1260 0
1259 -1124 -1139 0
-1259 1124 0
-1259 1139 0
1260 -1123 -1142 0
-1260 1123 0
-1260 1142 0
-1261 1262 1263 0
1261 -1262 0
1261 -1263 0
1262 -1144 -1147 0
-1262 1144 0
-1262 1147 0
1263 -1143 -1150 0
-1263 1143 0
-1263 1150 0
-1264 1265 1266 0
1264 -1265 0
1264 -1266 0
1265 -1122 -1153 0
-1265 1122 0
-1265 1153 0
1266 -1121 -1156 0
-1266 1121 0
-1266 1156 0
-1267 841 1270 0
-1267 1268 1270 0
-1267 392 1270 0
1267 -1270 0
1267 -392 -841 -1268 0
1268 -1063 -1269 0
-1268 1063 0
-1268 1269 0
1269 -1007 -1118 0
-1269 1007 0
-1269 1118 0
-1270 837 1271 1273 0
-1270 1271 1273 1268 0
1270 -1271 0
1270 -1273 0
1270 -837 -1268 0
-1271 1272 1118 0
-1271 1166 1272 0
1271 -1272 0
1271 -1166 -1118 0
1272 -1119 -1162 0
-1272 1119 0
-1272 1162 0
1273 -1061 -1269 0
-1273 1061 0
-1273 1269 0
-1274 1630 1275 0
-1274 -1630 1306 1307 0
-1274 -1630 -1306 -1307 0
1274 1630 -1275 0
1274 -1630 1306 -1307 0
1274 -1630 -1306 1307 0
-1275 1629 1276 0
-1275 -1629 1301 1302 0
-1275 -1629 -1301 -1302 0
1275 1629 -1276 0
1275 -1629 1301 -1302 0
1275 -1629 -1301 1302 0
-1276 1628 1277 0
-1276 -1628 1296 1297 0
-1276 -1628 -1296 -1297 0
1276 1628 -1277 0
1276 -1628 1296 -1297 0
1276 -1628 -1296 1297 0
-1277 1627 1278 0
-1277 -1616 1278 -1292 0
-1277 1616 1278 1292 0
-1277 -1616 -1627 -1278 1292 0
-1277 1616 -1627 -1278 -1292 0
1277 1627 -1278 0
1277 1616 -1627 1278 -1292 0
1277 1616 -1278 1292 0
1277 -1616 -1278 -1292 0
1277 -1616 -1627 1278 1292 0
-1278 1626 1279 0
-1278 -1617 1279 -1288 0
-1278 1617 1279 1288 0
-1278 -1617 -1626 -1279 1288 0
-1278 1617 -1626 -1279 -1288 0
1278 1626 -1279 0
1278 1617 -1626 1279 -1288 0
1278 1617 -1279 1288 0
1278 -1617 -1279 -1288 0
1278 -1617 -1626 1279 1288 0
-1279 1625 1280 0
-1279 1618 -1625 -1280 -1284 0
-1279 1618 1280 1284 0
-1279 -1618 1280 -1284 0
-1279 -1618 -1625 -1280 1284 0
1279 1625 -1280 0
1279 -1618 -1280 -1284 0
1279 1618 -1280 1284 0
1279 -1618 -1625 1280 1284 0
1279 1618 -1625 1280 -1284 0
1280 -1624 -1281 0
1280 -1624 -1282 0
-1280 1624 0
-1280 1281 1282 0
1281 -1618 -1176 0
-1281 1618 0
-1281 1176 0
1282 -1283 -1184 0
-1282 1283 0
-1282 1184 0
1283 1618 -1176 0
1283 -1618 1176 0
-1283 -1618 -1176 0
-1283 1618 1176 0
-1284 1285 1286 0
1284 -1285 0
1284 -1286 0
1285 -1617 -1175 0
-1285 1617 0
-1285 1175 0
1286 -1287 -1191 0
-1286 1287 0
-1286 1191 0
1287 -1617 1175 0
1287 1617 -1175 0
-1287 1617 1175 0
-1287 -1617 -1175 0
-1288 1289 1290 0
1288 -1289 0
1288 -1290 0
1289 -1616 -1174 0
-1289 1616 0
-1289 1174 0
1290 -1291 -1198 0
-1290 1291 0
-1290 1198 0
1291 -1616 1174 0
1291 1616 -1174 0
-1291 1616 1174 0
-1291 -1616 -1174 0
-1292 1293 1294 0
1292 -1293 0
1292 -1294 0
1293 -1615 -1173 0
-1293 1615 0
-1293 1173 0
1294 -1295 -1205 0
-1294 1295 0
-1294 1205 0
1295 -1615 1173 0
1295 1615 -1173 0
-1295 1615 1173 0
-1295 -1615 -1173 0
1296 -1615 1277 0
1296 1615 -1277 0
-1296 1615 1277 0
-1296 -1615 -1277 0
-1297 1298 1299 0
1297 -1298 0
1297 -1299 0
1298 -1614 -1172 0
-1298 1614 0
-1298 1172 0
1299 -1300 -1210 0
-1299 1300 0
-1299 1210 0
1300 -1614 1172 0
1300 1614 -1172 0
-1300 1614 1172 0
-1300 -1614 -1172 0
1301 -1614 1276 0
1301 1614 -1276 0
-1301 1614 1276 0
-1301 -1614 -1276 0
-1302 1303 1304 0
1302 -1303 0
1302 -1304 0
1303 -1613 -1171 0
-1303 1613 0
-1303 1171 0
1304 -1305 -1215 0
-1304 1305 0
-1304 1215 0
1305 -1613 1171 0
1305 1613 -1171 0
-1305 1613 1171 0
-1305 -1613 -1171 0
1306 -1613 1275 0
1306 1613 -1275 0
-1306 1613 1275 0
-1306 -1613 -1275 0
-1307 1308 1309 0
1307 -1308 0
1307 -1309 0
1308 -1612 -1170 0
-1308 1612 0
-1308 1170 0
1309 -1310 -1220 0
-1309 1310 0
-1309 1220 0
1310 -1612 1170 0
1310 1612 -1170 0
-1310 1612 1170 0
-1310 -1612 -1170 0
1311 -1312 1349 0
1311 1312 -1349 0
-1311 1312 1349 0
-1311 -1312 -1349 0
1312 1313 -1314 0
1312 -1313 1314 0
-1312 -1313 -1314 0
-1312 1313 1314 0
1313 -1229 -1264 0
-1313 1229 0
-1313 1264 0
1314 -1315 1346 0
1314 1315 -1346 0
-1314 1315 1346 0
-1314 -1315 -1346 0
1315 -1316 1343 0
1315 1316 -1343 0
-1315 1316 1343 0
-1315 -1316 -1343 0
1316 -1317 1340 0
1316 1317 -1340 0
-1316 1317 1340 0
-1316 -1317 -1340 0
1317 -1318 1337 0
1317 1318 -1337 0
-1317 1318 1337 0
-1317 -1318 -1337 0
1318 -1319 1334 0
1318 1319 -1334 0
-1318 1319 1334 0
-1318 -1319 -1334 0
1319 1320 -1329 0
1319 -1320 1329 0
-1319 -1320 -1329 0
-1319 1320 1329 0
1320 -1321 1326 0
1320 1321 -1326 0
-1320 1321 1326 0
-1320 -1321 -1326 0
1321 1322 -1325 0
1321 -1322 1325 0
-1321 -1322 -1325 0
-1321 1322 1325 0
1322 1323 -1324 0
1322 -1323 1324 0
-1322 -1323 -1324 0
-1322 1323 1324 0
1323 -1613 -1630 0
-1323 1613 0
-1323 1630 0
1324 -1614 -1629 0
-1324 1614 0
-1324 1629 0
1325 -1615 -1628 0
-1325 1615 0
-1325 1628 0
-1326 1327 1328 0
1326 -1327 0
1326 -1328 0
1327 -1612 -1613 -1629 -1630 0
-1327 1630 0
-1327 1612 0
-1327 1629 0
-1327 1613 0
1328 -1614 -1628 -1236 0
-1328 1614 0
-1328 1628 0
-1328 1236 0
1329 1330 -1333 0
1329 -1330 1333 0
-1329 -1330 -1333 0
-1329 1330 1333 0
1330 1331 -1332 0
1330 -1331 1332 0
-1330 -1331 -1332 0
-1330 1331 1332 0
1331 -1616 -1627 0
-1331 1616 0
-1331 1627 0
1332 -1617 -1626 0
-1332 1617 0
-1332 1626 0
1333 -1618 -1625 0
-1333 1618 0
-1333 1625 0
-1334 1335 1336 0
1334 -1335 0
1334 -1336 0
1335 -1235 -1240 0
-1335 1235 0
-1335 1240 0
1336 -1234 -1243 0
-1336 1234 0
-1336 1243 0
-1337 1338 1339 0
1337 -1338 0
1337 -1339 0
1338 -1615 -1616 -1626 -1627 0
-1338 1627 0
-1338 1615 0
-1338 1626 0
-1338 1616 0
1339 -1617 -1625 -1244 0
-1339 1617 0
-1339 1625 0
-1339 1244 0
-1340 1341 1342 0
1340 -1341 0
1340 -1342 0
1341 -1233 -1248 0
-1341 1233 0
-1341 1248 0
1342 -1232 -1251 0
-1342 1232 0
-1342 1251 0
-1343 1344 1345 0
1343 -1344 0
1343 -1345 0
1344 -1618 -1624 -1254 0
-1344 1618 0
-1344 1624 0
-1344 1254 0
1345 -1252 -1253 0
-1345 1252 0
-1345 1253 0
-1346 1347 1348 0
1346 -1347 0
1346 -1348 0
1347 -1231 -1258 0
-1347 1231 0
-1347 1258 0
1348 -1230 -1261 0
-1348 1230 0
-1348 1261 0
-1349 1350 1351 0
1349 -1350 0
1349 -1351 0
1350 -1227 -1228 0
-1350 1227 0
-1350 1228 0
1351 -1226 -1267 0
-1351 1226 0
-1351 1267 0
-1352 -1353 -1387 1423 1532 0
-1352 1353 1387 1423 1532 0
1352 -1532 0
1352 -1353 1387 0
1352 -1423 0
1352 1353 -1387 0
-1353 1630 1354 0
-1353 -1614 1354 -1382 0
-1353 1614 1354 1382 0
-1353 -1614 -1630 -1354 1382 0
-1353 1614 -1630 -1354 -1382 0
1353 1630 -1354 0
1353 1614 -1630 1354 -1382 0
1353 1614 -1354 1382 0
1353 -1614 -1354 -1382 0
1353 -1614 -1630 1354 1382 0
-1354 1629 1355 0
-1354 -1615 1355 -1378 0
-1354 1615 1355 1378 0
-1354 -1615 -1629 -1355 1378 0
-1354 1615 -1629 -1355 -1378 0
1354 1629 -1355 0
1354 1615 -1629 1355 -1378 0
1354 1615 -1355 1378 0
1354 -1615 -1355 -1378 0
1354 -1615 -1629 1355 1378 0
-1355 1628 1356 0
-1355 -1616 1356 -1373 0
-1355 1616 1356 1373 0
-1355 -1616 -1628 -1356 1373 0
-1355 1616 -1628 -1356 -1373 0
1355 1628 -1356 0
1355 1616 -1628 1356 -1373 0
1355 1616 -1356 1373 0
1355 -1616 -1356 -1373 0
1355 -1616 -1628 1356 1373 0
-1356 1627 1357 0
-1356 -1617 1357 -1367 0
-1356 1617 1357 1367 0
-1356 -1617 -1627 -1357 1367 0
-1356 1617 -1627 -1357 -1367 0
1356 1627 -1357 0
1356 1617 -1627 1357 -1367 0
1356 1617 -1357 1367 0
1356 -1617 -1357 -1367 0
1356 -1617 -1627 1357 1367 0
-1357 1626 1358 0
-1357 1618 -1626 -1358 -1363 0
-1357 1618 1358 1363 0
-1357 -1618 1358 -1363 0
-1357 -1618 -1626 -1358 1363 0
1357 1626 -1358 0
1357 -1618 -1358 -1363 0
1357 1618 -1358 1363 0
1357 -1618 -1626 1358 1363 0
1357 1618 -1626 1358 -1363 0
1358 -1625 -1359 0
1358 -1625 -1191 -1362 0
-1358 1625 0
-1358 1191 1359 0
-1358 1359 1362 0
-1359 1360 1361 0
-1359 1285 1360 0
1359 -1360 0
1359 -1285 -1361 0
1360 -1618 -1280 0
-1360 1618 0
-1360 1280 0
1361 1618 -1280 0
1361 -1618 1280 0
-1361 -1618 -1280 0
-1361 1618 1280 0
1362 -1287 -1361 0
-1362 1287 0
-1362 1361 0
-1363 1291 1365 0
-1363 1198 1365 0
-1363 1364 1365 0
1363 -1365 0
1363 -1291 -1198 -1364 0
1364 -1617 1279 0
1364 1617 -1279 0
-1364 1617 1279 0
-1364 -1617 -1279 0
-1365 1366 1364 0
-1365 1289 1366 0
1365 -1366 0
1365 -1289 -1364 0
1366 -1617 -1279 0
-1366 1617 0
-1366 1279 0
-1367 1205 1368 0
-1367 1368 1372 0
1367 -1368 0
1367 -1205 -1372 0
-1368 1369 1370 0
1368 -1369 0
1368 -1370 0
1369 -1616 -1278 0
-1369 1616 0
-1369 1278 0
1370 -1293 -1371 0
-1370 1293 0
-1370 1371 0
1371 -1616 1278 0
1371 1616 -1278 0
-1371 1616 1278 0
-1371 -1616 -1278 0
1372 -1295 -1371 0
-1372 1295 0
-1372 1371 0
-1373 1210 1374 0
-1373 1374 1377 0
1373 -1374 0
1373 -1210 -1377 0
-1374 1375 1376 0
1374 -1375 0
1374 -1376 0
1375 -1615 -1277 0
-1375 1615 0
-1375 1277 0
1376 -1298 -1296 0
-1376 1298 0
-1376 1296 0
1377 -1300 -1296 0
-1377 1300 0
-1377 1296 0
-1378 1215 1379 0
-1378 1379 1381 0
1378 -1379 0
1378 -1215 -1381 0
-1379 1380 1301 0
-1379 1303 1380 0
1379 -1380 0
1379 -1303 -1301 0
1380 -1614 -1276 0
-1380 1614 0
-1380 1276 0
1381 -1305 -1301 0
-1381 1305 0
-1381 1301 0
-1382 1220 1383 0
-1382 1383 1386 0
1382 -1383 0
1382 -1220 -1386 0
-1383 1384 1385 0
1383 -1384 0
1383 -1385 0
1384 -1613 -1275 0
-1384 1613 0
-1384 1275 0
1385 -1308 -1306 0
-1385 1308 0
-1385 1306 0
1386 -1310 -1306 0
-1386 1310 0
-1386 1306 0
1387 -1388 1419 0
1387 1388 -1419 0
-1387 1388 1419 0
-1387 -1388 -1419 0
1388 1389 -1390 0
1388 -1389 1390 0
-1388 -1389 -1390 0
-1388 1389 1390 0
1389 -1315 -1346 0
-1389 1315 0
-1389 1346 0
1390 -1391 1416 0
1390 1391 -1416 0
-1390 1391 1416 0
-1390 -1391 -1416 0
1391 -1392 1413 0
1391 1392 -1413 0
-1391 1392 1413 0
-1391 -1392 -1413 0
1392 -1393 1410 0
1392 1393 -1410 0
-1392 1393 1410 0
-1392 -1393 -1410 0
1393 -1394 1407 0
1393 1394 -1407 0
-1393 1394 1407 0
-1393 -1394 -1407 0
1394 1395 -1404 0
1394 -1395 1404 0
-1394 -1395 -1404 0
-1394 1395 1404 0
1395 -1396 1401 0
1395 1396 -1401 0
-1395 1396 1401 0
-1395 -1396 -1401 0
1396 1397 -1400 0
1396 -1397 1400 0
-1396 -1397 -1400 0
-1396 1397 1400 0
1397 1398 -1399 0
1397 -1398 1399 0
-1397 -1398 -1399 0
-1397 1398 1399 0
1398 -1614 -1630 0
-1398 1614 0
-1398 1630 0
1399 -1615 -1629 0
-1399 1615 0
-1399 1629 0
1400 -1616 -1628 0
-1400 1616 0
-1400 1628 0
-1401 1402 1403 0
1401 -1402 0
1401 -1403 0
1402 -1613 -1614 -1629 -1630 0
-1402 1630 0
-1402 1613 0
-1402 1629 0
-1402 1614 0
1403 -1615 -1628 -1322 0
-1403 1615 0
-1403 1628 0
-1403 1322 0
1404 1405 -1406 0
1404 -1405 1406 0
-1404 -1405 -1406 0
-1404 1405 1406 0
1405 -1617 -1627 0
-1405 1617 0
-1405 1627 0
1406 -1618 -1626 0
-1406 1618 0
-1406 1626 0
-1407 1408 1409 0
1407 -1408 0
1407 -1409 0
1408 -1321 -1326 0
-1408 1321 0
-1408 1326 0
1409 -1320 -1329 0
-1409 1320 0
-1409 1329 0
-1410 1411 1412 0
1410 -1411 0
1410 -1412 0
1411 -1616 -1617 -1626 -1627 0
-1411 1627 0
-1411 1616 0
-1411 1626 0
-1411 1617 0
1412 -1618 -1625 -1330 0
-1412 1618 0
-1412 1625 0
-1412 1330 0
-1413 1414 1415 0
1413 -1414 0
1413 -1415 0
1414 -1319 -1334 0
-1414 1319 0
-1414 1334 0
1415 -1318 -1337 0
-1415 1318 0
-1415 1337 0
-1416 1417 1418 0
1416 -1417 0
1416 -1418 0
1417 -1317 -1340 0
-1417 1317 0
-1417 1340 0
1418 -1316 -1343 0
-1418 1316 0
-1418 1343 0
-1419 1267 1420 0
-1419 1420 1422 0
1419 -1420 0
1419 -1267 -1422 0
-1420 1421 1312 0
-1420 1350 1421 0
1420 -1421 0
1420 -1350 -1312 0
1421 -1313 -1314 0
-1421 1313 0
-1421 1314 0
1422 -1226 -1312 0
-1422 1226 0
-1422 1312 0
-1423 1424 1450 1479 1505 0
-1423 -1424 -1450 -1479 -1505 0
-1423 1424 1450 -1479 -1505 0
-1423 -1424 -1450 1479 1505 0
1423 1424 -1450 0
1423 -1424 1450 0
1423 -1479 1505 0
1423 1479 -1505 0
-1424 1630 1425 0
-1424 -1630 1445 1446 0
-1424 -1630 -1445 -1446 0
1424 1630 -1425 0
1424 -1630 1445 -1446 0
1424 -1630 -1445 1446 0
-1425 1629 1426 0
-1425 -1629 1440 1441 0
-1425 -1629 -1440 -1441 0
1425 1629 -1426 0
1425 -1629 1440 -1441 0
1425 -1629 -1440 1441 0
-1426 1628 1427 0
-1426 -1617 1427 -1436 0
-1426 1617 1427 1436 0
-1426 -1617 -1628 -1427 1436 0
-1426 1617 -1628 -1427 -1436 0
1426 1628 -1427 0
1426 1617 -1628 1427 -1436 0
1426 1617 -1427 1436 0
1426 -1617 -1427 -1436 0
1426 -1617 -1628 1427 1436 0
-1427 1627 1428 0
-1427 1618 -1627 -1428 -1432 0
-1427 1618 1428 1432 0
-1427 -1618 1428 -1432 0
-1427 -1618 -1627 -1428 1432 0
1427 1627 -1428 0
1427 -1618 -1428 -1432 0
1427 1618 -1428 1432 0
1427 -1618 -1627 1428 1432 0
1427 1618 -1627 1428 -1432 0
1428 -1626 -1429 0
1428 -1626 -1430 0
-1428 1626 0
-1428 1429 1430 0
1429 -1618 -1358 0
-1429 1618 0
-1429 1358 0
1430 -1431 -1363 0
-1430 1431 0
-1430 1363 0
1431 1618 -1358 0
1431 -1618 1358 0
-1431 -1618 -1358 0
-1431 1618 1358 0
-1432 1433 1434 0
1432 -1433 0
1432 -1434 0
1433 -1617 -1357 0
-1433 1617 0
-1433 1357 0
1434 -1435 -1367 0
-1434 1435 0
-1434 1367 0
1435 -1617 1357 0
1435 1617 -1357 0
-1435 1617 1357 0
-1435 -1617 -1357 0
-1436 1437 1438 0
1436 -1437 0
1436 -1438 0
1437 -1616 -1356 0
-1437 1616 0
-1437 1356 0
1438 -1439 -1373 0
-1438 1439 0
-1438 1373 0
1439 -1616 1356 0
1439 1616 -1356 0
-1439 1616 1356 0
-1439 -1616 -1356 0
1440 -1616 1426 0
1440 1616 -1426 0
-1440 1616 1426 0
-1440 -1616 -1426 0
-1441 1442 1443 0
1441 -1442 0
1441 -1443 0
1442 -1615 -1355 0
-1442 1615 0
-1442 1355 0
1443 -1444 -1378 0
-1443 1444 0
-1443 1378 0
1444 -1615 1355 0
1444 1615 -1355 0
-1444 1615 1355 0
-1444 -1615 -1355 0
1445 -1615 1425 0
1445 1615 -1425 0
-1445 1615 1425 0
-1445 -1615 -1425 0
-1446 1447 1448 0
1446 -1447 0
1446 -1448 0
1447 -1614 -1354 0
-1447 1614 0
-1447 1354 0
1448 -1449 -1382 0
-1448 1449 0
-1448 1382 0
1449 -1614 1354 0
1449 1614 -1354 0
-1449 1614 1354 0
-1449 -1614 -1354 0
1450 -1451 1476 0
1450 1451 -1476 0
-1450 1451 1476 0
-1450 -1451 -1476 0
1451 1452 -1453 0
1451 -1452 1453 0
-1451 -1452 -1453 0
-1451 1452 1453 0
1452 -1391 -1416 0
-1452 1391 0
-1452 1416 0
1453 1454 -1455 0
1453 -1454 1455 0
-1453 -1454 -1455 0
-1453 1454 1455 0
1454 -1392 -1413 0
-1454 1392 0
-1454 1413 0
1455 -1456 1473 0
1455 1456 -1473 0
-1455 1456 1473 0
-1455 -1456 -1473 0
1456 1457 -1458 0
1456 -1457 1458 0
-1456 -1457 -1458 0
-1456 1457 1458 0
1457 -1617 -1618 -1626 -1627 0
-1457 1627 0
-1457 1617 0
-1457 1626 0
-1457 1618 0
1458 -1459 1470 0
1458 1459 -1470 0
-1458 1459 1470 0
-1458 -1459 -1470 0
1459 1460 -1469 0
1459 -1460 1469 0
-1459 -1460 -1469 0
-1459 1460 1469 0
1460 -1461 1466 0
1460 1461 -1466 0
-1460 1461 1466 0
-1460 -1461 -1466 0
1461 1462 -1465 0
1461 -1462 1465 0
-1461 -1462 -1465 0
-1461 1462 1465 0
1462 1463 -1464 0
1462 -1463 1464 0
-1462 -1463 -1464 0
-1462 1463 1464 0
1463 -1615 -1630 0
-1463 1615 0
-1463 1630 0
1464 -1616 -1629 0
-1464 1616 0
-1464 1629 0
1465 -1617 -1628 0
-1465 1617 0
-1465 1628 0
-1466 1467 1468 0
1466 -1467 0
1466 -1468 0
1467 -1614 -1615 -1629 -1630 0
-1467 1630 0
-1467 1614 0
-1467 1629 0
-1467 1615 0
1468 -1616 -1628 -1397 0
-1468 1616 0
-1468 1628 0
-1468 1397 0
1469 -1618 -1627 0
-1469 1618 0
-1469 1627 0
-1470 1471 1472 0
1470 -1471 0
1470 -1472 0
1471 -1396 -1401 0
-1471 1396 0
-1471 1401 0
1472 -1395 -1404 0
-1472 1395 0
-1472 1404 0
-1473 1474 1475 0
1473 -1474 0
1473 -1475 0
1474 -1394 -1407 0
-1474 1394 0
-1474 1407 0
1475 -1393 -1410 0
-1475 1393 0
-1475 1410 0
-1476 1477 1478 0
1476 -1477 0
1476 -1478 0
1477 -1389 -1390 0
-1477 1389 0
-1477 1390 0
1478 -1388 -1419 0
-1478 1388 0
-1478 1419 0
-1479 1630 1480 0
-1479 -1616 1480 -1500 0
-1479 1616 1480 1500 0
-1479 -1616 -1630 -1480 1500 0
-1479 1616 -1630 -1480 -1500 0
1479 1630 -1480 0
1479 1616 -1630 1480 -1500 0
1479 1616 -1480 1500 0
1479 -1616 -1480 -1500 0
1479 -1616 -1630 1480 1500 0
-1480 1629 1481 0
-1480 -1617 1481 -1495 0
-1480 1617 1481 1495 0
-1480 -1617 -1629 -1481 1495 0
-1480 1617 -1629 -1481 -1495 0
1480 1629 -1481 0
1480 1617 -1629 1481 -1495 0
1480 1617 -1481 1495 0
1480 -1617 -1481 -1495 0
1480 -1617 -1629 1481 1495 0
-1481 1628 1482 0
-1481 1618 -1628 -1482 -1489 0
-1481 1618 1482 1489 0
-1481 -1618 1482 -1489 0
-1481 -1618 -1628 -1482 1489 0
1481 1628 -1482 0
1481 -1618 -1482 -1489 0
1481 1618 -1482 1489 0
1481 -1618 -1628 1482 1489 0
1481 1618 -1628 1482 -1489 0
1482 -1627 -1483 0
1482 -1627 -1205 -1488 0
-1482 1627 0
-1482 1205 1483 0
-1482 1483 1488 0
-1483 1433 1484 1486 0
-1483 1484 1485 1486 0
1483 -1486 0
1483 -1484 0
1483 -1433 -1485 0
1484 -1618 -1428 0
-1484 1618 0
-1484 1428 0
1485 1618 -1428 0
1485 -1618 1428 0
-1485 -1618 -1428 0
-1485 1618 1428 0
1486 -1368 -1487 0
-1486 1368 0
-1486 1487 0
1487 -1435 -1485 0
-1487 1435 0
-1487 1485 0
1488 -1372 -1487 0
-1488 1372 0
-1488 1487 0
-1489 1377 1492 0
-1489 1490 1492 0
-1489 1210 1492 0
1489 -1492 0
1489 -1210 -1377 -1490 0
1490 -1439 -1491 0
-1490 1439 0
-1490 1491 0
1491 -1617 1427 0
1491 1617 -1427 0
-1491 1617 1427 0
-1491 -1617 -1427 0
-1492 1374 1493 1494 0
-1492 1493 1494 1490 0
1492 -1494 0
1492 -1493 0
1492 -1374 -1490 0
1493 -1617 -1427 0
-1493 1617 0
-1493 1427 0
1494 -1437 -1491 0
-1494 1437 0
-1494 1491 0
-1495 1381 1497 0
-1495 1496 1497 0
-1495 1215 1497 0
1495 -1497 0
1495 -1215 -1381 -1496 0
1496 -1444 -1440 0
-1496 1444 0
-1496 1440 0
-1497 1379 1498 1499 0
-1497 1498 1499 1496 0
1497 -1499 0
1497 -1498 0
1497 -1379 -1496 0
1498 -1616 -1426 0
-1498 1616 0
-1498 1426 0
1499 -1442 -1440 0
-1499 1442 0
-1499 1440 0
-1500 1386 1502 0
-1500 1501 1502 0
-1500 1220 1502 0
1500 -1502 0
1500 -1220 -1386 -1501 0
1501 -1449 -1445 0
-1501 1449 0
-1501 1445 0
-1502 1383 1503 1504 0
-1502 1503 1504 1501 0
1502 -1504 0
1502 -1503 0
1502 -1383 -1501 0
1503 -1615 -1425 0
-1503 1615 0
-1503 1425 0
1504 -1447 -1445 0
-1504 1447 0
-1504 1445 0
1505 -1506 1527 0
1505 1506 -1527 0
-1505 1506 1527 0
-1505 -1506 -1527 0
1506 1507 -1508 0
1506 -1507 1508 0
-1506 -1507 -1508 0
-1506 1507 1508 0
1507 -1454 -1455 0
-1507 1454 0
-1507 1455 0
1508 1509 -1510 0
1508 -1509 1510 0
-1508 -1509 -1510 0
-1508 1509 1510 0
1509 -1456 -1473 0
-1509 1456 0
-1509 1473 0
1510 -1511 1524 0
1510 1511 -1524 0
-1510 1511 1524 0
-1510 -1511 -1524 0
1511 -1512 1521 0
1511 1512 -1521 0
-1511 1512 1521 0
-1511 -1512 -1521 0
1512 -1513 1518 0
1512 1513 -1518 0
-1512 1513 1518 0
-1512 -1513 -1518 0
1513 1514 -1517 0
1513 -1514 1517 0
-1513 -1514 -1517 0
-1513 1514 1517 0
1514 1515 -1516 0
1514 -1515 1516 0
-1514 -1515 -1516 0
-1514 1515 1516 0
1515 -1616 -1630 0
-1515 1616 0
-1515 1630 0
1516 -1617 -1629 0
-1516 1617 0
-1516 1629 0
1517 -1618 -1628 0
-1517 1618 0
-1517 1628 0
-1518 1519 1520 0
1518 -1519 0
1518 -1520 0
1519 -1615 -1616 -1629 -1630 0
-1519 1630 0
-1519 1615 0
-1519 1629 0
-1519 1616 0
1520 -1617 -1628 -1462 0
-1520 1617 0
-1520 1628 0
-1520 1462 0
-1521 1522 1523 0
1521 -1522 0
1521 -1523 0
1522 -1461 -1466 0
-1522 1461 0
-1522 1466 0
1523 -1618 -1627 -1460 0
-1523 1618 0
-1523 1627 0
-1523 1460 0
-1524 1525 1526 0
1524 -1525 0
1524 -1526 0
1525 -1459 -1470 0
-1525 1459 0
-1525 1470 0
1526 -1457 -1458 0
-1526 1457 0
-1526 1458 0
-1527 1422 1529 0
-1527 1528 1529 0
-1527 1267 1529 0
1527 -1529 0
1527 -1267 -1422 -1528 0
1528 -1388 -1451 0
-1528 1388 0
-1528 1451 0
-1529 1477 1530 1531 0
-1529 1530 1451 1531 0
1529 -1531 0
1529 -1530 0
1529 -1477 -1451 0
1530 -1452 -1453 0
-1530 1452 0
-1530 1453 0
1531 -1420 -1528 0
-1531 1420 0
-1531 1528 0
-1532 -1533 -1547 1566 0
-1532 1533 1547 1566 0
1532 -1566 0
1532 -1533 1547 0
1532 1533 -1547 0
-1533 1630 1534 0
-1533 -1617 1534 -1543 0
-1533 1617 1534 1543 0
-1533 -1617 -1630 -1534 1543 0
-1533 1617 -1630 -1534 -1543 0
1533 1630 -1534 0
1533 1617 -1630 1534 -1543 0
1533 1617 -1534 1543 0
1533 -1617 -1534 -1543 0
1533 -1617 -1630 1534 1543 0
-1534 1629 1535 0
-1534 1618 -1629 -1535 -1539 0
-1534 1618 1535 1539 0
-1534 -1618 1535 -1539 0
-1534 -1618 -1629 -1535 1539 0
1534 1629 -1535 0
1534 -1618 -1535 -1539 0
1534 1618 -1535 1539 0
1534 -1618 -1629 1535 1539 0
1534 1618 -1629 1535 -1539 0
1535 -1628 -1536 0
1535 -1628 -1537 0
-1535 1628 0
-1535 1536 1537 0
1536 -1618 -1482 0
-1536 1618 0
-1536 1482 0
1537 -1538 -1489 0
-1537 1538 0
-1537 1489 0
1538 1618 -1482 0
1538 -1618 1482 0
-1538 -1618 -1482 0
-1538 1618 1482 0
-1539 1540 1541 0
1539 -1540 0
1539 -1541 0
1540 -1617 -1481 0
-1540 1617 0
-1540 1481 0
1541 -1542 -1495 0
-1541 1542 0
-1541 1495 0
1542 -1617 1481 0
1542 1617 -1481 0
-1542 1617 1481 0
-1542 -1617 -1481 0
-1543 1544 1545 0
1543 -1544 0
1543 -1545 0
1544 -1616 -1480 0
-1544 1616 0
-1544 1480 0
1545 -1546 -1500 0
-1545 1546 0
-1545 1500 0
1546 -1616 1480 0
1546 1616 -1480 0
-1546 1616 1480 0
-1546 -1616 -1480 0
1547 -1548 1563 0
1547 1548 -1563 0
-1547 1548 1563 0
-1547 -1548 -1563 0
1548 1549 -1550 0
1548 -1549 1550 0
-1548 -1549 -1550 0
-1548 1549 1550 0
1549 -1509 -1510 0
-1549 1509 0
-1549 1510 0
1550 1551 -1552 0
1550 -1551 1552 0
-1550 -1551 -1552 0
-1550 1551 1552 0
1551 -1511 -1524 0
-1551 1511 0
-1551 1524 0
1552 1553 -1554 0
1552 -1553 1554 0
-1552 -1553 -1554 0
-1552 1553 1554 0
1553 -1512 -1521 0
-1553 1512 0
-1553 1521 0
1554 1555 -1556 0
1554 -1555 1556 0
-1554 -1555 -1556 0
-1554 1555 1556 0
1555 -1513 -1518 0
-1555 1513 0
-1555 1518 0
1556 -1557 1560 0
1556 1557 -1560 0
-1556 1557 1560 0
-1556 -1557 -1560 0
1557 1558 -1559 0
1557 -1558 1559 0
-1557 -1558 -1559 0
-1557 1558 1559 0
1558 -1617 -1630 0
-1558 1617 0
-1558 1630 0
1559 -1618 -1629 0
-1559 1618 0
-1559 1629 0
-1560 1561 1562 0
1560 -1561 0
1560 -1562 0
1561 -1616 -1617 -1629 -1630 0
-1561 1630 0
-1561 1616 0
-1561 1629 0
-1561 1617 0
1562 -1618 -1628 -1514 0
-1562 1618 0
-1562 1628 0
-1562 1514 0
-1563 1564 1565 0
1563 -1564 0
1563 -1565 0
1564 -1507 -1508 0
-1564 1507 0
-1564 1508 0
1565 -1506 -1527 0
-1565 1506 0
-1565 1527 0
-1566 -1567 -1578 -1591 -1595 0
-1566 1567 1578 -1591 -1595 0
-1566 -1567 -1578 1591 1595 0
-1566 1567 1578 1591 1595 0
1566 1591 -1595 0
1566 -1591 1595 0
1566 1567 -1578 0
1566 -1567 1578 0
-1567 1630 1568 0
-1567 1618 -1630 -1568 -1573 0
-1567 1618 1568 1573 0
-1567 -1618 1568 -1573 0
-1567 -1618 -1630 -1568 1573 0
1567 1630 -1568 0
1567 -1618 -1568 -1573 0
1567 1618 -1568 1573 0
1567 -1618 -1630 1568 1573 0
1567 1618 -1630 1568 -1573 0
1568 -1629 -1569 0
1568 -1629 -1495 -1572 0
-1568 1629 0
-1568 1495 1569 0
-1568 1569 1572 0
-1569 1570 1571 0
-1569 1540 1570 0
1569 -1570 0
1569 -1540 -1571 0
1570 -1618 -1535 0
-1570 1618 0
-1570 1535 0
1571 1618 -1535 0
1571 -1618 1535 0
-1571 -1618 -1535 0
-1571 1618 1535 0
1572 -1542 -1571 0
-1572 1542 0
-1572 1571 0
-1573 1546 1575 0
-1573 1500 1575 0
-1573 1574 1575 0
1573 -1575 0
1573 -1546 -1500 -1574 0
1574 -1617 1534 0
1574 1617 -1534 0
-1574 1617 1534 0
-1574 -1617 -1534 0
-1575 1576 1577 0
1575 -1576 0
1575 -1577 0
1576 -1617 -1534 0
-1576 1617 0
-1576 1534 0
1577 -1544 -1574 0
-1577 1544 0
-1577 1574 0
1578 -1579 1588 0
1578 1579 -1588 0
-1578 1579 1588 0
-1578 -1579 -1588 0
1579 1580 -1581 0
1579 -1580 1581 0
-1579 -1580 -1581 0
-1579 1580 1581 0
1580 -1551 -1552 0
-1580 1551 0
-1580 1552 0
1581 1582 -1583 0
1581 -1582 1583 0
-1581 -1582 -1583 0
-1581 1582 1583 0
1582 -1553 -1554 0
-1582 1553 0
-1582 1554 0
1583 1584 -1585 0
1583 -1584 1585 0
-1583 -1584 -1585 0
-1583 1584 1585 0
1584 -1555 -1556 0
-1584 1555 0
-1584 1556 0
1585 1586 -1587 0
1585 -1586 1587 0
-1585 -1586 -1587 0
-1585 1586 1587 0
1586 -1557 -1560 0
-1586 1557 0
-1586 1560 0
1587 1617 -1618 -1630 0
1587 -1618 1629 -1630 0
-1587 1630 0
-1587 1618 0
-1587 -1617 -1629 0
-1588 1506 1589 0
-1588 1527 1589 0
-1588 1548 1589 0
1588 -1589 0
1588 -1506 -1527 -1548 0
-1589 1590 1548 0
-1589 1564 1590 0
1589 -1590 0
1589 -1564 -1548 0
1590 -1549 -1550 0
-1590 1549 0
-1590 1550 0
1591 -1630 -1592 0
1591 -1630 -1593 0
-1591 1630 0
-1591 1592 1593 0
1592 -1618 -1568 0
-1592 1618 0
-1592 1568 0
1593 -1594 -1573 0
-1593 1594 0
-1593 1573 0
1594 1618 -1568 0
1594 -1618 1568 0
-1594 -1618 -1568 0
-1594 1618 1568 0
1595 -1596 1604 0
1595 1596 -1604 0
-1595 1596 1604 0
-1595 -1596 -1604 0
1596 1597 -1598 0
1596 -1597 1598 0
-1596 -1597 -1598 0
-1596 1597 1598 0
1597 -1582 -1583 0
-1597 1582 0
-1597 1583 0
1598 1599 -1600 0
1598 -1599 1600 0
-1598 -1599 -1600 0
-1598 1599 1600 0
1599 -1584 -1585 0
-1599 1584 0
-1599 1585 0
1600 -1601 0
-1600 1601 0
-1601 1602 1603 0
1601 -1602 0
1601 -1603 0
1602 -1617 -1618 -1629 -1630 0
-1602 1630 0
-1602 1617 0
-1602 1629 0
-1602 1618 0
1603 -1586 -1587 0
-1603 1586 0
-1603 1587 0
-1604 1605 1606 0
1604 -1605 0
1604 -1606 0
1605 -1580 -1581 0
-1605 1580 0
-1605 1581 0
1606 -1579 -1588 0
-1606 1579 0
-1606 1588 0
-1631 0
2 0

