c Result of efficient AIG-to-CNF conversion using package CNF
p cnf 50 138
2 30 -40 0
2 -30 40 0
-2 -30 -40 0
-2 30 40 0
3 4 -5 0
3 -4 5 0
-3 -4 -5 0
-3 4 5 0
4 -30 -40 0
-4 30 0
-4 40 0
5 31 -41 0
5 -31 41 0
-5 -31 -41 0
-5 31 41 0
6 -7 8 0
6 7 -8 0
-6 7 8 0
-6 -7 -8 0
7 32 -42 0
7 -32 42 0
-7 -32 -42 0
-7 32 42 0
-8 31 4 0
-8 41 4 0
-8 31 41 0
8 -31 -41 0
8 -41 -4 0
8 -31 -4 0
9 -10 11 0
9 10 -11 0
-9 10 11 0
-9 -10 -11 0
10 33 -43 0
10 -33 43 0
-10 -33 -43 0
-10 33 43 0
-11 42 8 0
-11 32 42 0
-11 32 8 0
11 -32 -42 0
11 -42 -8 0
11 -32 -8 0
12 -13 14 0
12 13 -14 0
-12 13 14 0
-12 -13 -14 0
13 34 -44 0
13 -34 44 0
-13 -34 -44 0
-13 34 44 0
-14 43 11 0
-14 33 43 0
-14 33 11 0
14 -33 -43 0
14 -43 -11 0
14 -33 -11 0
15 -16 17 0
15 16 -17 0
-15 16 17 0
-15 -16 -17 0
16 35 -45 0
16 -35 45 0
-16 -35 -45 0
-16 35 45 0
-17 44 14 0
-17 34 44 0
-17 34 14 0
17 -34 -44 0
17 -44 -14 0
17 -34 -14 0
18 -19 20 0
18 19 -20 0
-18 19 20 0
-18 -19 -20 0
19 36 -46 0
19 -36 46 0
-19 -36 -46 0
-19 36 46 0
-20 45 17 0
-20 35 45 0
-20 35 17 0
20 -35 -45 0
20 -45 -17 0
20 -35 -17 0
21 -22 23 0
21 22 -23 0
-21 22 23 0
-21 -22 -23 0
22 37 -47 0
22 -37 47 0
-22 -37 -47 0
-22 37 47 0
-23 46 20 0
-23 36 46 0
-23 36 20 0
23 -36 -46 0
23 -46 -20 0
23 -36 -20 0
24 -25 26 0
24 25 -26 0
-24 25 26 0
-24 -25 -26 0
25 38 -48 0
25 -38 48 0
-25 -38 -48 0
-25 38 48 0
-26 47 23 0
-26 37 47 0
-26 37 23 0
26 -37 -47 0
26 -47 -23 0
26 -37 -23 0
27 -28 29 0
27 28 -29 0
-27 28 29 0
-27 -28 -29 0
28 39 -49 0
28 -39 49 0
-28 -39 -49 0
-28 39 49 0
-29 48 26 0
-29 38 48 0
-29 38 26 0
29 -38 -48 0
29 -48 -26 0
29 -38 -26 0
-50 0
2 0
3 0
6 0
9 0
12 0
15 0
18 0
21 0
24 0
27 0

