c Result of efficient AIG-to-CNF conversion using package CNF
p cnf 35 93
2 21 -28 0
2 -21 28 0
-2 -21 -28 0
-2 21 28 0
3 4 -5 0
3 -4 5 0
-3 -4 -5 0
-3 4 5 0
4 -21 -28 0
-4 21 0
-4 28 0
5 22 -29 0
5 -22 29 0
-5 -22 -29 0
-5 22 29 0
6 -7 8 0
6 7 -8 0
-6 7 8 0
-6 -7 -8 0
7 23 -30 0
7 -23 30 0
-7 -23 -30 0
-7 23 30 0
-8 22 4 0
-8 29 4 0
-8 22 29 0
8 -22 -29 0
8 -29 -4 0
8 -22 -4 0
9 -10 11 0
9 10 -11 0
-9 10 11 0
-9 -10 -11 0
10 24 -31 0
10 -24 31 0
-10 -24 -31 0
-10 24 31 0
-11 30 8 0
-11 23 30 0
-11 23 8 0
11 -23 -30 0
11 -30 -8 0
11 -23 -8 0
12 -13 14 0
12 13 -14 0
-12 13 14 0
-12 -13 -14 0
13 25 -32 0
13 -25 32 0
-13 -25 -32 0
-13 25 32 0
-14 31 11 0
-14 24 31 0
-14 24 11 0
14 -24 -31 0
14 -31 -11 0
14 -24 -11 0
15 -16 17 0
15 16 -17 0
-15 16 17 0
-15 -16 -17 0
16 26 -33 0
16 -26 33 0
-16 -26 -33 0
-16 26 33 0
-17 32 14 0
-17 25 32 0
-17 25 14 0
17 -25 -32 0
17 -32 -14 0
17 -25 -14 0
18 -19 20 0
18 19 -20 0
-18 19 20 0
-18 -19 -20 0
19 27 -34 0
19 -27 34 0
-19 -27 -34 0
-19 27 34 0
-20 33 17 0
-20 26 33 0
-20 26 17 0
20 -26 -33 0
20 -33 -17 0
20 -26 -17 0
-35 0
2 0
3 0
6 0
9 0
12 0
15 0
18 0

