c Result of efficient AIG-to-CNF conversion using package CNF
p cnf 918 3867
-2 3 86 424 753 0
2 -753 0
2 -3 0
2 -424 0
2 -86 0
-3 -4 -20 29 0
-3 4 20 29 0
3 -29 0
3 -4 20 0
3 4 -20 0
4 -5 11 0
4 5 -11 0
-4 5 11 0
-4 -5 -11 0
-5 7 10 0
-5 6 10 0
-5 6 7 0
5 -6 -10 0
5 -6 -7 0
5 -7 -10 0
6 -894 -895 -906 -907 0
-6 907 0
-6 894 0
-6 906 0
-6 895 0
-7 -8 -9 0
-7 8 9 0
7 8 -9 0
7 -8 9 0
8 -895 -907 0
-8 895 0
-8 907 0
9 -894 -908 0
-9 894 0
-9 908 0
10 -896 -906 0
-10 896 0
-10 906 0
-11 12 13 0
-11 -12 -13 0
11 -12 13 0
11 12 -13 0
12 -8 -9 0
-12 8 0
-12 9 0
-13 -14 -17 0
-13 14 17 0
13 14 -17 0
13 -14 17 0
-14 -15 -16 0
-14 15 16 0
14 15 -16 0
14 -15 16 0
15 -895 -908 0
-15 895 0
-15 908 0
16 -894 -909 0
-16 894 0
-16 909 0
17 18 -19 0
17 -18 19 0
-17 -18 -19 0
-17 18 19 0
18 -897 -906 0
-18 897 0
-18 906 0
19 -896 -907 0
-19 896 0
-19 907 0
20 21 -26 0
20 -21 26 0
-20 -21 -26 0
-20 21 26 0
-21 22 24 0
-21 -22 -24 0
21 -22 24 0
21 22 -24 0
-22 -19 -23 0
-22 19 23 0
22 19 -23 0
22 -19 23 0
23 15 -16 0
23 -15 16 0
-23 -15 -16 0
-23 15 16 0
-24 18 25 0
-24 -18 -25 0
24 -18 25 0
24 18 -25 0
-25 907 10 0
-25 895 9 0
-25 9 10 0
-25 907 9 0
-25 895 10 0
25 -9 -10 0
25 -895 -907 -10 0
25 -895 -907 -9 0
26 -6 -27 0
-26 6 0
-26 27 0
-27 -10 -28 0
-27 10 28 0
27 10 -28 0
27 -10 28 0
28 8 -9 0
28 -8 9 0
-28 -8 -9 0
-28 8 9 0
-29 30 45 -55 -74 0
-29 -30 -45 -55 -74 0
-29 30 45 55 74 0
-29 -30 -45 55 74 0
29 30 -45 0
29 -30 45 0
29 55 -74 0
29 -55 74 0
30 -31 32 0
30 31 -32 0
-30 31 32 0
-30 -31 -32 0
-31 12 5 0
-31 5 13 0
-31 12 13 0
31 -5 -13 0
31 -12 -5 0
31 -12 -13 0
-32 33 44 0
-32 -33 -44 0
32 -33 44 0
32 33 -44 0
-33 -34 -39 0
-33 34 39 0
33 34 -39 0
33 -34 39 0
-34 35 36 0
-34 -35 -36 0
34 -35 36 0
34 35 -36 0
35 -898 -906 0
-35 898 0
-35 906 0
-36 -37 -38 0
-36 37 38 0
36 37 -38 0
36 -37 38 0
37 -897 -907 0
-37 897 0
-37 907 0
38 -896 -908 0
-38 896 0
-38 908 0
39 40 -41 0
39 -40 41 0
-39 -40 -41 0
-39 40 41 0
40 -15 -16 0
-40 15 0
-40 16 0
41 42 -43 0
41 -42 43 0
-41 -42 -43 0
-41 42 43 0
42 -895 -909 0
-42 895 0
-42 909 0
43 -894 -910 0
-43 894 0
-43 910 0
-44 18 19 0
-44 14 18 0
-44 14 19 0
44 -14 -18 0
44 -18 -19 0
44 -14 -19 0
45 -46 47 0
45 46 -47 0
-45 46 47 0
-45 -46 -47 0
46 -21 -26 0
-46 21 0
-46 26 0
-47 48 54 0
-47 -48 -54 0
47 -48 54 0
47 48 -54 0
-48 -49 -50 0
-48 49 50 0
48 49 -50 0
48 -49 50 0
-49 -35 -37 0
-49 35 37 0
49 35 -37 0
49 -35 37 0
50 -51 53 0
50 51 -53 0
-50 51 53 0
-50 -51 -53 0
51 -38 52 0
51 38 -52 0
-51 38 52 0
-51 -38 -52 0
-52 -42 -43 0
-52 42 43 0
52 42 -43 0
52 -42 43 0
-53 908 19 0
-53 895 16 0
-53 16 19 0
-53 908 16 0
-53 895 19 0
53 -16 -19 0
53 -895 -908 -19 0
53 -895 -908 -16 0
-54 18 22 0
-54 22 25 0
-54 18 25 0
54 -22 -25 0
54 -18 -22 0
54 -18 -25 0
55 56 -57 0
55 -56 57 0
-55 -56 -57 0
-55 56 57 0
-56 31 33 0
-56 33 44 0
-56 31 44 0
56 -31 -44 0
56 -33 -44 0
56 -31 -33 0
57 -58 73 0
57 58 -73 0
-57 58 73 0
-57 -58 -73 0
58 -59 68 0
58 59 -68 0
-58 59 68 0
-58 -59 -68 0
-59 -60 -65 0
-59 60 65 0
59 60 -65 0
59 -60 65 0
-60 -61 -62 0
-60 61 62 0
60 61 -62 0
60 -61 62 0
61 -896 -909 0
-61 896 0
-61 909 0
62 63 -64 0
62 -63 64 0
-62 -63 -64 0
-62 63 64 0
63 -895 -910 0
-63 895 0
-63 910 0
64 -894 -911 0
-64 894 0
-64 911 0
65 66 -67 0
65 -66 67 0
-65 -66 -67 0
-65 66 67 0
66 -42 -43 0
-66 42 0
-66 43 0
67 -899 -906 0
-67 899 0
-67 906 0
-68 -69 -70 0
-68 69 70 0
68 69 -70 0
68 -69 70 0
-69 35 38 0
-69 37 38 0
-69 35 37 0
69 -35 -37 0
69 -37 -38 0
69 -35 -38 0
70 71 -72 0
70 -71 72 0
-70 -71 -72 0
-70 71 72 0
71 -898 -907 0
-71 898 0
-71 907 0
72 -897 -908 0
-72 897 0
-72 908 0
-73 16 41 0
-73 15 34 0
-73 16 34 0
-73 34 41 0
-73 15 41 0
73 -34 -41 0
73 -15 -16 -41 0
73 -15 -16 -34 0
74 -75 76 0
74 75 -76 0
-74 75 76 0
-74 -75 -76 0
75 -46 -47 0
-75 46 0
-75 47 0
-76 -77 -85 0
-76 77 85 0
76 77 -85 0
76 -77 85 0
-77 78 82 0
-77 -78 -82 0
77 -78 82 0
77 78 -82 0
-78 -60 -79 0
-78 60 79 0
78 60 -79 0
78 -60 79 0
79 -80 81 0
79 80 -81 0
-79 80 81 0
-79 -80 -81 0
80 -35 -37 0
-80 35 0
-80 37 0
-81 38 43 0
-81 42 43 0
-81 38 42 0
81 -38 -42 0
81 -42 -43 0
81 -38 -43 0
-82 83 84 0
-82 -83 -84 0
82 -83 84 0
82 83 -84 0
-83 49 53 0
-83 49 51 0
-83 51 53 0
83 -51 -53 0
83 -49 -53 0
83 -49 -51 0
-84 -67 -70 0
-84 67 70 0
84 67 -70 0
84 -67 70 0
85 -48 -54 0
-85 48 0
-85 54 0
-86 87 227 262 286 0
-86 87 -227 -262 286 0
86 -286 0
86 -227 262 0
86 -87 0
86 227 -262 0
-87 -88 -111 128 0
-87 88 111 128 0
87 -128 0
87 -88 111 0
87 88 -111 0
88 -89 90 0
88 89 -90 0
-88 89 90 0
-88 -89 -90 0
-89 56 73 0
-89 56 58 0
-89 58 73 0
89 -58 -73 0
89 -56 -73 0
89 -56 -58 0
-90 91 110 0
-90 -91 -110 0
90 -91 110 0
90 91 -110 0
91 -92 101 0
91 92 -101 0
-91 92 101 0
-91 -92 -101 0
-92 -93 -98 0
-92 93 98 0
92 93 -98 0
92 -93 98 0
-93 -94 -95 0
-93 94 95 0
93 94 -95 0
93 -94 95 0
94 -898 -908 0
-94 898 0
-94 908 0
95 96 -97 0
95 -96 97 0
-95 -96 -97 0
-95 96 97 0
96 -897 -909 0
-96 897 0
-96 909 0
97 -896 -910 0
-97 896 0
-97 910 0
98 -99 100 0
98 99 -100 0
-98 99 100 0
-98 -99 -100 0
99 -897 -898 -907 -908 0
-99 908 0
-99 897 0
-99 907 0
-99 898 0
-100 61 64 0
-100 63 64 0
-100 61 63 0
100 -61 -63 0
100 -63 -64 0
100 -61 -64 0
-101 -102 -103 0
-101 102 103 0
101 102 -103 0
101 -102 103 0
-102 60 67 0
-102 66 67 0
-102 66 60 0
102 -66 -67 0
102 -66 -60 0
102 -60 -67 0
103 104 -107 0
103 -104 107 0
-103 -104 -107 0
-103 104 107 0
104 105 -106 0
104 -105 106 0
-104 -105 -106 0
-104 105 106 0
105 -895 -911 0
-105 895 0
-105 911 0
106 -894 -912 0
-106 894 0
-106 912 0
107 108 -109 0
107 -108 109 0
-107 -108 -109 0
-107 108 109 0
108 -900 -906 0
-108 900 0
-108 906 0
109 -899 -907 0
-109 899 0
-109 907 0
-110 59 69 0
-110 69 70 0
-110 59 70 0
110 -69 -70 0
110 -59 -69 0
110 -59 -70 0
111 -112 113 0
111 112 -113 0
-111 112 113 0
-111 -112 -113 0
112 -75 -76 0
-112 75 0
-112 76 0
-113 -114 -127 0
-113 114 127 0
113 114 -127 0
113 -114 127 0
-114 115 126 0
-114 -115 -126 0
114 -115 126 0
114 115 -126 0
-115 -116 -121 0
-115 116 121 0
115 116 -121 0
115 -116 121 0
-116 -117 -119 0
-116 117 119 0
116 117 -119 0
116 -117 119 0
-117 -109 -118 0
-117 109 118 0
117 109 -118 0
117 -109 118 0
118 94 -96 0
118 -94 96 0
-118 -94 -96 0
-118 94 96 0
119 -97 120 0
119 97 -120 0
-119 97 120 0
-119 -97 -120 0
-120 -105 -106 0
-120 105 106 0
120 105 -106 0
120 -105 106 0
121 -122 125 0
121 122 -125 0
-121 122 125 0
-121 -122 -125 0
-122 123 124 0
-122 -123 -124 0
122 -123 124 0
122 123 -124 0
-123 67 99 0
-123 71 72 99 0
123 -99 0
123 -67 -72 0
123 -67 -71 0
-124 -100 -108 0
-124 100 108 0
124 100 -108 0
124 -100 108 0
-125 60 81 0
-125 60 80 0
-125 80 81 0
125 -80 -81 0
125 -60 -81 0
125 -60 -80 0
-126 78 83 0
-126 83 84 0
-126 78 84 0
126 -78 -84 0
126 -83 -84 0
126 -78 -83 0
127 -77 -85 0
-127 77 0
-127 85 0
-128 129 156 -176 -208 0
-128 -129 -156 -176 -208 0
-128 129 156 176 208 0
-128 -129 -156 176 208 0
128 129 -156 0
128 -129 156 0
128 176 -208 0
128 -176 208 0
129 130 -131 0
129 -130 131 0
-129 -130 -131 0
-129 130 131 0
-130 89 110 0
-130 89 91 0
-130 91 110 0
130 -91 -110 0
130 -89 -110 0
130 -89 -91 0
131 -132 155 0
131 132 -155 0
-131 132 155 0
-131 -132 -155 0
132 -133 142 0
132 133 -142 0
-132 133 142 0
-132 -133 -142 0
-133 -134 -139 0
-133 134 139 0
133 134 -139 0
133 -134 139 0
-134 -135 -136 0
-134 135 136 0
134 135 -136 0
134 -135 136 0
135 -901 -906 0
-135 901 0
-135 906 0
136 137 -138 0
136 -137 138 0
-136 -137 -138 0
-136 137 138 0
137 -900 -907 0
-137 900 0
-137 907 0
138 -899 -908 0
-138 899 0
-138 908 0
139 -140 141 0
139 140 -141 0
-139 140 141 0
-139 -140 -141 0
-140 907 108 0
-140 899 104 0
-140 104 108 0
-140 907 104 0
-140 899 108 0
140 -104 -108 0
140 -899 -907 -108 0
140 -899 -907 -104 0
-141 94 97 0
-141 96 97 0
-141 94 96 0
141 -94 -96 0
141 -96 -97 0
141 -94 -97 0
-142 -143 -144 0
-142 143 144 0
142 143 -144 0
142 -143 144 0
-143 99 93 0
-143 93 100 0
-143 99 100 0
143 -93 -100 0
143 -99 -93 0
143 -99 -100 0
144 -145 148 0
144 145 -148 0
-144 145 148 0
-144 -145 -148 0
145 146 -147 0
145 -146 147 0
-145 -146 -147 0
-145 146 147 0
146 -898 -909 0
-146 898 0
-146 909 0
147 -897 -910 0
-147 897 0
-147 910 0
-148 149 150 0
-148 -149 -150 0
148 -149 150 0
148 149 -150 0
149 -105 -106 0
-149 105 0
-149 106 0
-150 -151 -152 0
-150 151 152 0
150 151 -152 0
150 -151 152 0
151 -896 -911 0
-151 896 0
-151 911 0
152 153 -154 0
152 -153 154 0
-152 -153 -154 0
-152 153 154 0
153 -895 -912 0
-153 895 0
-153 912 0
154 -894 -913 0
-154 894 0
-154 913 0
-155 92 102 0
-155 102 103 0
-155 92 103 0
155 -102 -103 0
155 -92 -102 0
155 -92 -103 0
156 -157 158 0
156 157 -158 0
-156 157 158 0
-156 -157 -158 0
157 -112 -113 0
-157 112 0
-157 113 0
-158 -159 -175 0
-158 159 175 0
158 159 -175 0
158 -159 175 0
-159 -160 -174 0
-159 160 174 0
159 160 -174 0
159 -160 174 0
-160 -161 -169 0
-160 161 169 0
160 161 -169 0
160 -161 169 0
-161 -162 -166 0
-161 162 166 0
161 162 -166 0
161 -162 166 0
-162 -150 -163 0
-162 150 163 0
162 150 -163 0
162 -150 163 0
163 -164 165 0
163 164 -165 0
-163 164 165 0
-163 -164 -165 0
-164 94 109 0
-164 96 109 0
-164 94 96 0
164 -94 -96 0
164 -96 -109 0
164 -94 -109 0
-165 97 149 0
-165 105 106 149 0
165 -149 0
165 -97 -106 0
165 -97 -105 0
166 -167 168 0
166 167 -168 0
-166 167 168 0
-166 -167 -168 0
167 -117 -119 0
-167 117 0
-167 119 0
-168 100 123 0
-168 100 108 0
-168 108 123 0
168 -108 -123 0
168 -100 -123 0
168 -100 -108 0
169 170 -171 0
169 -170 171 0
-169 -170 -171 0
-169 170 171 0
-170 116 122 0
-170 122 125 0
-170 116 125 0
170 -116 -125 0
170 -122 -125 0
170 -116 -122 0
171 -172 173 0
171 172 -173 0
-171 172 173 0
-171 -172 -173 0
172 135 -137 0
172 -135 137 0
-172 -135 -137 0
-172 135 137 0
-173 -138 -145 0
-173 138 145 0
173 138 -145 0
173 -138 145 0
174 -115 -126 0
-174 115 0
-174 126 0
175 -114 -127 0
-175 114 0
-175 127 0
176 177 -178 0
176 -177 178 0
-176 -177 -178 0
-176 177 178 0
-177 130 155 0
-177 130 132 0
-177 132 155 0
177 -132 -155 0
177 -130 -155 0
177 -130 -132 0
178 -179 207 0
178 179 -207 0
-178 179 207 0
-178 -179 -207 0
179 -180 190 0
179 180 -190 0
-179 180 190 0
-179 -180 -190 0
-180 -181 -186 0
-180 181 186 0
180 181 -186 0
180 -181 186 0
-181 182 183 0
-181 -182 -183 0
181 -182 183 0
181 182 -183 0
182 -897 -898 -909 -910 0
-182 910 0
-182 897 0
-182 909 0
-182 898 0
-183 -184 -185 0
-183 184 185 0
183 184 -185 0
183 -184 185 0
-184 151 154 0
-184 153 154 0
-184 151 153 0
184 -151 -153 0
184 -153 -154 0
184 -151 -154 0
185 -902 -906 0
-185 902 0
-185 906 0
186 -187 188 0
186 187 -188 0
-186 187 188 0
-186 -187 -188 0
-187 145 150 0
-187 149 145 0
-187 149 150 0
187 -149 -145 0
187 -145 -150 0
187 -149 -150 0
-188 138 189 0
-188 135 137 189 0
188 -189 0
188 -137 -138 0
188 -135 -138 0
189 -135 -137 0
-189 135 0
-189 137 0
-190 -191 -192 0
-190 191 192 0
190 191 -192 0
190 -191 192 0
-191 134 140 0
-191 140 141 0
-191 134 141 0
191 -134 -141 0
191 -140 -141 0
191 -134 -140 0
192 193 -196 0
192 -193 196 0
-192 -193 -196 0
-192 193 196 0
193 194 -195 0
193 -194 195 0
-193 -194 -195 0
-193 194 195 0
194 -901 -907 0
-194 901 0
-194 907 0
195 -900 -908 0
-195 900 0
-195 908 0
196 -197 202 0
196 197 -202 0
-196 197 202 0
-196 -197 -202 0
-197 -198 -199 0
-197 198 199 0
197 198 -199 0
197 -198 199 0
198 -899 -909 0
-198 899 0
-198 909 0
199 200 -201 0
199 -200 201 0
-199 -200 -201 0
-199 200 201 0
200 -898 -910 0
-200 898 0
-200 910 0
201 -897 -911 0
-201 897 0
-201 911 0
-202 -203 -204 0
-202 203 204 0
202 203 -204 0
202 -203 204 0
203 -896 -912 0
-203 896 0
-203 912 0
204 205 -206 0
204 -205 206 0
-204 -205 -206 0
-204 205 206 0
205 -895 -913 0
-205 895 0
-205 913 0
206 -894 -914 0
-206 894 0
-206 914 0
-207 133 143 0
-207 143 144 0
-207 133 144 0
207 -143 -144 0
207 -133 -143 0
207 -133 -144 0
208 -209 211 0
208 209 -211 0
-208 209 211 0
-208 -209 -211 0
-209 210 0
209 -210 0
-210 159 0
-210 157 175 0
210 -157 -159 0
210 -159 -175 0
-211 -212 -226 0
-211 212 226 0
211 212 -226 0
211 -212 226 0
-212 213 225 0
-212 -213 -225 0
212 -213 225 0
212 213 -225 0
-213 -214 -221 0
-213 214 221 0
213 214 -221 0
213 -214 221 0
-214 -215 -218 0
-214 215 218 0
214 215 -218 0
214 -215 218 0
-215 189 216 0
-215 -189 -216 0
215 -189 216 0
215 189 -216 0
-216 184 217 0
-216 -184 -217 0
216 -184 217 0
216 184 -217 0
-217 138 182 0
-217 146 147 182 0
217 -182 0
217 -138 -147 0
217 -138 -146 0
218 -219 220 0
218 219 -220 0
-218 219 220 0
-218 -219 -220 0
219 -172 -173 0
-219 172 0
-219 173 0
-220 150 164 0
-220 164 165 0
-220 150 165 0
220 -150 -165 0
220 -164 -165 0
220 -150 -164 0
221 222 -223 0
221 -222 223 0
-221 -222 -223 0
-221 222 223 0
-222 162 168 0
-222 162 167 0
-222 167 168 0
222 -167 -168 0
222 -162 -168 0
222 -162 -167 0
223 -196 224 0
223 196 -224 0
-223 196 224 0
-223 -196 -224 0
-224 -185 -193 0
-224 185 193 0
224 185 -193 0
224 -185 193 0
-225 161 170 0
-225 170 171 0
-225 161 171 0
225 -170 -171 0
225 -161 -170 0
225 -161 -171 0
226 -160 -174 0
-226 160 0
-226 174 0
227 228 -229 0
227 -228 229 0
-227 -228 -229 0
-227 228 229 0
-228 177 207 0
-228 177 179 0
-228 179 207 0
228 -179 -207 0
228 -177 -207 0
228 -177 -179 0
229 -230 261 0
229 230 -261 0
-229 230 261 0
-229 -230 -261 0
230 -231 240 0
230 231 -240 0
-230 231 240 0
-230 -231 -240 0
-231 -232 -237 0
-231 232 237 0
231 232 -237 0
231 -232 237 0
-232 233 234 0
-232 -233 -234 0
232 -233 234 0
232 233 -234 0
233 -900 -901 -907 -908 0
-233 908 0
-233 900 0
-233 907 0
-233 901 0
-234 235 236 0
-234 -235 -236 0
234 -235 236 0
234 235 -236 0
-235 198 201 0
-235 200 201 0
-235 198 200 0
235 -198 -200 0
235 -200 -201 0
235 -198 -201 0
-236 203 206 0
-236 205 206 0
-236 203 205 0
236 -203 -205 0
236 -205 -206 0
236 -203 -206 0
237 -238 239 0
237 238 -239 0
-237 238 239 0
-237 -238 -239 0
-238 193 197 0
-238 197 202 0
-238 193 202 0
238 -197 -202 0
238 -193 -197 0
238 -193 -202 0
-239 184 185 0
-239 182 185 0
-239 182 184 0
239 -182 -185 0
239 -182 -184 0
239 -184 -185 0
-240 -241 -242 0
-240 241 242 0
240 241 -242 0
240 -241 242 0
-241 181 187 0
-241 187 188 0
-241 181 188 0
241 -181 -188 0
241 -187 -188 0
241 -181 -187 0
242 243 -250 0
242 -243 250 0
-242 -243 -250 0
-242 243 250 0
-243 -244 -247 0
-243 244 247 0
243 244 -247 0
243 -244 247 0
244 245 -246 0
244 -245 246 0
-244 -245 -246 0
-244 245 246 0
245 -895 -914 0
-245 895 0
-245 914 0
246 -894 -915 0
-246 894 0
-246 915 0
247 248 -249 0
247 -248 249 0
-247 -248 -249 0
-247 248 249 0
248 -903 -906 0
-248 903 0
-248 906 0
249 -902 -907 0
-249 902 0
-249 907 0
250 -251 256 0
250 251 -256 0
-250 251 256 0
-250 -251 -256 0
-251 -252 -253 0
-251 252 253 0
251 252 -253 0
251 -252 253 0
252 -901 -908 0
-252 901 0
-252 908 0
253 254 -255 0
253 -254 255 0
-253 -254 -255 0
-253 254 255 0
254 -900 -909 0
-254 900 0
-254 909 0
255 -899 -910 0
-255 899 0
-255 910 0
-256 -257 -258 0
-256 257 258 0
256 257 -258 0
256 -257 258 0
257 -898 -911 0
-257 898 0
-257 911 0
258 259 -260 0
258 -259 260 0
-258 -259 -260 0
-258 259 260 0
259 -897 -912 0
-259 897 0
-259 912 0
260 -896 -913 0
-260 896 0
-260 913 0
-261 180 191 0
-261 191 192 0
-261 180 192 0
261 -191 -192 0
261 -180 -191 0
261 -180 -192 0
262 -263 264 0
262 263 -264 0
-262 263 264 0
-262 -263 -264 0
-263 209 212 0
-263 212 226 0
-263 209 226 0
263 -212 -226 0
263 -209 -212 0
263 -209 -226 0
-264 -265 -285 0
-264 265 285 0
264 265 -285 0
264 -265 285 0
265 -266 284 0
265 266 -284 0
-265 266 284 0
-265 -266 -284 0
-266 -267 -276 0
-266 267 276 0
266 267 -276 0
266 -267 276 0
-267 -268 -274 0
-267 268 274 0
267 268 -274 0
267 -268 274 0
-268 -269 -271 0
-268 269 271 0
268 269 -271 0
268 -269 271 0
-269 -255 -270 0
-269 255 270 0
269 255 -270 0
269 -255 270 0
270 257 -259 0
270 -257 259 0
-270 -257 -259 0
-270 257 259 0
271 -272 273 0
271 272 -273 0
-271 272 273 0
-271 -272 -273 0
-272 -244 -260 0
-272 244 260 0
272 244 -260 0
272 -244 260 0
-273 907 195 0
-273 901 185 0
-273 185 195 0
-273 907 185 0
-273 901 195 0
273 -185 -195 0
273 -901 -907 -195 0
273 -901 -907 -185 0
274 -235 275 0
274 235 -275 0
-274 235 275 0
-274 -235 -275 0
-275 -236 -248 0
-275 236 248 0
275 236 -248 0
275 -236 248 0
276 -277 283 0
276 277 -283 0
-276 277 283 0
-276 -277 -283 0
277 -278 279 0
277 278 -279 0
-277 278 279 0
-277 -278 -279 0
-278 197 202 0
-278 202 224 0
-278 197 224 0
278 -197 -224 0
278 -202 -224 0
278 -197 -202 0
-279 -280 -281 0
-279 280 281 0
279 280 -281 0
279 -280 281 0
-280 189 184 0
-280 184 217 0
-280 189 217 0
280 -184 -217 0
280 -189 -184 0
280 -189 -217 0
281 249 -282 0
281 -249 282 0
-281 -249 -282 0
-281 249 282 0
282 252 -254 0
282 -252 254 0
-282 -252 -254 0
-282 252 254 0
-283 219 215 0
-283 215 220 0
-283 219 220 0
283 -215 -220 0
283 -219 -215 0
283 -219 -220 0
-284 214 222 0
-284 222 223 0
-284 214 223 0
284 -222 -223 0
284 -214 -222 0
284 -214 -223 0
285 -213 -225 0
-285 213 0
-285 225 0
-286 287 326 -353 -398 0
-286 -287 -326 -353 -398 0
-286 287 326 353 398 0
-286 -287 -326 353 398 0
286 287 -326 0
286 -287 326 0
286 353 -398 0
286 -353 398 0
287 288 -289 0
287 -288 289 0
-287 -288 -289 0
-287 288 289 0
-288 228 261 0
-288 228 230 0
-288 230 261 0
288 -230 -261 0
288 -228 -261 0
288 -228 -230 0
289 -290 325 0
289 290 -325 0
-289 290 325 0
-289 -290 -325 0
290 -291 300 0
290 291 -300 0
-290 291 300 0
-290 -291 -300 0
-291 -292 -297 0
-291 292 297 0
291 292 -297 0
291 -292 297 0
-292 -293 -294 0
-292 293 294 0
292 293 -294 0
292 -293 294 0
-293 244 249 0
-293 248 249 0
-293 244 248 0
293 -244 -248 0
293 -248 -249 0
293 -244 -249 0
294 -295 296 0
294 295 -296 0
-294 295 296 0
-294 -295 -296 0
-295 252 255 0
-295 254 255 0
-295 252 254 0
295 -252 -254 0
295 -254 -255 0
295 -252 -255 0
-296 257 260 0
-296 259 260 0
-296 257 259 0
296 -257 -259 0
296 -259 -260 0
296 -257 -260 0
297 -298 299 0
297 298 -299 0
-297 298 299 0
-297 -298 -299 0
-298 243 251 0
-298 251 256 0
-298 243 256 0
298 -243 -256 0
298 -251 -256 0
298 -243 -251 0
-299 233 235 0
-299 235 236 0
-299 233 236 0
299 -235 -236 0
299 -233 -235 0
299 -233 -236 0
-300 -301 -302 0
-300 301 302 0
300 301 -302 0
300 -301 302 0
-301 232 238 0
-301 238 239 0
-301 232 239 0
301 -232 -239 0
301 -238 -239 0
301 -232 -238 0
302 303 -314 0
302 -303 314 0
-302 -303 -314 0
-302 303 314 0
-303 -304 -307 0
-303 304 307 0
303 304 -307 0
303 -304 307 0
304 305 -306 0
304 -305 306 0
-304 -305 -306 0
-304 305 306 0
305 -898 -912 0
-305 898 0
-305 912 0
306 -897 -913 0
-306 897 0
-306 913 0
307 -308 309 0
307 308 -309 0
-307 308 309 0
-307 -308 -309 0
308 -894 -895 -914 -915 0
-308 915 0
-308 894 0
-308 914 0
-308 895 0
-309 -310 -311 0
-309 310 311 0
309 310 -311 0
309 -310 311 0
310 -896 -914 0
-310 896 0
-310 914 0
311 312 -313 0
311 -312 313 0
-311 -312 -313 0
-311 312 313 0
312 -895 -915 0
-312 895 0
-312 915 0
313 -894 -916 0
-313 894 0
-313 916 0
314 -315 320 0
314 315 -320 0
-314 315 320 0
-314 -315 -320 0
-315 -316 -317 0
-315 316 317 0
315 316 -317 0
315 -316 317 0
316 -904 -906 0
-316 904 0
-316 906 0
317 318 -319 0
317 -318 319 0
-317 -318 -319 0
-317 318 319 0
318 -903 -907 0
-318 903 0
-318 907 0
319 -902 -908 0
-319 902 0
-319 908 0
-320 -321 -322 0
-320 321 322 0
320 321 -322 0
320 -321 322 0
321 -901 -909 0
-321 901 0
-321 909 0
322 323 -324 0
322 -323 324 0
-322 -323 -324 0
-322 323 324 0
323 -900 -910 0
-323 900 0
-323 910 0
324 -899 -911 0
-324 899 0
-324 911 0
-325 231 241 0
-325 241 242 0
-325 231 242 0
325 -241 -242 0
325 -231 -241 0
325 -231 -242 0
326 -327 328 0
326 327 -328 0
-326 327 328 0
-326 -327 -328 0
-327 265 285 0
-327 263 265 0
-327 263 285 0
327 -263 -265 0
327 -265 -285 0
327 -263 -285 0
-328 -329 -330 0
-328 329 330 0
328 329 -330 0
328 -329 330 0
329 -266 -284 0
-329 266 0
-329 284 0
330 -331 340 0
330 331 -340 0
-330 331 340 0
-330 -331 -340 0
-331 -332 -337 0
-331 332 337 0
331 332 -337 0
331 -332 337 0
-332 -333 -334 0
-332 333 334 0
332 333 -334 0
332 -333 334 0
-333 269 272 0
-333 272 273 0
-333 269 273 0
333 -269 -273 0
333 -272 -273 0
333 -269 -272 0
334 335 -336 0
334 -335 336 0
-334 -335 -336 0
-334 335 336 0
-335 235 236 0
-335 236 248 0
-335 235 248 0
335 -236 -248 0
335 -235 -236 0
335 -235 -248 0
336 316 -318 0
336 -316 318 0
-336 -316 -318 0
-336 316 318 0
337 -338 339 0
337 338 -339 0
-337 338 339 0
-337 -338 -339 0
338 -268 -274 0
-338 268 0
-338 274 0
-339 278 280 0
-339 280 281 0
-339 278 281 0
339 -280 -281 0
339 -278 -280 0
339 -278 -281 0
-340 -341 -342 0
-340 341 342 0
340 341 -342 0
340 -341 342 0
-341 267 283 0
-341 267 277 0
-341 277 283 0
341 -277 -283 0
341 -267 -283 0
341 -267 -277 0
342 343 -348 0
342 -343 348 0
-342 -343 -348 0
-342 343 348 0
-343 -344 -346 0
-343 344 346 0
343 344 -346 0
343 -344 346 0
-344 -319 -345 0
-344 319 345 0
344 319 -345 0
344 -319 345 0
345 321 -323 0
345 -321 323 0
-345 -321 -323 0
-345 321 323 0
346 -309 347 0
346 309 -347 0
-346 309 347 0
-346 -309 -347 0
-347 -304 -324 0
-347 304 324 0
347 304 -324 0
347 -304 324 0
348 -349 350 0
348 349 -350 0
-348 349 350 0
-348 -349 -350 0
-349 249 254 0
-349 252 254 0
-349 249 252 0
349 -249 -252 0
349 -252 -254 0
349 -249 -254 0
-350 351 352 0
-350 -351 -352 0
350 -351 352 0
350 351 -352 0
-351 255 259 0
-351 257 259 0
-351 255 257 0
351 -255 -257 0
351 -257 -259 0
351 -255 -259 0
-352 308 260 0
-352 245 246 308 0
352 -308 0
352 -246 -260 0
352 -245 -260 0
353 -354 355 0
353 354 -355 0
-353 354 355 0
-353 -354 -355 0
-354 288 325 0
-354 288 290 0
-354 290 325 0
354 -290 -325 0
354 -288 -325 0
354 -288 -290 0
-355 356 397 0
-355 -356 -397 0
355 -356 397 0
355 356 -397 0
356 -357 368 0
356 357 -368 0
-356 357 368 0
-356 -357 -368 0
-357 -358 -365 0
-357 358 365 0
357 358 -365 0
357 -358 365 0
-358 -359 -360 0
-358 359 360 0
358 359 -360 0
358 -359 360 0
-359 304 309 0
-359 308 304 0
-359 308 309 0
359 -308 -304 0
359 -304 -309 0
359 -308 -309 0
360 -361 364 0
360 361 -364 0
-360 361 364 0
-360 -361 -364 0
-361 316 362 363 0
-361 319 362 363 0
361 -363 0
361 -362 0
361 -316 -319 0
362 -318 -319 0
-362 318 0
-362 319 0
363 -316 -318 0
-363 316 0
-363 318 0
-364 321 324 0
-364 323 324 0
-364 321 323 0
364 -321 -323 0
364 -323 -324 0
364 -321 -324 0
365 -366 367 0
365 366 -367 0
-365 366 367 0
-365 -366 -367 0
-366 303 315 0
-366 315 320 0
-366 303 320 0
366 -303 -320 0
366 -315 -320 0
366 -303 -315 0
-367 293 295 0
-367 295 296 0
-367 293 296 0
367 -293 -296 0
367 -295 -296 0
367 -293 -295 0
-368 -369 -370 0
-368 369 370 0
368 369 -370 0
368 -369 370 0
-369 292 298 0
-369 298 299 0
-369 292 299 0
369 -292 -299 0
369 -298 -299 0
369 -292 -298 0
370 -371 386 0
370 371 -386 0
-370 371 386 0
-370 -371 -386 0
-371 -372 -375 0
-371 372 375 0
371 372 -375 0
371 -372 375 0
372 373 -374 0
372 -373 374 0
-372 -373 -374 0
-372 373 374 0
373 -901 -910 0
-373 901 0
-373 910 0
374 -900 -911 0
-374 900 0
-374 911 0
375 -376 381 0
375 376 -381 0
-375 376 381 0
-375 -376 -381 0
-376 -377 -378 0
-376 377 378 0
376 377 -378 0
376 -377 378 0
377 -899 -912 0
-377 899 0
-377 912 0
378 379 -380 0
378 -379 380 0
-378 -379 -380 0
-378 379 380 0
379 -898 -913 0
-379 898 0
-379 913 0
380 -897 -914 0
-380 897 0
-380 914 0
-381 -382 -383 0
-381 382 383 0
381 382 -383 0
381 -382 383 0
382 -896 -915 0
-382 896 0
-382 915 0
383 384 -385 0
383 -384 385 0
-383 -384 -385 0
-383 384 385 0
384 -895 -916 0
-384 895 0
-384 916 0
385 -894 -917 0
-385 894 0
-385 917 0
-386 387 392 0
-386 -387 -392 0
386 -387 392 0
386 387 -392 0
-387 388 389 0
-387 -388 -389 0
387 -388 389 0
387 388 -389 0
388 -897 -898 -912 -913 0
-388 913 0
-388 897 0
-388 912 0
-388 898 0
-389 -390 -391 0
-389 390 391 0
389 390 -391 0
389 -390 391 0
-390 310 313 0
-390 312 313 0
-390 310 312 0
390 -310 -312 0
390 -312 -313 0
390 -310 -313 0
391 -905 -906 0
-391 905 0
-391 906 0
-392 -393 -394 0
-392 393 394 0
392 393 -394 0
392 -393 394 0
393 -904 -907 0
-393 904 0
-393 907 0
394 395 -396 0
394 -395 396 0
-394 -395 -396 0
-394 395 396 0
395 -903 -908 0
-395 903 0
-395 908 0
396 -902 -909 0
-396 902 0
-396 909 0
-397 291 301 0
-397 301 302 0
-397 291 302 0
397 -301 -302 0
397 -291 -301 0
397 -291 -302 0
398 -399 400 0
398 399 -400 0
-398 399 400 0
-398 -399 -400 0
-399 327 330 0
-399 329 330 0
-399 329 327 0
399 -329 -330 0
399 -329 -327 0
399 -327 -330 0
-400 401 423 0
-400 -401 -423 0
400 -401 423 0
400 401 -423 0
401 -402 414 0
401 402 -414 0
-401 402 414 0
-401 -402 -414 0
-402 -403 -411 0
-402 403 411 0
402 403 -411 0
402 -403 411 0
-403 -404 -408 0
-403 404 408 0
403 404 -408 0
403 -404 408 0
-404 -405 -406 0
-404 405 406 0
404 405 -406 0
404 -405 406 0
-405 319 323 0
-405 321 323 0
-405 319 321 0
405 -319 -321 0
405 -321 -323 0
405 -319 -323 0
406 -390 407 0
406 390 -407 0
-406 390 407 0
-406 -390 -407 0
-407 912 324 0
-407 898 306 0
-407 306 324 0
-407 912 306 0
-407 898 324 0
407 -306 -324 0
407 -898 -912 -324 0
407 -898 -912 -306 0
408 -409 410 0
408 409 -410 0
-408 409 410 0
-408 -409 -410 0
-409 309 344 0
-409 344 347 0
-409 309 347 0
409 -309 -347 0
409 -344 -347 0
409 -309 -344 0
-410 349 351 0
-410 351 352 0
-410 349 352 0
410 -349 -352 0
410 -351 -352 0
410 -349 -351 0
411 -412 413 0
411 412 -413 0
-411 412 413 0
-411 -412 -413 0
412 -343 -348 0
-412 343 0
-412 348 0
-413 333 335 0
-413 335 336 0
-413 333 336 0
413 -335 -336 0
413 -333 -335 0
413 -333 -336 0
-414 -415 -416 0
-414 415 416 0
414 415 -416 0
414 -415 416 0
-415 332 339 0
-415 332 338 0
-415 338 339 0
415 -338 -339 0
415 -332 -339 0
415 -332 -338 0
416 417 -421 0
416 -417 421 0
-416 -417 -421 0
-416 417 421 0
417 -418 420 0
417 418 -420 0
-417 418 420 0
-417 -418 -420 0
-418 -391 -419 0
-418 391 419 0
418 391 -419 0
418 -391 419 0
419 393 -395 0
419 -393 395 0
-419 -393 -395 0
-419 393 395 0
-420 -372 -396 0
-420 372 396 0
420 372 -396 0
420 -372 396 0
421 -376 422 0
421 376 -422 0
-421 376 422 0
-421 -376 -422 0
-422 363 381 0
-422 -363 -381 0
422 -363 381 0
422 363 -381 0
-423 331 341 0
-423 341 342 0
-423 331 342 0
423 -341 -342 0
423 -331 -341 0
423 -331 -342 0
-424 425 468 494 616 0
-424 -425 -468 494 616 0
424 -616 0
424 -425 468 0
424 -494 0
424 425 -468 0
425 426 -427 0
425 -426 427 0
-425 -426 -427 0
-425 426 427 0
-426 354 397 0
-426 354 356 0
-426 356 397 0
426 -356 -397 0
426 -354 -397 0
426 -354 -356 0
427 -428 467 0
427 428 -467 0
-427 428 467 0
-427 -428 -467 0
428 -429 438 0
428 429 -438 0
-428 429 438 0
-428 -429 -438 0
-429 -430 -435 0
-429 430 435 0
429 430 -435 0
429 -430 435 0
-430 -431 -432 0
-430 431 432 0
430 431 -432 0
430 -431 432 0
-431 372 376 0
-431 376 381 0
-431 372 381 0
431 -376 -381 0
431 -372 -376 0
431 -372 -381 0
432 -433 434 0
432 433 -434 0
-432 433 434 0
-432 -433 -434 0
-433 390 391 0
-433 388 391 0
-433 388 390 0
433 -388 -391 0
433 -388 -390 0
433 -390 -391 0
-434 908 396 0
-434 903 393 0
-434 393 396 0
-434 908 393 0
-434 903 396 0
434 -393 -396 0
434 -903 -908 -396 0
434 -903 -908 -393 0
435 -436 437 0
435 436 -437 0
-435 436 437 0
-435 -436 -437 0
-436 371 387 0
-436 387 392 0
-436 371 392 0
436 -371 -392 0
436 -387 -392 0
436 -371 -387 0
-437 359 361 0
-437 361 364 0
-437 359 364 0
437 -359 -364 0
437 -361 -364 0
437 -359 -361 0
-438 -439 -440 0
-438 439 440 0
438 439 -440 0
438 -439 440 0
-439 358 366 0
-439 366 367 0
-439 358 367 0
439 -358 -367 0
439 -366 -367 0
439 -358 -366 0
440 -441 456 0
440 441 -456 0
-440 441 456 0
-440 -441 -456 0
-441 -442 -445 0
-441 442 445 0
441 442 -445 0
441 -442 445 0
442 443 -444 0
442 -443 444 0
-442 -443 -444 0
-442 443 444 0
443 -902 -910 0
-443 902 0
-443 910 0
444 -901 -911 0
-444 901 0
-444 911 0
445 -446 451 0
445 446 -451 0
-445 446 451 0
-445 -446 -451 0
-446 -447 -448 0
-446 447 448 0
446 447 -448 0
446 -447 448 0
447 -900 -912 0
-447 900 0
-447 912 0
448 449 -450 0
448 -449 450 0
-448 -449 -450 0
-448 449 450 0
449 -899 -913 0
-449 899 0
-449 913 0
450 -898 -914 0
-450 898 0
-450 914 0
-451 -452 -453 0
-451 452 453 0
451 452 -453 0
451 -452 453 0
452 -897 -915 0
-452 897 0
-452 915 0
453 454 -455 0
453 -454 455 0
-453 -454 -455 0
-453 454 455 0
454 -896 -916 0
-454 896 0
-454 916 0
455 -895 -917 0
-455 895 0
-455 917 0
-456 457 462 0
-456 -457 -462 0
456 -457 462 0
456 457 -462 0
-457 458 459 0
-457 -458 -459 0
457 -458 459 0
457 458 -459 0
458 -900 -901 -910 -911 0
-458 911 0
-458 900 0
-458 910 0
-458 901 0
-459 460 461 0
-459 -460 -461 0
459 -460 461 0
459 460 -461 0
-460 377 380 0
-460 379 380 0
-460 377 379 0
460 -377 -379 0
460 -379 -380 0
460 -377 -380 0
-461 382 385 0
-461 384 385 0
-461 382 384 0
461 -382 -384 0
461 -384 -385 0
461 -382 -385 0
-462 -463 -464 0
-462 463 464 0
462 463 -464 0
462 -463 464 0
463 -905 -907 0
-463 905 0
-463 907 0
464 465 -466 0
464 -465 466 0
-464 -465 -466 0
-464 465 466 0
465 -904 -908 0
-465 904 0
-465 908 0
466 -903 -909 0
-466 903 0
-466 909 0
-467 357 369 0
-467 369 370 0
-467 357 370 0
467 -369 -370 0
467 -357 -369 0
467 -357 -370 0
468 -469 470 0
468 469 -470 0
-468 469 470 0
-468 -469 -470 0
-469 399 423 0
-469 399 401 0
-469 401 423 0
469 -401 -423 0
469 -399 -423 0
469 -399 -401 0
-470 471 493 0
-470 -471 -493 0
470 -471 493 0
470 471 -493 0
471 -472 481 0
471 472 -481 0
-471 472 481 0
-471 -472 -481 0
-472 -473 -478 0
-472 473 478 0
472 473 -478 0
472 -473 478 0
-473 474 475 0
-473 -474 -475 0
473 -474 475 0
473 474 -475 0
474 -418 -420 0
-474 418 0
-474 420 0
-475 476 477 0
-475 -476 -477 0
475 -476 477 0
475 476 -477 0
-476 363 376 0
-476 376 381 0
-476 363 381 0
476 -376 -381 0
476 -363 -376 0
476 -363 -381 0
-477 390 405 0
-477 405 407 0
-477 390 407 0
477 -390 -407 0
477 -405 -407 0
477 -390 -405 0
478 -479 480 0
478 479 -480 0
-478 479 480 0
-478 -479 -480 0
479 -417 -421 0
-479 417 0
-479 421 0
-480 404 409 0
-480 409 410 0
-480 404 410 0
480 -404 -410 0
480 -409 -410 0
480 -404 -409 0
-481 -482 -483 0
-481 482 483 0
481 482 -483 0
481 -482 483 0
-482 412 403 0
-482 403 413 0
-482 412 413 0
482 -403 -413 0
482 -412 -403 0
482 -412 -413 0
483 484 -487 0
483 -484 487 0
-483 -484 -487 0
-483 484 487 0
484 -485 486 0
484 485 -486 0
-484 485 486 0
-484 -485 -486 0
485 463 -465 0
485 -463 465 0
-485 -463 -465 0
-485 463 465 0
-486 -442 -466 0
-486 442 466 0
486 442 -466 0
486 -442 466 0
487 488 -491 0
487 -488 491 0
-487 -488 -491 0
-487 488 491 0
488 -446 489 0
488 446 -489 0
-488 446 489 0
-488 -446 -489 0
-489 451 490 0
-489 -451 -490 0
489 -451 490 0
489 451 -490 0
-490 391 395 0
-490 393 395 0
-490 391 393 0
490 -391 -393 0
490 -393 -395 0
490 -391 -395 0
491 -459 492 0
491 459 -492 0
-491 459 492 0
-491 -459 -492 0
-492 458 396 0
-492 373 374 458 0
492 -458 0
492 -374 -396 0
492 -373 -396 0
-493 402 415 0
-493 415 416 0
-493 402 416 0
493 -415 -416 0
493 -402 -415 0
493 -402 -416 0
-494 495 536 -559 -596 0
-494 -495 -536 -559 -596 0
-494 495 536 559 596 0
-494 -495 -536 559 596 0
494 495 -536 0
494 -495 536 0
494 559 -596 0
494 -559 596 0
495 496 -497 0
495 -496 497 0
-495 -496 -497 0
-495 496 497 0
-496 426 467 0
-496 426 428 0
-496 428 467 0
496 -428 -467 0
496 -426 -467 0
496 -426 -428 0
497 -498 535 0
497 498 -535 0
-497 498 535 0
-497 -498 -535 0
498 -499 508 0
498 499 -508 0
-498 499 508 0
-498 -499 -508 0
-499 -500 -505 0
-499 500 505 0
499 500 -505 0
499 -500 505 0
-500 -501 -502 0
-500 501 502 0
500 501 -502 0
500 -501 502 0
-501 442 446 0
-501 446 451 0
-501 442 451 0
501 -446 -451 0
501 -442 -446 0
501 -442 -451 0
502 -503 504 0
502 503 -504 0
-502 503 504 0
-502 -503 -504 0
-503 458 460 0
-503 460 461 0
-503 458 461 0
503 -460 -461 0
503 -458 -460 0
503 -458 -461 0
-504 463 466 0
-504 465 466 0
-504 463 465 0
504 -463 -465 0
504 -465 -466 0
504 -463 -466 0
505 -506 507 0
505 506 -507 0
-505 506 507 0
-505 -506 -507 0
-506 441 457 0
-506 457 462 0
-506 441 462 0
506 -441 -462 0
506 -457 -462 0
506 -441 -457 0
-507 431 433 0
-507 433 434 0
-507 431 434 0
507 -431 -434 0
507 -433 -434 0
507 -431 -433 0
-508 -509 -510 0
-508 509 510 0
508 509 -510 0
508 -509 510 0
-509 430 436 0
-509 436 437 0
-509 430 437 0
509 -430 -437 0
509 -436 -437 0
509 -430 -436 0
510 -511 524 0
510 511 -524 0
-510 511 524 0
-510 -511 -524 0
-511 -512 -517 0
-511 512 517 0
511 512 -517 0
511 -512 517 0
-512 -513 -514 0
-512 513 514 0
512 513 -514 0
512 -513 514 0
513 -901 -912 0
-513 901 0
-513 912 0
514 515 -516 0
514 -515 516 0
-514 -515 -516 0
-514 515 516 0
515 -900 -913 0
-515 900 0
-515 913 0
516 -899 -914 0
-516 899 0
-516 914 0
517 -518 519 0
517 518 -519 0
-517 518 519 0
-517 -518 -519 0
518 -901 -902 -910 -911 0
-518 911 0
-518 901 0
-518 910 0
-518 902 0
-519 -520 -521 0
-519 520 521 0
519 520 -521 0
519 -520 521 0
520 -898 -915 0
-520 898 0
-520 915 0
521 522 -523 0
521 -522 523 0
-521 -522 -523 0
-521 522 523 0
522 -897 -916 0
-522 897 0
-522 916 0
523 -896 -917 0
-523 896 0
-523 917 0
-524 525 530 0
-524 -525 -530 0
524 -525 530 0
524 525 -530 0
525 -526 527 0
525 526 -527 0
-525 526 527 0
-525 -526 -527 0
-526 913 450 0
-526 899 447 0
-526 447 450 0
-526 913 447 0
-526 899 450 0
526 -447 -450 0
526 -899 -913 -450 0
526 -899 -913 -447 0
-527 -528 -529 0
-527 528 529 0
527 528 -529 0
527 -528 529 0
-528 452 455 0
-528 454 455 0
-528 452 454 0
528 -452 -454 0
528 -454 -455 0
528 -452 -455 0
529 -905 -908 0
-529 905 0
-529 908 0
-530 -531 -532 0
-530 531 532 0
530 531 -532 0
530 -531 532 0
531 -904 -909 0
-531 904 0
-531 909 0
532 533 -534 0
532 -533 534 0
-532 -533 -534 0
-532 533 534 0
533 -903 -910 0
-533 903 0
-533 910 0
534 -902 -911 0
-534 902 0
-534 911 0
-535 429 439 0
-535 439 440 0
-535 429 440 0
535 -439 -440 0
535 -429 -439 0
535 -429 -440 0
536 -537 538 0
536 537 -538 0
-536 537 538 0
-536 -537 -538 0
-537 469 493 0
-537 469 471 0
-537 471 493 0
537 -471 -493 0
537 -469 -493 0
537 -469 -471 0
-538 539 558 0
-538 -539 -558 0
538 -539 558 0
538 539 -558 0
539 -540 549 0
539 540 -549 0
-539 540 549 0
-539 -540 -549 0
-540 -541 -546 0
-540 541 546 0
540 541 -546 0
540 -541 546 0
-541 542 543 0
-541 -542 -543 0
541 -542 543 0
541 542 -543 0
542 -485 -486 0
-542 485 0
-542 486 0
-543 544 545 0
-543 -544 -545 0
543 -544 545 0
543 544 -545 0
-544 446 451 0
-544 451 490 0
-544 446 490 0
544 -446 -490 0
544 -451 -490 0
544 -446 -451 0
-545 460 461 0
-545 461 492 0
-545 460 492 0
545 -460 -492 0
545 -461 -492 0
545 -460 -461 0
546 -547 548 0
546 547 -548 0
-546 547 548 0
-546 -547 -548 0
-547 484 488 0
-547 459 488 492 0
-547 -459 484 -492 0
-547 -459 488 -492 0
-547 459 484 492 0
547 -484 -488 0
547 -459 -484 492 0
547 459 -488 -492 0
547 459 -484 -492 0
547 -459 -488 492 0
-548 474 476 0
-548 476 477 0
-548 474 477 0
548 -476 -477 0
548 -474 -476 0
548 -474 -477 0
-549 -550 -551 0
-549 550 551 0
549 550 -551 0
549 -550 551 0
-550 479 473 0
-550 473 480 0
-550 479 480 0
550 -473 -480 0
550 -479 -473 0
550 -479 -480 0
551 552 -553 0
551 -552 553 0
-551 -552 -553 0
-551 552 553 0
552 -512 530 0
552 512 -530 0
-552 512 530 0
-552 -512 -530 0
553 525 -554 0
553 -525 554 0
-553 -525 -554 0
-553 525 554 0
554 519 -555 0
554 -519 555 0
-554 -519 -555 0
-554 519 555 0
555 -556 557 0
555 556 -557 0
-555 556 557 0
-555 -556 -557 0
556 -463 -465 0
-556 463 0
-556 465 0
-557 910 466 0
-557 902 444 0
-557 444 466 0
-557 910 444 0
-557 902 466 0
557 -444 -466 0
557 -902 -910 -466 0
557 -902 -910 -444 0
-558 472 482 0
-558 482 483 0
-558 472 483 0
558 -482 -483 0
558 -472 -482 0
558 -472 -483 0
559 560 -561 0
559 -560 561 0
-559 -560 -561 0
-559 560 561 0
-560 496 535 0
-560 496 498 0
-560 498 535 0
560 -498 -535 0
560 -496 -535 0
560 -496 -498 0
561 -562 595 0
561 562 -595 0
-561 562 595 0
-561 -562 -595 0
562 -563 572 0
562 563 -572 0
-562 563 572 0
-562 -563 -572 0
-563 -564 -569 0
-563 564 569 0
563 564 -569 0
563 -564 569 0
-564 -565 -566 0
-564 565 566 0
564 565 -566 0
564 -565 566 0
-565 518 512 0
-565 512 519 0
-565 518 519 0
565 -512 -519 0
565 -518 -512 0
565 -518 -519 0
566 -567 568 0
566 567 -568 0
-566 567 568 0
-566 -567 -568 0
-567 526 528 0
-567 528 529 0
-567 526 529 0
567 -528 -529 0
567 -526 -528 0
567 -526 -529 0
-568 531 534 0
-568 533 534 0
-568 531 533 0
568 -531 -533 0
568 -533 -534 0
568 -531 -534 0
569 -570 571 0
569 570 -571 0
-569 570 571 0
-569 -570 -571 0
-570 511 530 0
-570 511 525 0
-570 525 530 0
570 -525 -530 0
570 -511 -530 0
570 -511 -525 0
-571 501 503 0
-571 503 504 0
-571 501 504 0
571 -501 -504 0
571 -503 -504 0
571 -501 -503 0
-572 -573 -574 0
-572 573 574 0
572 573 -574 0
572 -573 574 0
-573 500 506 0
-573 506 507 0
-573 500 507 0
573 -500 -507 0
573 -506 -507 0
573 -500 -506 0
574 575 -584 0
574 -575 584 0
-574 -575 -584 0
-574 575 584 0
-575 -576 -581 0
-575 576 581 0
575 576 -581 0
575 -576 581 0
-576 -577 -578 0
-576 577 578 0
576 577 -578 0
576 -577 578 0
577 -899 -915 0
-577 899 0
-577 915 0
578 579 -580 0
578 -579 580 0
-578 -579 -580 0
-578 579 580 0
579 -898 -916 0
-579 898 0
-579 916 0
580 -897 -917 0
-580 897 0
-580 917 0
581 -582 583 0
581 582 -583 0
-581 582 583 0
-581 -582 -583 0
-582 513 516 0
-582 515 516 0
-582 513 515 0
582 -513 -515 0
582 -515 -516 0
582 -513 -516 0
-583 916 523 0
-583 897 520 0
-583 520 523 0
-583 916 520 0
-583 897 523 0
583 -520 -523 0
583 -897 -916 -523 0
583 -897 -916 -520 0
584 -585 590 0
584 585 -590 0
-584 585 590 0
-584 -585 -590 0
-585 -586 -587 0
-585 586 587 0
585 586 -587 0
585 -586 587 0
586 -905 -909 0
-586 905 0
-586 909 0
587 588 -589 0
587 -588 589 0
-587 -588 -589 0
-587 588 589 0
588 -904 -910 0
-588 904 0
-588 910 0
589 -903 -911 0
-589 903 0
-589 911 0
-590 -591 -592 0
-590 591 592 0
590 591 -592 0
590 -591 592 0
591 -902 -912 0
-591 902 0
-591 912 0
592 593 -594 0
592 -593 594 0
-592 -593 -594 0
-592 593 594 0
593 -901 -913 0
-593 901 0
-593 913 0
594 -900 -914 0
-594 900 0
-594 914 0
-595 499 509 0
-595 509 510 0
-595 499 510 0
595 -509 -510 0
595 -499 -509 0
595 -499 -510 0
596 -597 598 0
596 597 -598 0
-596 597 598 0
-596 -597 -598 0
-597 537 558 0
-597 537 539 0
-597 539 558 0
597 -539 -558 0
597 -537 -558 0
597 -537 -539 0
-598 599 615 0
-598 -599 -615 0
598 -599 615 0
598 599 -615 0
599 -600 608 0
599 600 -608 0
-599 600 608 0
-599 -600 -608 0
-600 -601 -605 0
-600 601 605 0
600 601 -605 0
600 -601 605 0
-601 602 603 0
-601 -602 -603 0
601 -602 603 0
601 602 -603 0
602 -512 -530 0
-602 512 0
-602 530 0
-603 567 604 0
-603 -567 -604 0
603 -567 604 0
603 567 -604 0
-604 556 519 0
-604 519 557 0
-604 556 557 0
604 -519 -557 0
604 -556 -519 0
604 -556 -557 0
605 -606 607 0
605 606 -607 0
-605 606 607 0
-605 -606 -607 0
-606 525 554 0
-606 552 554 0
-606 525 552 0
606 -525 -552 0
606 -552 -554 0
606 -525 -554 0
-607 542 544 0
-607 544 545 0
-607 542 545 0
607 -544 -545 0
607 -542 -544 0
607 -542 -545 0
-608 -609 -610 0
-608 609 610 0
608 609 -610 0
608 -609 610 0
-609 541 547 0
-609 547 548 0
-609 541 548 0
609 -541 -548 0
609 -547 -548 0
609 -541 -547 0
610 611 -613 0
610 -611 613 0
-610 -611 -613 0
-610 611 613 0
-611 -585 -612 0
-611 585 612 0
611 585 -612 0
611 -585 612 0
612 -576 590 0
612 576 -590 0
-612 576 590 0
-612 -576 -590 0
613 -568 614 0
613 568 -614 0
-613 568 614 0
-613 -568 -614 0
-614 582 583 0
-614 -582 -583 0
614 -582 583 0
614 582 -583 0
-615 540 550 0
-615 550 551 0
-615 540 551 0
615 -550 -551 0
615 -540 -550 0
615 -540 -551 0
-616 -617 -650 668 0
-616 617 650 668 0
616 -668 0
616 -617 650 0
616 617 -650 0
617 -618 619 0
617 618 -619 0
-617 618 619 0
-617 -618 -619 0
-618 560 595 0
-618 560 562 0
-618 562 595 0
618 -562 -595 0
618 -560 -595 0
618 -560 -562 0
-619 620 649 0
-619 -620 -649 0
619 -620 649 0
619 620 -649 0
620 -621 630 0
620 621 -630 0
-620 621 630 0
-620 -621 -630 0
-621 -622 -627 0
-621 622 627 0
621 622 -627 0
621 -622 627 0
-622 -623 -624 0
-622 623 624 0
622 623 -624 0
622 -623 624 0
-623 576 582 0
-623 582 583 0
-623 576 583 0
623 -576 -583 0
623 -582 -583 0
623 -576 -582 0
624 -625 626 0
624 625 -626 0
-624 625 626 0
-624 -625 -626 0
-625 910 589 0
-625 904 586 0
-625 586 589 0
-625 910 586 0
-625 904 589 0
625 -586 -589 0
625 -904 -910 -589 0
625 -904 -910 -586 0
-626 591 594 0
-626 593 594 0
-626 591 593 0
626 -591 -593 0
626 -593 -594 0
626 -591 -594 0
627 -628 629 0
627 628 -629 0
-627 628 629 0
-627 -628 -629 0
-628 575 585 0
-628 585 590 0
-628 575 590 0
628 -575 -590 0
628 -585 -590 0
628 -575 -585 0
-629 565 567 0
-629 567 568 0
-629 565 568 0
629 -565 -568 0
629 -567 -568 0
629 -565 -567 0
-630 -631 -632 0
-630 631 632 0
630 631 -632 0
630 -631 632 0
-631 564 570 0
-631 570 571 0
-631 564 571 0
631 -564 -571 0
631 -570 -571 0
631 -564 -570 0
632 633 -638 0
632 -633 638 0
-632 -633 -638 0
-632 633 638 0
-633 -634 -635 0
-633 634 635 0
633 634 -635 0
633 -634 635 0
-634 916 580 0
-634 898 577 0
-634 577 580 0
-634 916 577 0
-634 898 580 0
634 -577 -580 0
634 -898 -916 -580 0
634 -898 -916 -577 0
635 636 -637 0
635 -636 637 0
-635 -636 -637 0
-635 636 637 0
636 -905 -910 0
-636 905 0
-636 910 0
637 -904 -911 0
-637 904 0
-637 911 0
638 -639 644 0
638 639 -644 0
-638 639 644 0
-638 -639 -644 0
-639 -640 -641 0
-639 640 641 0
639 640 -641 0
639 -640 641 0
640 -903 -912 0
-640 903 0
-640 912 0
641 642 -643 0
641 -642 643 0
-641 -642 -643 0
-641 642 643 0
642 -902 -913 0
-642 902 0
-642 913 0
643 -901 -914 0
-643 901 0
-643 914 0
-644 -645 -646 0
-644 645 646 0
644 645 -646 0
644 -645 646 0
645 -900 -915 0
-645 900 0
-645 915 0
646 647 -648 0
646 -647 648 0
-646 -647 -648 0
-646 647 648 0
647 -899 -916 0
-647 899 0
-647 916 0
648 -898 -917 0
-648 898 0
-648 917 0
-649 563 573 0
-649 573 574 0
-649 563 574 0
649 -573 -574 0
649 -563 -573 0
649 -563 -574 0
650 -651 652 0
650 651 -652 0
-650 651 652 0
-650 -651 -652 0
-651 597 615 0
-651 597 599 0
-651 599 615 0
651 -599 -615 0
651 -597 -615 0
651 -597 -599 0
-652 653 667 0
-652 -653 -667 0
652 -653 667 0
652 653 -667 0
653 -654 659 0
653 654 -659 0
-653 654 659 0
-653 -654 -659 0
-654 655 656 0
-654 -655 -656 0
654 -655 656 0
654 655 -656 0
655 -611 -613 0
-655 611 0
-655 613 0
-656 -657 -658 0
-656 657 658 0
656 657 -658 0
656 -657 658 0
-657 602 567 0
-657 567 604 0
-657 602 604 0
657 -567 -604 0
657 -602 -567 0
657 -602 -604 0
658 635 -638 0
658 -635 638 0
-658 -635 -638 0
-658 635 638 0
-659 -660 -661 0
-659 660 661 0
659 660 -661 0
659 -660 661 0
-660 601 606 0
-660 606 607 0
-660 601 607 0
660 -601 -607 0
660 -606 -607 0
660 -601 -606 0
661 -662 664 0
661 662 -664 0
-661 662 664 0
-661 -662 -664 0
-662 -625 -663 0
-662 625 663 0
662 625 -663 0
662 -625 663 0
663 -626 634 0
663 626 -634 0
-663 626 634 0
-663 -626 -634 0
-664 665 666 0
-664 -665 -666 0
664 -665 666 0
664 665 -666 0
-665 576 585 0
-665 585 590 0
-665 576 590 0
665 -576 -590 0
665 -585 -590 0
665 -576 -585 0
-666 568 582 0
-666 582 583 0
-666 568 583 0
666 -568 -583 0
666 -582 -583 0
666 -568 -582 0
-667 600 609 0
-667 609 610 0
-667 600 610 0
667 -609 -610 0
667 -600 -609 0
667 -600 -610 0
-668 669 698 -716 -741 0
-668 -669 -698 -716 -741 0
-668 669 698 716 741 0
-668 -669 -698 716 741 0
668 669 -698 0
668 -669 698 0
668 716 -741 0
668 -716 741 0
669 -670 671 0
669 670 -671 0
-669 670 671 0
-669 -670 -671 0
-670 618 649 0
-670 618 620 0
-670 620 649 0
670 -620 -649 0
670 -618 -649 0
670 -618 -620 0
-671 672 697 0
-671 -672 -697 0
671 -672 697 0
671 672 -697 0
672 -673 682 0
672 673 -682 0
-672 673 682 0
-672 -673 -682 0
-673 -674 -679 0
-673 674 679 0
673 674 -679 0
673 -674 679 0
-674 675 676 0
-674 -675 -676 0
674 -675 676 0
674 675 -676 0
-675 913 643 0
-675 902 640 0
-675 640 643 0
-675 913 640 0
-675 902 643 0
675 -640 -643 0
675 -902 -913 -643 0
675 -902 -913 -640 0
-676 -677 -678 0
-676 677 678 0
676 677 -678 0
676 -677 678 0
-677 645 648 0
-677 647 648 0
-677 645 647 0
677 -645 -647 0
677 -647 -648 0
677 -645 -648 0
678 -905 -911 0
-678 905 0
-678 911 0
679 -680 681 0
679 680 -681 0
-679 680 681 0
-679 -680 -681 0
-680 633 639 0
-680 639 644 0
-680 633 644 0
680 -633 -644 0
680 -639 -644 0
680 -633 -639 0
-681 623 625 0
-681 625 626 0
-681 623 626 0
681 -623 -626 0
681 -625 -626 0
681 -623 -625 0
-682 -683 -684 0
-682 683 684 0
682 683 -684 0
682 -683 684 0
-683 622 628 0
-683 628 629 0
-683 622 629 0
683 -622 -629 0
683 -628 -629 0
683 -622 -628 0
684 -685 690 0
684 685 -690 0
-684 685 690 0
-684 -685 -690 0
-685 -686 -687 0
-685 686 687 0
685 686 -687 0
685 -686 687 0
686 -904 -912 0
-686 904 0
-686 912 0
687 688 -689 0
687 -688 689 0
-687 -688 -689 0
-687 688 689 0
688 -903 -913 0
-688 903 0
-688 913 0
689 -902 -914 0
-689 902 0
-689 914 0
-690 691 696 0
-690 -691 -696 0
690 -691 696 0
690 691 -696 0
-691 -692 -693 0
-691 692 693 0
691 692 -693 0
691 -692 693 0
692 -901 -915 0
-692 901 0
-692 915 0
693 694 -695 0
693 -694 695 0
-693 -694 -695 0
-693 694 695 0
694 -900 -916 0
-694 900 0
-694 916 0
695 -899 -917 0
-695 899 0
-695 917 0
-696 636 637 0
-696 634 636 0
-696 634 637 0
696 -634 -636 0
696 -636 -637 0
696 -634 -637 0
-697 621 631 0
-697 631 632 0
-697 621 632 0
697 -631 -632 0
697 -621 -631 0
697 -621 -632 0
698 -699 700 0
698 699 -700 0
-698 699 700 0
-698 -699 -700 0
-699 651 667 0
-699 651 653 0
-699 653 667 0
699 -653 -667 0
699 -651 -667 0
699 -651 -653 0
-700 701 715 0
-700 -701 -715 0
700 -701 715 0
700 701 -715 0
701 -702 714 0
701 702 -714 0
-701 702 714 0
-701 -702 -714 0
-702 -703 -709 0
-702 703 709 0
702 703 -709 0
702 -703 709 0
-703 -704 -706 0
-703 704 706 0
703 704 -706 0
703 -704 706 0
-704 -675 -705 0
-704 675 705 0
704 675 -705 0
704 -675 705 0
705 677 -678 0
705 -677 678 0
-705 -677 -678 0
-705 677 678 0
706 -707 708 0
706 707 -708 0
-706 707 708 0
-706 -707 -708 0
-707 635 639 0
-707 639 644 0
-707 635 644 0
707 -639 -644 0
707 -635 -639 0
707 -635 -644 0
-708 625 626 0
-708 626 634 0
-708 625 634 0
708 -625 -634 0
708 -626 -634 0
708 -625 -626 0
709 710 -711 0
709 -710 711 0
-709 -710 -711 0
-709 710 711 0
-710 662 665 0
-710 665 666 0
-710 662 666 0
710 -662 -666 0
710 -665 -666 0
710 -662 -665 0
711 -685 712 0
711 685 -712 0
-711 685 712 0
-711 -685 -712 0
-712 713 691 0
-712 -713 -691 0
712 -713 691 0
712 713 -691 0
713 -904 -905 -910 -911 0
-713 911 0
-713 904 0
-713 910 0
-713 905 0
-714 657 658 0
-714 655 658 0
-714 655 657 0
714 -655 -658 0
714 -655 -657 0
714 -657 -658 0
-715 654 660 0
-715 660 661 0
-715 654 661 0
715 -660 -661 0
715 -654 -660 0
715 -654 -661 0
716 -717 718 0
716 717 -718 0
-716 717 718 0
-716 -717 -718 0
-717 670 697 0
-717 670 672 0
-717 672 697 0
717 -672 -697 0
717 -670 -697 0
717 -670 -672 0
-718 719 740 0
-718 -719 -740 0
718 -719 740 0
718 719 -740 0
719 -720 729 0
719 720 -729 0
-719 720 729 0
-719 -720 -729 0
-720 -721 -726 0
-720 721 726 0
720 721 -726 0
720 -721 726 0
-721 -722 -723 0
-721 722 723 0
721 722 -723 0
721 -722 723 0
722 -905 -912 0
-722 905 0
-722 912 0
723 724 -725 0
723 -724 725 0
-723 -724 -725 0
-723 724 725 0
724 -904 -913 0
-724 904 0
-724 913 0
725 -903 -914 0
-725 903 0
-725 914 0
726 -727 728 0
726 727 -728 0
-726 727 728 0
-726 -727 -728 0
-727 685 691 0
-727 691 696 0
-727 685 696 0
727 -685 -696 0
727 -691 -696 0
727 -685 -691 0
-728 675 677 0
-728 677 678 0
-728 675 678 0
728 -677 -678 0
728 -675 -677 0
728 -675 -678 0
-729 -730 -731 0
-729 730 731 0
729 730 -731 0
729 -730 731 0
-730 674 680 0
-730 680 681 0
-730 674 681 0
730 -674 -681 0
730 -680 -681 0
730 -674 -680 0
731 -732 737 0
731 732 -737 0
-731 732 737 0
-731 -732 -737 0
-732 -733 -734 0
-732 733 734 0
732 733 -734 0
732 -733 734 0
733 -902 -915 0
-733 902 0
-733 915 0
734 735 -736 0
734 -735 736 0
-734 -735 -736 0
-734 735 736 0
735 -901 -916 0
-735 901 0
-735 916 0
736 -900 -917 0
-736 900 0
-736 917 0
-737 738 739 0
-737 -738 -739 0
737 -738 739 0
737 738 -739 0
-738 913 689 0
-738 903 686 0
-738 686 689 0
-738 913 686 0
-738 903 689 0
738 -686 -689 0
738 -903 -913 -689 0
738 -903 -913 -686 0
-739 692 695 0
-739 694 695 0
-739 692 694 0
739 -692 -694 0
739 -694 -695 0
739 -692 -695 0
-740 673 683 0
-740 683 684 0
-740 673 684 0
740 -683 -684 0
740 -673 -683 0
740 -673 -684 0
741 -742 743 0
741 742 -743 0
-741 742 743 0
-741 -742 -743 0
-742 699 715 0
-742 699 701 0
-742 701 715 0
742 -701 -715 0
742 -699 -715 0
742 -699 -701 0
-743 -744 -745 0
-743 744 745 0
743 744 -745 0
743 -744 745 0
744 -702 -714 0
-744 702 0
-744 714 0
745 -746 752 0
745 746 -752 0
-745 746 752 0
-745 -746 -752 0
-746 -747 -750 0
-746 747 750 0
746 747 -750 0
746 -747 750 0
-747 -748 -749 0
-747 748 749 0
747 748 -749 0
747 -748 749 0
-748 713 685 0
-748 685 691 0
-748 713 691 0
748 -685 -691 0
748 -713 -685 0
748 -713 -691 0
749 -721 728 0
749 721 -728 0
-749 721 728 0
-749 -721 -728 0
750 -731 751 0
750 731 -751 0
-750 731 751 0
-750 -731 -751 0
-751 704 707 0
-751 707 708 0
-751 704 708 0
751 -704 -708 0
751 -707 -708 0
751 -704 -707 0
-752 703 710 0
-752 710 711 0
-752 703 711 0
752 -710 -711 0
752 -703 -710 0
752 -703 -711 0
-753 754 775 787 844 0
-753 -754 -775 787 844 0
753 -844 0
753 -754 775 0
753 -787 0
753 754 -775 0
754 -755 756 0
754 755 -756 0
-754 755 756 0
-754 -755 -756 0
-755 717 740 0
-755 717 719 0
-755 719 740 0
755 -719 -740 0
755 -717 -740 0
755 -717 -719 0
-756 757 774 0
-756 -757 -774 0
756 -757 774 0
756 757 -774 0
757 -758 767 0
757 758 -767 0
-757 758 767 0
-757 -758 -767 0
-758 -759 -764 0
-758 759 764 0
758 759 -764 0
758 -759 764 0
-759 -760 -761 0
-759 760 761 0
759 760 -761 0
759 -760 761 0
760 -903 -915 0
-760 903 0
-760 915 0
761 762 -763 0
761 -762 763 0
-761 -762 -763 0
-761 762 763 0
762 -902 -916 0
-762 902 0
-762 916 0
763 -901 -917 0
-763 901 0
-763 917 0
764 -765 766 0
764 765 -766 0
-764 765 766 0
-764 -765 -766 0
-765 732 738 0
-765 738 739 0
-765 732 739 0
765 -732 -739 0
765 -738 -739 0
765 -732 -738 0
-766 722 725 0
-766 724 725 0
-766 722 724 0
766 -722 -724 0
766 -724 -725 0
766 -722 -725 0
-767 -768 -769 0
-767 768 769 0
767 768 -769 0
767 -768 769 0
-768 721 727 0
-768 727 728 0
-768 721 728 0
768 -721 -728 0
768 -727 -728 0
768 -721 -727 0
769 770 -771 0
769 -770 771 0
-769 -770 -771 0
-769 770 771 0
-770 733 736 0
-770 735 736 0
-770 733 735 0
770 -733 -735 0
770 -735 -736 0
770 -733 -736 0
771 772 -773 0
771 -772 773 0
-771 -772 -773 0
-771 772 773 0
772 -905 -913 0
-772 905 0
-772 913 0
773 -904 -914 0
-773 904 0
-773 914 0
-774 720 730 0
-774 730 731 0
-774 720 731 0
774 -730 -731 0
774 -720 -730 0
774 -720 -731 0
775 -776 777 0
775 776 -777 0
-775 776 777 0
-775 -776 -777 0
-776 742 745 0
-776 744 745 0
-776 744 742 0
776 -744 -745 0
776 -744 -742 0
776 -742 -745 0
-777 -778 -779 0
-777 778 779 0
777 778 -779 0
777 -778 779 0
778 -746 -752 0
-778 746 0
-778 752 0
779 -780 786 0
779 780 -786 0
-779 780 786 0
-779 -780 -786 0
-780 781 785 0
-780 -781 -785 0
780 -781 785 0
780 781 -785 0
-781 -782 -784 0
-781 782 784 0
781 782 -784 0
781 -782 784 0
-782 -759 -783 0
-782 759 783 0
782 759 -783 0
782 -759 783 0
783 -766 770 0
783 766 -770 0
-783 766 770 0
-783 -766 -770 0
784 765 -771 0
784 -765 771 0
-784 -765 -771 0
-784 765 771 0
-785 721 728 0
-785 728 748 0
-785 721 748 0
785 -721 -748 0
785 -728 -748 0
785 -721 -728 0
-786 731 747 0
-786 747 751 0
-786 731 751 0
786 -747 -751 0
786 -731 -747 0
786 -731 -751 0
-787 788 805 -820 -833 0
-787 -788 -805 -820 -833 0
-787 788 805 820 833 0
-787 -788 -805 820 833 0
787 788 -805 0
787 -788 805 0
787 820 -833 0
787 -820 833 0
788 -789 790 0
788 789 -790 0
-788 789 790 0
-788 -789 -790 0
-789 755 774 0
-789 755 757 0
-789 757 774 0
789 -757 -774 0
789 -755 -774 0
789 -755 -757 0
-790 791 804 0
-790 -791 -804 0
790 -791 804 0
790 791 -804 0
791 -792 797 0
791 792 -797 0
-791 792 797 0
-791 -792 -797 0
-792 -793 -794 0
-792 793 794 0
792 793 -794 0
792 -793 794 0
-793 772 773 0
-793 770 772 0
-793 770 773 0
793 -770 -772 0
793 -772 -773 0
793 -770 -773 0
794 795 -796 0
794 -795 796 0
-794 -795 -796 0
-794 795 796 0
-795 760 763 0
-795 762 763 0
-795 760 762 0
795 -760 -762 0
795 -762 -763 0
795 -760 -763 0
796 -905 -914 0
-796 905 0
-796 914 0
-797 -798 -799 0
-797 798 799 0
797 798 -799 0
797 -798 799 0
-798 759 765 0
-798 765 766 0
-798 759 766 0
798 -759 -766 0
798 -765 -766 0
798 -759 -765 0
799 800 -801 0
799 -800 801 0
-799 -800 -801 0
-799 800 801 0
800 -904 -915 0
-800 904 0
-800 915 0
801 802 -803 0
801 -802 803 0
-801 -802 -803 0
-801 802 803 0
802 -903 -916 0
-802 903 0
-802 916 0
803 -902 -917 0
-803 902 0
-803 917 0
-804 758 768 0
-804 768 769 0
-804 758 769 0
804 -768 -769 0
804 -758 -768 0
804 -758 -769 0
805 -806 807 0
805 806 -807 0
-805 806 807 0
-805 -806 -807 0
-806 776 779 0
-806 778 779 0
-806 778 776 0
806 -778 -779 0
806 -778 -776 0
806 -776 -779 0
-807 808 809 0
-807 -808 -809 0
807 -808 809 0
807 808 -809 0
808 -780 -786 0
-808 780 0
-808 786 0
-809 -810 -819 0
-809 810 819 0
809 810 -819 0
809 -810 819 0
-810 811 818 0
-810 -811 -818 0
810 -811 818 0
810 811 -818 0
-811 -812 -815 0
-811 812 815 0
811 812 -815 0
811 -812 815 0
-812 813 814 0
-812 -813 -814 0
812 -813 814 0
812 813 -814 0
813 -904 -905 -913 -914 0
-813 914 0
-813 904 0
-813 913 0
-813 905 0
-814 -795 -796 0
-814 795 796 0
814 795 -796 0
814 -795 796 0
815 -816 817 0
815 816 -817 0
-815 816 817 0
-815 -816 -817 0
-816 759 766 0
-816 766 770 0
-816 759 770 0
816 -759 -770 0
816 -766 -770 0
816 -759 -766 0
-817 -800 -801 0
-817 800 801 0
817 800 -801 0
817 -800 801 0
-818 765 782 0
-818 765 771 0
-818 771 782 0
818 -771 -782 0
818 -765 -782 0
818 -765 -771 0
819 -781 -785 0
-819 781 0
-819 785 0
820 -821 822 0
820 821 -822 0
-820 821 822 0
-820 -821 -822 0
-821 789 804 0
-821 789 791 0
-821 791 804 0
821 -791 -804 0
821 -789 -804 0
821 -789 -791 0
-822 823 832 0
-822 -823 -832 0
822 -823 832 0
822 823 -832 0
823 -824 829 0
823 824 -829 0
-823 824 829 0
-823 -824 -829 0
-824 -825 -826 0
-824 825 826 0
824 825 -826 0
824 -825 826 0
825 -905 -915 0
-825 905 0
-825 915 0
826 827 -828 0
826 -827 828 0
-826 -827 -828 0
-826 827 828 0
827 -904 -916 0
-827 904 0
-827 916 0
828 -903 -917 0
-828 903 0
-828 917 0
-829 830 831 0
-829 -830 -831 0
829 -830 831 0
829 830 -831 0
-830 793 795 0
-830 795 796 0
-830 793 796 0
830 -795 -796 0
830 -793 -795 0
830 -793 -796 0
-831 800 803 0
-831 802 803 0
-831 800 802 0
831 -800 -802 0
831 -802 -803 0
831 -800 -803 0
-832 792 798 0
-832 798 799 0
-832 792 799 0
832 -798 -799 0
832 -792 -798 0
832 -792 -799 0
833 -834 835 0
833 834 -835 0
-833 834 835 0
-833 -834 -835 0
-834 808 806 0
-834 806 809 0
-834 808 809 0
834 -806 -809 0
834 -808 -806 0
834 -808 -809 0
-835 -836 -843 0
-835 836 843 0
835 836 -843 0
835 -836 843 0
-836 -837 -842 0
-836 837 842 0
836 837 -842 0
836 -837 842 0
-837 838 841 0
-837 -838 -841 0
837 -838 841 0
837 838 -841 0
-838 839 840 0
-838 -839 -840 0
838 -839 840 0
838 839 -840 0
-839 824 831 0
-839 -824 -831 0
839 -824 831 0
839 824 -831 0
-840 795 796 0
-840 813 796 0
-840 813 795 0
840 -813 -796 0
840 -813 -795 0
840 -795 -796 0
-841 812 816 0
-841 816 817 0
-841 812 817 0
841 -812 -817 0
841 -816 -817 0
841 -812 -816 0
842 -811 -818 0
-842 811 0
-842 818 0
843 -810 -819 0
-843 810 0
-843 819 0
-844 -845 -854 865 0
-844 845 854 865 0
844 -865 0
844 -845 854 0
844 845 -854 0
845 -846 847 0
845 846 -847 0
-845 846 847 0
-845 -846 -847 0
-846 821 832 0
-846 821 823 0
-846 823 832 0
846 -823 -832 0
846 -821 -832 0
846 -821 -823 0
-847 848 853 0
-847 -848 -853 0
847 -848 853 0
847 848 -853 0
848 849 -850 0
848 -849 850 0
-848 -849 -850 0
-848 849 850 0
-849 825 828 0
-849 827 828 0
-849 825 827 0
849 -825 -827 0
849 -827 -828 0
849 -825 -828 0
850 851 -852 0
850 -851 852 0
-850 -851 -852 0
-850 851 852 0
851 -905 -916 0
-851 905 0
-851 916 0
852 -904 -917 0
-852 904 0
-852 917 0
-853 824 830 0
-853 830 831 0
-853 824 831 0
853 -824 -831 0
853 -830 -831 0
853 -824 -830 0
854 -855 856 0
854 855 -856 0
-854 855 856 0
-854 -855 -856 0
-855 834 836 0
-855 836 843 0
-855 834 843 0
855 -836 -843 0
855 -834 -836 0
855 -834 -843 0
-856 -857 -864 0
-856 857 864 0
856 857 -864 0
856 -857 864 0
-857 -858 -863 0
-857 858 863 0
857 858 -863 0
857 -858 863 0
-858 -859 -862 0
-858 859 862 0
858 859 -862 0
858 -859 862 0
-859 860 861 0
-859 -860 -861 0
859 -860 861 0
859 860 -861 0
860 -824 -831 0
-860 824 0
-860 831 0
-861 -849 -850 0
-861 849 850 0
861 849 -850 0
861 -849 850 0
862 -839 -840 0
-862 839 0
-862 840 0
863 -838 -841 0
-863 838 0
-863 841 0
864 -837 -842 0
-864 837 0
-864 842 0
-865 866 871 884 885 0
-865 -866 -871 -884 -885 0
-865 866 871 -884 -885 0
-865 -866 -871 884 885 0
865 866 -871 0
865 -866 871 0
865 -884 885 0
865 884 -885 0
866 -867 868 0
866 867 -868 0
-866 867 868 0
-866 -867 -868 0
-867 846 853 0
-867 846 848 0
-867 848 853 0
867 -848 -853 0
867 -846 -853 0
867 -846 -848 0
-868 -869 -870 0
-868 869 870 0
868 869 -870 0
868 -869 870 0
-869 851 852 0
-869 849 851 0
-869 849 852 0
869 -849 -851 0
869 -851 -852 0
869 -849 -852 0
870 -905 -917 0
-870 905 0
-870 917 0
871 -872 873 0
871 872 -873 0
-871 872 873 0
-871 -872 -873 0
-872 855 857 0
-872 857 864 0
-872 855 864 0
872 -857 -864 0
872 -855 -857 0
872 -855 -864 0
-873 -874 -883 0
-873 874 883 0
873 874 -883 0
873 -874 883 0
-874 -875 -882 0
-874 875 882 0
874 875 -882 0
874 -875 882 0
-875 -876 -881 0
-875 876 881 0
875 876 -881 0
875 -876 881 0
-876 877 878 0
-876 -877 -878 0
876 -877 878 0
876 877 -878 0
877 -849 -850 0
-877 849 0
-877 850 0
-878 879 0
878 -879 0
879 880 -870 0
-879 -880 0
-879 870 0
880 -904 -905 -916 -917 0
-880 917 0
-880 904 0
-880 916 0
-880 905 0
881 -860 -861 0
-881 860 0
-881 861 0
882 -859 -862 0
-882 859 0
-882 862 0
883 -858 -863 0
-883 858 0
-883 863 0
-884 867 869 0
-884 869 870 0
-884 867 870 0
884 -869 -870 0
884 -867 -869 0
884 -867 -870 0
885 -886 887 0
885 886 -887 0
-885 886 887 0
-885 -886 -887 0
-886 872 874 0
-886 874 883 0
-886 872 883 0
886 -874 -883 0
886 -872 -874 0
886 -872 -883 0
-887 -888 -893 0
-887 888 893 0
887 888 -893 0
887 -888 893 0
-888 -889 -892 0
-888 889 892 0
888 889 -892 0
888 -889 892 0
-889 -890 -891 0
-889 890 891 0
889 890 -891 0
889 -890 891 0
890 -877 -878 0
-890 877 0
-890 878 0
891 -880 -870 0
-891 880 0
-891 870 0
892 -876 -881 0
-892 876 0
-892 881 0
893 -875 -882 0
-893 875 0
-893 882 0
-918 0
2 0

