c Result of efficient AIG-to-CNF conversion using package CNF
p cnf 69 207
-2 3 17 29 35 0
2 -35 0
2 -3 0
2 -29 0
2 -17 0
-3 -4 -7 12 13 0
-3 4 7 12 13 0
-3 -4 -7 -12 -13 0
-3 4 7 -12 -13 0
3 -4 7 0
3 4 -7 0
3 -12 13 0
3 12 -13 0
-4 61 5 0
-4 51 61 0
-4 51 5 0
4 -51 -61 0
4 -61 -5 0
4 -51 -5 0
-5 50 6 0
-5 60 6 0
-5 50 60 0
5 -50 -60 0
5 -60 -6 0
5 -50 -6 0
6 -49 -59 0
-6 49 0
-6 59 0
-7 8 9 0
7 -8 0
7 -9 0
8 -51 -61 0
-8 51 0
-8 61 0
9 -10 -11 0
-9 10 0
-9 11 0
10 51 -61 0
10 -51 61 0
-10 -51 -61 0
-10 51 61 0
-11 50 6 0
-11 60 6 0
-11 50 60 0
11 -50 -60 0
11 -60 -6 0
11 -50 -6 0
-12 62 4 0
-12 52 62 0
-12 52 4 0
12 -52 -62 0
12 -62 -4 0
12 -52 -4 0
-13 10 15 0
-13 11 15 0
-13 14 15 0
13 -15 0
13 -10 -11 -14 0
14 52 -62 0
14 -52 62 0
-14 -52 -62 0
-14 52 62 0
-15 16 14 0
-15 8 16 0
15 -16 0
15 -8 -14 0
16 -52 -62 0
-16 52 0
-16 62 0
-17 -18 -19 23 24 0
-17 18 19 23 24 0
-17 -18 -19 -23 -24 0
-17 18 19 -23 -24 0
17 -18 19 0
17 18 -19 0
17 -23 24 0
17 23 -24 0
-18 63 12 0
-18 53 63 0
-18 53 12 0
18 -53 -63 0
18 -63 -12 0
18 -53 -12 0
-19 20 21 0
19 -20 0
19 -21 0
20 -53 -63 0
-20 53 0
-20 63 0
21 -22 -13 0
-21 22 0
-21 13 0
22 53 -63 0
22 -53 63 0
-22 -53 -63 0
-22 53 63 0
-23 64 18 0
-23 54 64 0
-23 54 18 0
23 -54 -64 0
23 -64 -18 0
23 -54 -18 0
-24 13 25 0
-24 25 28 0
24 -25 0
24 -13 -28 0
-25 26 27 0
-25 20 26 0
25 -26 0
25 -20 -27 0
26 -54 -64 0
-26 54 0
-26 64 0
27 54 -64 0
27 -54 64 0
-27 -54 -64 0
-27 54 64 0
28 -22 -27 0
-28 22 0
-28 27 0
-29 30 31 0
-29 -30 -31 0
29 -30 31 0
29 30 -31 0
-30 65 23 0
-30 55 65 0
-30 55 23 0
30 -55 -65 0
30 -65 -23 0
30 -55 -23 0
-31 32 33 0
31 -32 0
31 -33 0
32 -55 -65 0
-32 55 0
-32 65 0
33 -34 -24 0
-33 34 0
-33 24 0
34 55 -65 0
34 -55 65 0
-34 -55 -65 0
-34 55 65 0
-35 36 39 46 47 0
-35 -36 -39 46 47 0
-35 36 39 -46 -47 0
-35 -36 -39 -46 -47 0
35 36 -39 0
35 -36 39 0
35 -46 47 0
35 46 -47 0
36 -37 38 0
36 37 -38 0
-36 37 38 0
-36 -37 -38 0
37 57 -67 0
37 -57 67 0
-37 -57 -67 0
-37 57 67 0
-38 66 30 0
-38 56 66 0
-38 56 30 0
38 -56 -66 0
38 -66 -30 0
38 -56 -30 0
39 -37 40 0
39 37 -40 0
-39 37 40 0
-39 -37 -40 0
-40 28 43 0
-40 41 43 0
-40 13 43 0
40 -43 0
40 -13 -28 -41 0
41 -34 -42 0
-41 34 0
-41 42 0
42 56 -66 0
42 -56 66 0
-42 -56 -66 0
-42 56 66 0
-43 32 44 45 0
-43 44 42 45 0
43 -45 0
43 -44 0
43 -32 -42 0
44 -56 -66 0
-44 56 0
-44 66 0
45 -25 -41 0
-45 25 0
-45 41 0
-46 67 38 0
-46 57 67 0
-46 57 38 0
46 -57 -67 0
46 -67 -38 0
46 -57 -38 0
-47 57 48 0
-47 67 48 0
47 -48 0
47 -57 -67 0
48 -37 -40 0
-48 37 0
-48 40 0
-69 0
2 0

