c Result of efficient AIG-to-CNF conversion using package CNF
p cnf 320 948
2 192 -256 0
2 -192 256 0
-2 -192 -256 0
-2 192 256 0
3 4 -5 0
3 -4 5 0
-3 -4 -5 0
-3 4 5 0
4 -192 -256 0
-4 192 0
-4 256 0
5 193 -257 0
5 -193 257 0
-5 -193 -257 0
-5 193 257 0
6 -7 8 0
6 7 -8 0
-6 7 8 0
-6 -7 -8 0
7 194 -258 0
7 -194 258 0
-7 -194 -258 0
-7 194 258 0
-8 193 4 0
-8 257 4 0
-8 193 257 0
8 -193 -257 0
8 -257 -4 0
8 -193 -4 0
9 -10 11 0
9 10 -11 0
-9 10 11 0
-9 -10 -11 0
10 195 -259 0
10 -195 259 0
-10 -195 -259 0
-10 195 259 0
-11 258 8 0
-11 194 258 0
-11 194 8 0
11 -194 -258 0
11 -258 -8 0
11 -194 -8 0
12 -13 14 0
12 13 -14 0
-12 13 14 0
-12 -13 -14 0
13 196 -260 0
13 -196 260 0
-13 -196 -260 0
-13 196 260 0
-14 259 11 0
-14 195 259 0
-14 195 11 0
14 -195 -259 0
14 -259 -11 0
14 -195 -11 0
15 -16 17 0
15 16 -17 0
-15 16 17 0
-15 -16 -17 0
16 197 -261 0
16 -197 261 0
-16 -197 -261 0
-16 197 261 0
-17 260 14 0
-17 196 260 0
-17 196 14 0
17 -196 -260 0
17 -260 -14 0
17 -196 -14 0
18 -19 20 0
18 19 -20 0
-18 19 20 0
-18 -19 -20 0
19 198 -262 0
19 -198 262 0
-19 -198 -262 0
-19 198 262 0
-20 261 17 0
-20 197 261 0
-20 197 17 0
20 -197 -261 0
20 -261 -17 0
20 -197 -17 0
21 -22 23 0
21 22 -23 0
-21 22 23 0
-21 -22 -23 0
22 199 -263 0
22 -199 263 0
-22 -199 -263 0
-22 199 263 0
-23 262 20 0
-23 198 262 0
-23 198 20 0
23 -198 -262 0
23 -262 -20 0
23 -198 -20 0
24 -25 26 0
24 25 -26 0
-24 25 26 0
-24 -25 -26 0
25 200 -264 0
25 -200 264 0
-25 -200 -264 0
-25 200 264 0
-26 263 23 0
-26 199 263 0
-26 199 23 0
26 -199 -263 0
26 -263 -23 0
26 -199 -23 0
27 -28 29 0
27 28 -29 0
-27 28 29 0
-27 -28 -29 0
28 201 -265 0
28 -201 265 0
-28 -201 -265 0
-28 201 265 0
-29 264 26 0
-29 200 264 0
-29 200 26 0
29 -200 -264 0
29 -264 -26 0
29 -200 -26 0
30 -31 32 0
30 31 -32 0
-30 31 32 0
-30 -31 -32 0
31 202 -266 0
31 -202 266 0
-31 -202 -266 0
-31 202 266 0
-32 265 29 0
-32 201 265 0
-32 201 29 0
32 -201 -265 0
32 -265 -29 0
32 -201 -29 0
33 -34 35 0
33 34 -35 0
-33 34 35 0
-33 -34 -35 0
34 203 -267 0
34 -203 267 0
-34 -203 -267 0
-34 203 267 0
-35 266 32 0
-35 202 266 0
-35 202 32 0
35 -202 -266 0
35 -266 -32 0
35 -202 -32 0
36 -37 38 0
36 37 -38 0
-36 37 38 0
-36 -37 -38 0
37 204 -268 0
37 -204 268 0
-37 -204 -268 0
-37 204 268 0
-38 267 35 0
-38 203 267 0
-38 203 35 0
38 -203 -267 0
38 -267 -35 0
38 -203 -35 0
39 -40 41 0
39 40 -41 0
-39 40 41 0
-39 -40 -41 0
40 205 -269 0
40 -205 269 0
-40 -205 -269 0
-40 205 269 0
-41 268 38 0
-41 204 268 0
-41 204 38 0
41 -204 -268 0
41 -268 -38 0
41 -204 -38 0
42 -43 44 0
42 43 -44 0
-42 43 44 0
-42 -43 -44 0
43 206 -270 0
43 -206 270 0
-43 -206 -270 0
-43 206 270 0
-44 269 41 0
-44 205 269 0
-44 205 41 0
44 -205 -269 0
44 -269 -41 0
44 -205 -41 0
45 -46 47 0
45 46 -47 0
-45 46 47 0
-45 -46 -47 0
46 207 -271 0
46 -207 271 0
-46 -207 -271 0
-46 207 271 0
-47 270 44 0
-47 206 270 0
-47 206 44 0
47 -206 -270 0
47 -270 -44 0
47 -206 -44 0
48 -49 50 0
48 49 -50 0
-48 49 50 0
-48 -49 -50 0
49 208 -272 0
49 -208 272 0
-49 -208 -272 0
-49 208 272 0
-50 271 47 0
-50 207 271 0
-50 207 47 0
50 -207 -271 0
50 -271 -47 0
50 -207 -47 0
51 -52 53 0
51 52 -53 0
-51 52 53 0
-51 -52 -53 0
52 209 -273 0
52 -209 273 0
-52 -209 -273 0
-52 209 273 0
-53 272 50 0
-53 208 272 0
-53 208 50 0
53 -208 -272 0
53 -272 -50 0
53 -208 -50 0
54 -55 56 0
54 55 -56 0
-54 55 56 0
-54 -55 -56 0
55 210 -274 0
55 -210 274 0
-55 -210 -274 0
-55 210 274 0
-56 273 53 0
-56 209 273 0
-56 209 53 0
56 -209 -273 0
56 -273 -53 0
56 -209 -53 0
57 -58 59 0
57 58 -59 0
-57 58 59 0
-57 -58 -59 0
58 211 -275 0
58 -211 275 0
-58 -211 -275 0
-58 211 275 0
-59 274 56 0
-59 210 274 0
-59 210 56 0
59 -210 -274 0
59 -274 -56 0
59 -210 -56 0
60 -61 62 0
60 61 -62 0
-60 61 62 0
-60 -61 -62 0
61 212 -276 0
61 -212 276 0
-61 -212 -276 0
-61 212 276 0
-62 275 59 0
-62 211 275 0
-62 211 59 0
62 -211 -275 0
62 -275 -59 0
62 -211 -59 0
63 -64 65 0
63 64 -65 0
-63 64 65 0
-63 -64 -65 0
64 213 -277 0
64 -213 277 0
-64 -213 -277 0
-64 213 277 0
-65 276 62 0
-65 212 276 0
-65 212 62 0
65 -212 -276 0
65 -276 -62 0
65 -212 -62 0
66 -67 68 0
66 67 -68 0
-66 67 68 0
-66 -67 -68 0
67 214 -278 0
67 -214 278 0
-67 -214 -278 0
-67 214 278 0
-68 277 65 0
-68 213 277 0
-68 213 65 0
68 -213 -277 0
68 -277 -65 0
68 -213 -65 0
69 -70 71 0
69 70 -71 0
-69 70 71 0
-69 -70 -71 0
70 215 -279 0
70 -215 279 0
-70 -215 -279 0
-70 215 279 0
-71 278 68 0
-71 214 278 0
-71 214 68 0
71 -214 -278 0
71 -278 -68 0
71 -214 -68 0
72 -73 74 0
72 73 -74 0
-72 73 74 0
-72 -73 -74 0
73 216 -280 0
73 -216 280 0
-73 -216 -280 0
-73 216 280 0
-74 279 71 0
-74 215 279 0
-74 215 71 0
74 -215 -279 0
74 -279 -71 0
74 -215 -71 0
75 -76 77 0
75 76 -77 0
-75 76 77 0
-75 -76 -77 0
76 217 -281 0
76 -217 281 0
-76 -217 -281 0
-76 217 281 0
-77 280 74 0
-77 216 280 0
-77 216 74 0
77 -216 -280 0
77 -280 -74 0
77 -216 -74 0
78 -79 80 0
78 79 -80 0
-78 79 80 0
-78 -79 -80 0
79 218 -282 0
79 -218 282 0
-79 -218 -282 0
-79 218 282 0
-80 281 77 0
-80 217 281 0
-80 217 77 0
80 -217 -281 0
80 -281 -77 0
80 -217 -77 0
81 -82 83 0
81 82 -83 0
-81 82 83 0
-81 -82 -83 0
82 219 -283 0
82 -219 283 0
-82 -219 -283 0
-82 219 283 0
-83 282 80 0
-83 218 282 0
-83 218 80 0
83 -218 -282 0
83 -282 -80 0
83 -218 -80 0
84 -85 86 0
84 85 -86 0
-84 85 86 0
-84 -85 -86 0
85 220 -284 0
85 -220 284 0
-85 -220 -284 0
-85 220 284 0
-86 283 83 0
-86 219 283 0
-86 219 83 0
86 -219 -283 0
86 -283 -83 0
86 -219 -83 0
87 -88 89 0
87 88 -89 0
-87 88 89 0
-87 -88 -89 0
88 221 -285 0
88 -221 285 0
-88 -221 -285 0
-88 221 285 0
-89 284 86 0
-89 220 284 0
-89 220 86 0
89 -220 -284 0
89 -284 -86 0
89 -220 -86 0
90 -91 92 0
90 91 -92 0
-90 91 92 0
-90 -91 -92 0
91 222 -286 0
91 -222 286 0
-91 -222 -286 0
-91 222 286 0
-92 285 89 0
-92 221 285 0
-92 221 89 0
92 -221 -285 0
92 -285 -89 0
92 -221 -89 0
93 -94 95 0
93 94 -95 0
-93 94 95 0
-93 -94 -95 0
94 223 -287 0
94 -223 287 0
-94 -223 -287 0
-94 223 287 0
-95 286 92 0
-95 222 286 0
-95 222 92 0
95 -222 -286 0
95 -286 -92 0
95 -222 -92 0
96 -97 98 0
96 97 -98 0
-96 97 98 0
-96 -97 -98 0
97 224 -288 0
97 -224 288 0
-97 -224 -288 0
-97 224 288 0
-98 287 95 0
-98 223 287 0
-98 223 95 0
98 -223 -287 0
98 -287 -95 0
98 -223 -95 0
99 -100 101 0
99 100 -101 0
-99 100 101 0
-99 -100 -101 0
100 225 -289 0
100 -225 289 0
-100 -225 -289 0
-100 225 289 0
-101 288 98 0
-101 224 288 0
-101 224 98 0
101 -224 -288 0
101 -288 -98 0
101 -224 -98 0
102 -103 104 0
102 103 -104 0
-102 103 104 0
-102 -103 -104 0
103 226 -290 0
103 -226 290 0
-103 -226 -290 0
-103 226 290 0
-104 289 101 0
-104 225 289 0
-104 225 101 0
104 -225 -289 0
104 -289 -101 0
104 -225 -101 0
105 -106 107 0
105 106 -107 0
-105 106 107 0
-105 -106 -107 0
106 227 -291 0
106 -227 291 0
-106 -227 -291 0
-106 227 291 0
-107 290 104 0
-107 226 290 0
-107 226 104 0
107 -226 -290 0
107 -290 -104 0
107 -226 -104 0
108 -109 110 0
108 109 -110 0
-108 109 110 0
-108 -109 -110 0
109 228 -292 0
109 -228 292 0
-109 -228 -292 0
-109 228 292 0
-110 291 107 0
-110 227 291 0
-110 227 107 0
110 -227 -291 0
110 -291 -107 0
110 -227 -107 0
111 -112 113 0
111 112 -113 0
-111 112 113 0
-111 -112 -113 0
112 229 -293 0
112 -229 293 0
-112 -229 -293 0
-112 229 293 0
-113 292 110 0
-113 228 292 0
-113 228 110 0
113 -228 -292 0
113 -292 -110 0
113 -228 -110 0
114 -115 116 0
114 115 -116 0
-114 115 116 0
-114 -115 -116 0
115 230 -294 0
115 -230 294 0
-115 -230 -294 0
-115 230 294 0
-116 293 113 0
-116 229 293 0
-116 229 113 0
116 -229 -293 0
116 -293 -113 0
116 -229 -113 0
117 -118 119 0
117 118 -119 0
-117 118 119 0
-117 -118 -119 0
118 231 -295 0
118 -231 295 0
-118 -231 -295 0
-118 231 295 0
-119 294 116 0
-119 230 294 0
-119 230 116 0
119 -230 -294 0
119 -294 -116 0
119 -230 -116 0
120 -121 122 0
120 121 -122 0
-120 121 122 0
-120 -121 -122 0
121 232 -296 0
121 -232 296 0
-121 -232 -296 0
-121 232 296 0
-122 295 119 0
-122 231 295 0
-122 231 119 0
122 -231 -295 0
122 -295 -119 0
122 -231 -119 0
123 -124 125 0
123 124 -125 0
-123 124 125 0
-123 -124 -125 0
124 233 -297 0
124 -233 297 0
-124 -233 -297 0
-124 233 297 0
-125 296 122 0
-125 232 296 0
-125 232 122 0
125 -232 -296 0
125 -296 -122 0
125 -232 -122 0
126 -127 128 0
126 127 -128 0
-126 127 128 0
-126 -127 -128 0
127 234 -298 0
127 -234 298 0
-127 -234 -298 0
-127 234 298 0
-128 297 125 0
-128 233 297 0
-128 233 125 0
128 -233 -297 0
128 -297 -125 0
128 -233 -125 0
129 -130 131 0
129 130 -131 0
-129 130 131 0
-129 -130 -131 0
130 235 -299 0
130 -235 299 0
-130 -235 -299 0
-130 235 299 0
-131 298 128 0
-131 234 298 0
-131 234 128 0
131 -234 -298 0
131 -298 -128 0
131 -234 -128 0
132 -133 134 0
132 133 -134 0
-132 133 134 0
-132 -133 -134 0
133 236 -300 0
133 -236 300 0
-133 -236 -300 0
-133 236 300 0
-134 299 131 0
-134 235 299 0
-134 235 131 0
134 -235 -299 0
134 -299 -131 0
134 -235 -131 0
135 -136 137 0
135 136 -137 0
-135 136 137 0
-135 -136 -137 0
136 237 -301 0
136 -237 301 0
-136 -237 -301 0
-136 237 301 0
-137 300 134 0
-137 236 300 0
-137 236 134 0
137 -236 -300 0
137 -300 -134 0
137 -236 -134 0
138 -139 140 0
138 139 -140 0
-138 139 140 0
-138 -139 -140 0
139 238 -302 0
139 -238 302 0
-139 -238 -302 0
-139 238 302 0
-140 301 137 0
-140 237 301 0
-140 237 137 0
140 -237 -301 0
140 -301 -137 0
140 -237 -137 0
141 -142 143 0
141 142 -143 0
-141 142 143 0
-141 -142 -143 0
142 239 -303 0
142 -239 303 0
-142 -239 -303 0
-142 239 303 0
-143 302 140 0
-143 238 302 0
-143 238 140 0
143 -238 -302 0
143 -302 -140 0
143 -238 -140 0
144 -145 146 0
144 145 -146 0
-144 145 146 0
-144 -145 -146 0
145 240 -304 0
145 -240 304 0
-145 -240 -304 0
-145 240 304 0
-146 303 143 0
-146 239 303 0
-146 239 143 0
146 -239 -303 0
146 -303 -143 0
146 -239 -143 0
147 -148 149 0
147 148 -149 0
-147 148 149 0
-147 -148 -149 0
148 241 -305 0
148 -241 305 0
-148 -241 -305 0
-148 241 305 0
-149 304 146 0
-149 240 304 0
-149 240 146 0
149 -240 -304 0
149 -304 -146 0
149 -240 -146 0
150 -151 152 0
150 151 -152 0
-150 151 152 0
-150 -151 -152 0
151 242 -306 0
151 -242 306 0
-151 -242 -306 0
-151 242 306 0
-152 305 149 0
-152 241 305 0
-152 241 149 0
152 -241 -305 0
152 -305 -149 0
152 -241 -149 0
153 -154 155 0
153 154 -155 0
-153 154 155 0
-153 -154 -155 0
154 243 -307 0
154 -243 307 0
-154 -243 -307 0
-154 243 307 0
-155 306 152 0
-155 242 306 0
-155 242 152 0
155 -242 -306 0
155 -306 -152 0
155 -242 -152 0
156 -157 158 0
156 157 -158 0
-156 157 158 0
-156 -157 -158 0
157 244 -308 0
157 -244 308 0
-157 -244 -308 0
-157 244 308 0
-158 307 155 0
-158 243 307 0
-158 243 155 0
158 -243 -307 0
158 -307 -155 0
158 -243 -155 0
159 -160 161 0
159 160 -161 0
-159 160 161 0
-159 -160 -161 0
160 245 -309 0
160 -245 309 0
-160 -245 -309 0
-160 245 309 0
-161 308 158 0
-161 244 308 0
-161 244 158 0
161 -244 -308 0
161 -308 -158 0
161 -244 -158 0
162 -163 164 0
162 163 -164 0
-162 163 164 0
-162 -163 -164 0
163 246 -310 0
163 -246 310 0
-163 -246 -310 0
-163 246 310 0
-164 309 161 0
-164 245 309 0
-164 245 161 0
164 -245 -309 0
164 -309 -161 0
164 -245 -161 0
165 -166 167 0
165 166 -167 0
-165 166 167 0
-165 -166 -167 0
166 247 -311 0
166 -247 311 0
-166 -247 -311 0
-166 247 311 0
-167 310 164 0
-167 246 310 0
-167 246 164 0
167 -246 -310 0
167 -310 -164 0
167 -246 -164 0
168 -169 170 0
168 169 -170 0
-168 169 170 0
-168 -169 -170 0
169 248 -312 0
169 -248 312 0
-169 -248 -312 0
-169 248 312 0
-170 311 167 0
-170 247 311 0
-170 247 167 0
170 -247 -311 0
170 -311 -167 0
170 -247 -167 0
171 -172 173 0
171 172 -173 0
-171 172 173 0
-171 -172 -173 0
172 249 -313 0
172 -249 313 0
-172 -249 -313 0
-172 249 313 0
-173 312 170 0
-173 248 312 0
-173 248 170 0
173 -248 -312 0
173 -312 -170 0
173 -248 -170 0
174 -175 176 0
174 175 -176 0
-174 175 176 0
-174 -175 -176 0
175 250 -314 0
175 -250 314 0
-175 -250 -314 0
-175 250 314 0
-176 313 173 0
-176 249 313 0
-176 249 173 0
176 -249 -313 0
176 -313 -173 0
176 -249 -173 0
177 -178 179 0
177 178 -179 0
-177 178 179 0
-177 -178 -179 0
178 251 -315 0
178 -251 315 0
-178 -251 -315 0
-178 251 315 0
-179 314 176 0
-179 250 314 0
-179 250 176 0
179 -250 -314 0
179 -314 -176 0
179 -250 -176 0
180 -181 182 0
180 181 -182 0
-180 181 182 0
-180 -181 -182 0
181 252 -316 0
181 -252 316 0
-181 -252 -316 0
-181 252 316 0
-182 315 179 0
-182 251 315 0
-182 251 179 0
182 -251 -315 0
182 -315 -179 0
182 -251 -179 0
183 -184 185 0
183 184 -185 0
-183 184 185 0
-183 -184 -185 0
184 253 -317 0
184 -253 317 0
-184 -253 -317 0
-184 253 317 0
-185 316 182 0
-185 252 316 0
-185 252 182 0
185 -252 -316 0
185 -316 -182 0
185 -252 -182 0
186 -187 188 0
186 187 -188 0
-186 187 188 0
-186 -187 -188 0
187 254 -318 0
187 -254 318 0
-187 -254 -318 0
-187 254 318 0
-188 317 185 0
-188 253 317 0
-188 253 185 0
188 -253 -317 0
188 -317 -185 0
188 -253 -185 0
189 -190 191 0
189 190 -191 0
-189 190 191 0
-189 -190 -191 0
190 255 -319 0
190 -255 319 0
-190 -255 -319 0
-190 255 319 0
-191 318 188 0
-191 254 318 0
-191 254 188 0
191 -254 -318 0
191 -318 -188 0
191 -254 -188 0
-320 0
2 0
3 0
6 0
9 0
12 0
15 0
18 0
21 0
24 0
27 0
30 0
33 0
36 0
39 0
42 0
45 0
48 0
51 0
54 0
57 0
60 0
63 0
66 0
69 0
72 0
75 0
78 0
81 0
84 0
87 0
90 0
93 0
96 0
99 0
102 0
105 0
108 0
111 0
114 0
117 0
120 0
123 0
126 0
129 0
132 0
135 0
138 0
141 0
144 0
147 0
150 0
153 0
156 0
159 0
162 0
165 0
168 0
171 0
174 0
177 0
180 0
183 0
186 0
189 0

