c Result of efficient AIG-to-CNF conversion using package CNF
p cnf 20 48
2 12 -16 0
2 -12 16 0
-2 -12 -16 0
-2 12 16 0
3 4 -5 0
3 -4 5 0
-3 -4 -5 0
-3 4 5 0
4 -12 -16 0
-4 12 0
-4 16 0
5 13 -17 0
5 -13 17 0
-5 -13 -17 0
-5 13 17 0
6 -7 8 0
6 7 -8 0
-6 7 8 0
-6 -7 -8 0
7 14 -18 0
7 -14 18 0
-7 -14 -18 0
-7 14 18 0
-8 13 4 0
-8 17 4 0
-8 13 17 0
8 -13 -17 0
8 -17 -4 0
8 -13 -4 0
9 -10 11 0
9 10 -11 0
-9 10 11 0
-9 -10 -11 0
10 15 -19 0
10 -15 19 0
-10 -15 -19 0
-10 15 19 0
-11 18 8 0
-11 14 18 0
-11 14 8 0
11 -14 -18 0
11 -18 -8 0
11 -14 -8 0
-20 0
2 0
3 0
6 0
9 0

