c Result of efficient AIG-to-CNF conversion using package CNF
p cnf 30 78
2 18 -24 0
2 -18 24 0
-2 -18 -24 0
-2 18 24 0
3 4 -5 0
3 -4 5 0
-3 -4 -5 0
-3 4 5 0
4 -18 -24 0
-4 18 0
-4 24 0
5 19 -25 0
5 -19 25 0
-5 -19 -25 0
-5 19 25 0
6 -7 8 0
6 7 -8 0
-6 7 8 0
-6 -7 -8 0
7 20 -26 0
7 -20 26 0
-7 -20 -26 0
-7 20 26 0
-8 19 4 0
-8 25 4 0
-8 19 25 0
8 -19 -25 0
8 -25 -4 0
8 -19 -4 0
9 -10 11 0
9 10 -11 0
-9 10 11 0
-9 -10 -11 0
10 21 -27 0
10 -21 27 0
-10 -21 -27 0
-10 21 27 0
-11 26 8 0
-11 20 26 0
-11 20 8 0
11 -20 -26 0
11 -26 -8 0
11 -20 -8 0
12 -13 14 0
12 13 -14 0
-12 13 14 0
-12 -13 -14 0
13 22 -28 0
13 -22 28 0
-13 -22 -28 0
-13 22 28 0
-14 27 11 0
-14 21 27 0
-14 21 11 0
14 -21 -27 0
14 -27 -11 0
14 -21 -11 0
15 -16 17 0
15 16 -17 0
-15 16 17 0
-15 -16 -17 0
16 23 -29 0
16 -23 29 0
-16 -23 -29 0
-16 23 29 0
-17 28 14 0
-17 22 28 0
-17 22 14 0
17 -22 -28 0
17 -28 -14 0
17 -22 -14 0
-30 0
2 0
3 0
6 0
9 0
12 0
15 0

