c Result of efficient AIG-to-CNF conversion using package CNF
p cnf 382 1547
2 -362 -372 0
-2 362 0
-2 372 0
3 4 -5 0
3 -4 5 0
-3 -4 -5 0
-3 4 5 0
4 -363 -372 0
-4 363 0
-4 372 0
5 -362 -373 0
-5 362 0
-5 373 0
6 -7 8 0
6 7 -8 0
-6 7 8 0
-6 -7 -8 0
7 -362 -363 -372 -373 0
-7 373 0
-7 362 0
-7 372 0
-7 363 0
-8 -9 -12 0
-8 9 12 0
8 9 -12 0
8 -9 12 0
-9 -10 -11 0
-9 10 11 0
9 10 -11 0
9 -10 11 0
10 -363 -373 0
-10 363 0
-10 373 0
11 -362 -374 0
-11 362 0
-11 374 0
12 -364 -372 0
-12 364 0
-12 372 0
13 -14 15 0
13 14 -15 0
-13 14 15 0
-13 -14 -15 0
-14 9 12 0
-14 7 12 0
-14 7 9 0
14 -7 -12 0
14 -7 -9 0
14 -9 -12 0
-15 -16 -23 0
-15 16 23 0
15 16 -23 0
15 -16 23 0
-16 -17 -20 0
-16 17 20 0
16 17 -20 0
16 -17 20 0
-17 -18 -19 0
-17 18 19 0
17 18 -19 0
17 -18 19 0
18 -363 -374 0
-18 363 0
-18 374 0
19 -362 -375 0
-19 362 0
-19 375 0
20 21 -22 0
20 -21 22 0
-20 -21 -22 0
-20 21 22 0
21 -365 -372 0
-21 365 0
-21 372 0
22 -364 -373 0
-22 364 0
-22 373 0
23 -362 -363 -373 -374 0
-23 374 0
-23 362 0
-23 373 0
-23 363 0
24 -25 26 0
24 25 -26 0
-24 25 26 0
-24 -25 -26 0
-25 14 16 0
-25 16 23 0
-25 14 23 0
25 -16 -23 0
25 -14 -16 0
25 -14 -23 0
-26 27 38 0
-26 -27 -38 0
26 -27 38 0
26 27 -38 0
-27 -28 -33 0
-27 28 33 0
27 28 -33 0
27 -28 33 0
-28 29 30 0
-28 -29 -30 0
28 -29 30 0
28 29 -30 0
29 -366 -372 0
-29 366 0
-29 372 0
-30 -31 -32 0
-30 31 32 0
30 31 -32 0
30 -31 32 0
31 -365 -373 0
-31 365 0
-31 373 0
32 -364 -374 0
-32 364 0
-32 374 0
33 34 -35 0
33 -34 35 0
-33 -34 -35 0
-33 34 35 0
34 -362 -363 -374 -375 0
-34 375 0
-34 362 0
-34 374 0
-34 363 0
35 36 -37 0
35 -36 37 0
-35 -36 -37 0
-35 36 37 0
36 -363 -375 0
-36 363 0
-36 375 0
37 -362 -376 0
-37 362 0
-37 376 0
-38 21 22 0
-38 17 21 0
-38 17 22 0
38 -17 -21 0
38 -21 -22 0
38 -17 -22 0
39 40 -41 0
39 -40 41 0
-39 -40 -41 0
-39 40 41 0
-40 25 27 0
-40 27 38 0
-40 25 38 0
40 -25 -38 0
40 -27 -38 0
40 -25 -27 0
41 -42 57 0
41 42 -57 0
-41 42 57 0
-41 -42 -57 0
42 -43 52 0
42 43 -52 0
-42 43 52 0
-42 -43 -52 0
-43 -44 -49 0
-43 44 49 0
43 44 -49 0
43 -44 49 0
-44 -45 -46 0
-44 45 46 0
44 45 -46 0
44 -45 46 0
45 -364 -375 0
-45 364 0
-45 375 0
46 47 -48 0
46 -47 48 0
-46 -47 -48 0
-46 47 48 0
47 -363 -376 0
-47 363 0
-47 376 0
48 -362 -377 0
-48 362 0
-48 377 0
49 50 -51 0
49 -50 51 0
-49 -50 -51 0
-49 50 51 0
50 -362 -363 -375 -376 0
-50 376 0
-50 362 0
-50 375 0
-50 363 0
51 -367 -372 0
-51 367 0
-51 372 0
-52 -53 -54 0
-52 53 54 0
52 53 -54 0
52 -53 54 0
-53 29 32 0
-53 31 32 0
-53 29 31 0
53 -29 -31 0
53 -31 -32 0
53 -29 -32 0
54 55 -56 0
54 -55 56 0
-54 -55 -56 0
-54 55 56 0
55 -366 -373 0
-55 366 0
-55 373 0
56 -365 -374 0
-56 365 0
-56 374 0
-57 34 35 0
-57 28 34 0
-57 28 35 0
57 -28 -34 0
57 -34 -35 0
57 -28 -35 0
58 -59 60 0
58 59 -60 0
-58 59 60 0
-58 -59 -60 0
-59 40 57 0
-59 40 42 0
-59 42 57 0
59 -42 -57 0
59 -40 -57 0
59 -40 -42 0
-60 61 80 0
-60 -61 -80 0
60 -61 80 0
60 61 -80 0
61 -62 71 0
61 62 -71 0
-61 62 71 0
-61 -62 -71 0
-62 -63 -68 0
-62 63 68 0
62 63 -68 0
62 -63 68 0
-63 -64 -65 0
-63 64 65 0
63 64 -65 0
63 -64 65 0
64 -366 -374 0
-64 366 0
-64 374 0
65 66 -67 0
65 -66 67 0
-65 -66 -67 0
-65 66 67 0
66 -365 -375 0
-66 365 0
-66 375 0
67 -364 -376 0
-67 364 0
-67 376 0
68 -69 70 0
68 69 -70 0
-68 69 70 0
-68 -69 -70 0
69 -365 -366 -373 -374 0
-69 374 0
-69 365 0
-69 373 0
-69 366 0
-70 45 48 0
-70 47 48 0
-70 45 47 0
70 -45 -47 0
70 -47 -48 0
70 -45 -48 0
-71 -72 -73 0
-71 72 73 0
71 72 -73 0
71 -72 73 0
-72 44 51 0
-72 50 51 0
-72 50 44 0
72 -50 -51 0
72 -50 -44 0
72 -44 -51 0
73 74 -77 0
73 -74 77 0
-73 -74 -77 0
-73 74 77 0
74 75 -76 0
74 -75 76 0
-74 -75 -76 0
-74 75 76 0
75 -363 -377 0
-75 363 0
-75 377 0
76 -362 -378 0
-76 362 0
-76 378 0
77 78 -79 0
77 -78 79 0
-77 -78 -79 0
-77 78 79 0
78 -368 -372 0
-78 368 0
-78 372 0
79 -367 -373 0
-79 367 0
-79 373 0
-80 43 53 0
-80 53 54 0
-80 43 54 0
80 -53 -54 0
80 -43 -53 0
80 -43 -54 0
81 82 -83 0
81 -82 83 0
-81 -82 -83 0
-81 82 83 0
-82 59 80 0
-82 59 61 0
-82 61 80 0
82 -61 -80 0
82 -59 -80 0
82 -59 -61 0
83 -84 107 0
83 84 -107 0
-83 84 107 0
-83 -84 -107 0
84 -85 94 0
84 85 -94 0
-84 85 94 0
-84 -85 -94 0
-85 -86 -91 0
-85 86 91 0
85 86 -91 0
85 -86 91 0
-86 -87 -88 0
-86 87 88 0
86 87 -88 0
86 -87 88 0
87 -369 -372 0
-87 369 0
-87 372 0
88 89 -90 0
88 -89 90 0
-88 -89 -90 0
-88 89 90 0
89 -368 -373 0
-89 368 0
-89 373 0
90 -367 -374 0
-90 367 0
-90 374 0
91 -92 93 0
91 92 -93 0
-91 92 93 0
-91 -92 -93 0
-92 373 78 0
-92 367 74 0
-92 74 78 0
-92 373 74 0
-92 367 78 0
92 -74 -78 0
92 -367 -373 -78 0
92 -367 -373 -74 0
-93 64 67 0
-93 66 67 0
-93 64 66 0
93 -64 -66 0
93 -66 -67 0
93 -64 -67 0
-94 -95 -96 0
-94 95 96 0
94 95 -96 0
94 -95 96 0
-95 69 63 0
-95 63 70 0
-95 69 70 0
95 -63 -70 0
95 -69 -63 0
95 -69 -70 0
96 -97 100 0
96 97 -100 0
-96 97 100 0
-96 -97 -100 0
97 98 -99 0
97 -98 99 0
-97 -98 -99 0
-97 98 99 0
98 -366 -375 0
-98 366 0
-98 375 0
99 -365 -376 0
-99 365 0
-99 376 0
-100 101 102 0
-100 -101 -102 0
100 -101 102 0
100 101 -102 0
101 -362 -363 -377 -378 0
-101 378 0
-101 362 0
-101 377 0
-101 363 0
-102 -103 -104 0
-102 103 104 0
102 103 -104 0
102 -103 104 0
103 -364 -377 0
-103 364 0
-103 377 0
104 105 -106 0
104 -105 106 0
-104 -105 -106 0
-104 105 106 0
105 -363 -378 0
-105 363 0
-105 378 0
106 -362 -379 0
-106 362 0
-106 379 0
-107 62 72 0
-107 72 73 0
-107 62 73 0
107 -72 -73 0
107 -62 -72 0
107 -62 -73 0
108 109 -110 0
108 -109 110 0
-108 -109 -110 0
-108 109 110 0
-109 82 107 0
-109 82 84 0
-109 84 107 0
109 -84 -107 0
109 -82 -107 0
109 -82 -84 0
110 -111 138 0
110 111 -138 0
-110 111 138 0
-110 -111 -138 0
111 -112 121 0
111 112 -121 0
-111 112 121 0
-111 -112 -121 0
-112 -113 -118 0
-112 113 118 0
112 113 -118 0
112 -113 118 0
-113 114 115 0
-113 -114 -115 0
113 -114 115 0
113 114 -115 0
114 -365 -366 -375 -376 0
-114 376 0
-114 365 0
-114 375 0
-114 366 0
-115 -116 -117 0
-115 116 117 0
115 116 -117 0
115 -116 117 0
-116 378 106 0
-116 363 103 0
-116 103 106 0
-116 378 103 0
-116 363 106 0
116 -103 -106 0
116 -363 -378 -106 0
116 -363 -378 -103 0
117 -370 -372 0
-117 370 0
-117 372 0
118 -119 120 0
118 119 -120 0
-118 119 120 0
-118 -119 -120 0
-119 97 102 0
-119 101 97 0
-119 101 102 0
119 -101 -97 0
119 -97 -102 0
119 -101 -102 0
-120 87 90 0
-120 89 90 0
-120 87 89 0
120 -87 -89 0
120 -89 -90 0
120 -87 -90 0
-121 -122 -123 0
-121 122 123 0
121 122 -123 0
121 -122 123 0
-122 86 92 0
-122 92 93 0
-122 86 93 0
122 -86 -93 0
122 -92 -93 0
122 -86 -92 0
123 124 -127 0
123 -124 127 0
-123 -124 -127 0
-123 124 127 0
124 125 -126 0
124 -125 126 0
-124 -125 -126 0
-124 125 126 0
125 -369 -373 0
-125 369 0
-125 373 0
126 -368 -374 0
-126 368 0
-126 374 0
127 -128 133 0
127 128 -133 0
-127 128 133 0
-127 -128 -133 0
-128 -129 -130 0
-128 129 130 0
128 129 -130 0
128 -129 130 0
129 -367 -375 0
-129 367 0
-129 375 0
130 131 -132 0
130 -131 132 0
-130 -131 -132 0
-130 131 132 0
131 -366 -376 0
-131 366 0
-131 376 0
132 -365 -377 0
-132 365 0
-132 377 0
-133 -134 -135 0
-133 134 135 0
133 134 -135 0
133 -134 135 0
134 -364 -378 0
-134 364 0
-134 378 0
135 136 -137 0
135 -136 137 0
-135 -136 -137 0
-135 136 137 0
136 -363 -379 0
-136 363 0
-136 379 0
137 -362 -380 0
-137 362 0
-137 380 0
-138 85 95 0
-138 95 96 0
-138 85 96 0
138 -95 -96 0
138 -85 -95 0
138 -85 -96 0
139 140 -141 0
139 -140 141 0
-139 -140 -141 0
-139 140 141 0
-140 109 138 0
-140 109 111 0
-140 111 138 0
140 -111 -138 0
140 -109 -138 0
140 -109 -111 0
141 -142 173 0
141 142 -173 0
-141 142 173 0
-141 -142 -173 0
142 -143 152 0
142 143 -152 0
-142 143 152 0
-142 -143 -152 0
-143 -144 -149 0
-143 144 149 0
143 144 -149 0
143 -144 149 0
-144 145 146 0
-144 -145 -146 0
144 -145 146 0
144 145 -146 0
145 -368 -369 -373 -374 0
-145 374 0
-145 368 0
-145 373 0
-145 369 0
-146 147 148 0
-146 -147 -148 0
146 -147 148 0
146 147 -148 0
-147 376 132 0
-147 366 129 0
-147 129 132 0
-147 376 129 0
-147 366 132 0
147 -129 -132 0
147 -366 -376 -132 0
147 -366 -376 -129 0
-148 379 137 0
-148 363 134 0
-148 134 137 0
-148 379 134 0
-148 363 137 0
148 -134 -137 0
148 -363 -379 -137 0
148 -363 -379 -134 0
149 -150 151 0
149 150 -151 0
-149 150 151 0
-149 -150 -151 0
-150 124 128 0
-150 128 133 0
-150 124 133 0
150 -128 -133 0
150 -124 -128 0
150 -124 -133 0
-151 116 117 0
-151 114 117 0
-151 114 116 0
151 -114 -117 0
151 -114 -116 0
151 -116 -117 0
-152 -153 -154 0
-152 153 154 0
152 153 -154 0
152 -153 154 0
-153 113 119 0
-153 119 120 0
-153 113 120 0
153 -113 -120 0
153 -119 -120 0
153 -113 -119 0
154 155 -162 0
154 -155 162 0
-154 -155 -162 0
-154 155 162 0
-155 -156 -159 0
-155 156 159 0
155 156 -159 0
155 -156 159 0
156 157 -158 0
156 -157 158 0
-156 -157 -158 0
-156 157 158 0
157 -363 -380 0
-157 363 0
-157 380 0
158 -362 -381 0
-158 362 0
-158 381 0
159 160 -161 0
159 -160 161 0
-159 -160 -161 0
-159 160 161 0
160 -371 -372 0
-160 371 0
-160 372 0
161 -370 -373 0
-161 370 0
-161 373 0
162 -163 168 0
162 163 -168 0
-162 163 168 0
-162 -163 -168 0
-163 -164 -165 0
-163 164 165 0
163 164 -165 0
163 -164 165 0
164 -369 -374 0
-164 369 0
-164 374 0
165 166 -167 0
165 -166 167 0
-165 -166 -167 0
-165 166 167 0
166 -368 -375 0
-166 368 0
-166 375 0
167 -367 -376 0
-167 367 0
-167 376 0
-168 -169 -170 0
-168 169 170 0
168 169 -170 0
168 -169 170 0
169 -366 -377 0
-169 366 0
-169 377 0
170 171 -172 0
170 -171 172 0
-170 -171 -172 0
-170 171 172 0
171 -365 -378 0
-171 365 0
-171 378 0
172 -364 -379 0
-172 364 0
-172 379 0
-173 112 122 0
-173 122 123 0
-173 112 123 0
173 -122 -123 0
173 -112 -122 0
173 -112 -123 0
174 175 -176 0
174 -175 176 0
-174 -175 -176 0
-174 175 176 0
-175 140 173 0
-175 140 142 0
-175 142 173 0
175 -142 -173 0
175 -140 -173 0
175 -140 -142 0
176 -177 208 0
176 177 -208 0
-176 177 208 0
-176 -177 -208 0
177 -178 187 0
177 178 -187 0
-177 178 187 0
-177 -178 -187 0
-178 -179 -184 0
-178 179 184 0
178 179 -184 0
178 -179 184 0
-179 -180 -181 0
-179 180 181 0
179 180 -181 0
179 -180 181 0
-180 373 160 0
-180 370 156 0
-180 156 160 0
-180 373 156 0
-180 370 160 0
180 -156 -160 0
180 -370 -373 -160 0
180 -370 -373 -156 0
181 -182 183 0
181 182 -183 0
-181 182 183 0
-181 -182 -183 0
-182 164 167 0
-182 166 167 0
-182 164 166 0
182 -164 -166 0
182 -166 -167 0
182 -164 -167 0
-183 169 172 0
-183 171 172 0
-183 169 171 0
183 -169 -171 0
183 -171 -172 0
183 -169 -172 0
184 -185 186 0
184 185 -186 0
-184 185 186 0
-184 -185 -186 0
-185 155 163 0
-185 163 168 0
-185 155 168 0
185 -155 -168 0
185 -163 -168 0
185 -155 -163 0
-186 145 147 0
-186 147 148 0
-186 145 148 0
186 -147 -148 0
186 -145 -147 0
186 -145 -148 0
-187 -188 -189 0
-187 188 189 0
187 188 -189 0
187 -188 189 0
-188 144 150 0
-188 150 151 0
-188 144 151 0
188 -144 -151 0
188 -150 -151 0
188 -144 -150 0
189 190 -197 0
189 -190 197 0
-189 -190 -197 0
-189 190 197 0
-190 -191 -194 0
-190 191 194 0
190 191 -194 0
190 -191 194 0
191 192 -193 0
191 -192 193 0
-191 -192 -193 0
-191 192 193 0
192 -364 -380 0
-192 364 0
-192 380 0
193 -363 -381 0
-193 363 0
-193 381 0
194 195 -196 0
194 -195 196 0
-194 -195 -196 0
-194 195 196 0
195 -362 -363 -380 -381 0
-195 381 0
-195 362 0
-195 380 0
-195 363 0
196 -371 -373 0
-196 371 0
-196 373 0
197 -198 203 0
197 198 -203 0
-197 198 203 0
-197 -198 -203 0
-198 -199 -200 0
-198 199 200 0
198 199 -200 0
198 -199 200 0
199 -370 -374 0
-199 370 0
-199 374 0
200 201 -202 0
200 -201 202 0
-200 -201 -202 0
-200 201 202 0
201 -369 -375 0
-201 369 0
-201 375 0
202 -368 -376 0
-202 368 0
-202 376 0
-203 -204 -205 0
-203 204 205 0
203 204 -205 0
203 -204 205 0
204 -367 -377 0
-204 367 0
-204 377 0
205 206 -207 0
205 -206 207 0
-205 -206 -207 0
-205 206 207 0
206 -366 -378 0
-206 366 0
-206 378 0
207 -365 -379 0
-207 365 0
-207 379 0
-208 143 153 0
-208 153 154 0
-208 143 154 0
208 -153 -154 0
208 -143 -153 0
208 -143 -154 0
209 -210 211 0
209 210 -211 0
-209 210 211 0
-209 -210 -211 0
-210 175 208 0
-210 175 177 0
-210 177 208 0
210 -177 -208 0
210 -175 -208 0
210 -175 -177 0
-211 212 241 0
-211 -212 -241 0
211 -212 241 0
211 212 -241 0
212 -213 222 0
212 213 -222 0
-212 213 222 0
-212 -213 -222 0
-213 -214 -219 0
-213 214 219 0
213 214 -219 0
213 -214 219 0
-214 -215 -216 0
-214 215 216 0
214 215 -216 0
214 -215 216 0
-215 195 196 0
-215 191 196 0
-215 195 191 0
215 -195 -191 0
215 -191 -196 0
215 -195 -196 0
216 -217 218 0
216 217 -218 0
-216 217 218 0
-216 -217 -218 0
-217 199 202 0
-217 201 202 0
-217 199 201 0
217 -199 -201 0
217 -201 -202 0
217 -199 -202 0
-218 204 207 0
-218 206 207 0
-218 204 206 0
218 -204 -206 0
218 -206 -207 0
218 -204 -207 0
219 -220 221 0
219 220 -221 0
-219 220 221 0
-219 -220 -221 0
-220 190 198 0
-220 198 203 0
-220 190 203 0
220 -190 -203 0
220 -198 -203 0
220 -190 -198 0
-221 180 182 0
-221 182 183 0
-221 180 183 0
221 -180 -183 0
221 -182 -183 0
221 -180 -182 0
-222 -223 -224 0
-222 223 224 0
222 223 -224 0
222 -223 224 0
-223 179 185 0
-223 185 186 0
-223 179 186 0
223 -179 -186 0
223 -185 -186 0
223 -179 -185 0
224 225 -230 0
224 -225 230 0
-224 -225 -230 0
-224 225 230 0
-225 -226 -227 0
-225 226 227 0
225 226 -227 0
225 -226 227 0
226 -363 -364 -380 -381 0
-226 381 0
-226 363 0
-226 380 0
-226 364 0
227 228 -229 0
227 -228 229 0
-227 -228 -229 0
-227 228 229 0
228 -371 -374 0
-228 371 0
-228 374 0
229 -370 -375 0
-229 370 0
-229 375 0
230 -231 236 0
230 231 -236 0
-230 231 236 0
-230 -231 -236 0
-231 -232 -233 0
-231 232 233 0
231 232 -233 0
231 -232 233 0
232 -369 -376 0
-232 369 0
-232 376 0
233 234 -235 0
233 -234 235 0
-233 -234 -235 0
-233 234 235 0
234 -368 -377 0
-234 368 0
-234 377 0
235 -367 -378 0
-235 367 0
-235 378 0
-236 -237 -238 0
-236 237 238 0
236 237 -238 0
236 -237 238 0
237 -366 -379 0
-237 366 0
-237 379 0
238 239 -240 0
238 -239 240 0
-238 -239 -240 0
-238 239 240 0
239 -365 -380 0
-239 365 0
-239 380 0
240 -364 -381 0
-240 364 0
-240 381 0
-241 178 188 0
-241 188 189 0
-241 178 189 0
241 -188 -189 0
241 -178 -188 0
241 -178 -189 0
242 243 -244 0
242 -243 244 0
-242 -243 -244 0
-242 243 244 0
-243 210 241 0
-243 210 212 0
-243 212 241 0
243 -212 -241 0
243 -210 -241 0
243 -210 -212 0
244 -245 270 0
244 245 -270 0
-244 245 270 0
-244 -245 -270 0
245 -246 255 0
245 246 -255 0
-245 246 255 0
-245 -246 -255 0
-246 -247 -252 0
-246 247 252 0
246 247 -252 0
246 -247 252 0
-247 248 249 0
-247 -248 -249 0
247 -248 249 0
247 248 -249 0
-248 232 235 0
-248 234 235 0
-248 232 234 0
248 -232 -234 0
248 -234 -235 0
248 -232 -235 0
-249 -250 -251 0
-249 250 251 0
249 250 -251 0
249 -250 251 0
-250 380 240 0
-250 365 237 0
-250 237 240 0
-250 380 237 0
-250 365 240 0
250 -237 -240 0
250 -365 -380 -240 0
250 -365 -380 -237 0
251 -371 -375 0
-251 371 0
-251 375 0
252 -253 254 0
252 253 -254 0
-252 253 254 0
-252 -253 -254 0
-253 225 231 0
-253 231 236 0
-253 225 236 0
253 -225 -236 0
253 -231 -236 0
253 -225 -231 0
-254 215 217 0
-254 217 218 0
-254 215 218 0
254 -215 -218 0
254 -217 -218 0
254 -215 -217 0
-255 -256 -257 0
-255 256 257 0
255 256 -257 0
255 -256 257 0
-256 214 220 0
-256 220 221 0
-256 214 221 0
256 -214 -221 0
256 -220 -221 0
256 -214 -220 0
257 -258 263 0
257 258 -263 0
-257 258 263 0
-257 -258 -263 0
-258 -259 -260 0
-258 259 260 0
258 259 -260 0
258 -259 260 0
259 -370 -376 0
-259 370 0
-259 376 0
260 261 -262 0
260 -261 262 0
-260 -261 -262 0
-260 261 262 0
261 -369 -377 0
-261 369 0
-261 377 0
262 -368 -378 0
-262 368 0
-262 378 0
-263 264 269 0
-263 -264 -269 0
263 -264 269 0
263 264 -269 0
-264 -265 -266 0
-264 265 266 0
264 265 -266 0
264 -265 266 0
265 -367 -379 0
-265 367 0
-265 379 0
266 267 -268 0
266 -267 268 0
-266 -267 -268 0
-266 267 268 0
267 -366 -380 0
-267 366 0
-267 380 0
268 -365 -381 0
-268 365 0
-268 381 0
-269 226 229 0
-269 228 229 0
-269 226 228 0
269 -226 -228 0
269 -228 -229 0
269 -226 -229 0
-270 213 223 0
-270 223 224 0
-270 213 224 0
270 -223 -224 0
270 -213 -223 0
270 -213 -224 0
271 -272 273 0
271 272 -273 0
-271 272 273 0
-271 -272 -273 0
-272 243 270 0
-272 243 245 0
-272 245 270 0
272 -245 -270 0
272 -243 -270 0
272 -243 -245 0
-273 274 295 0
-273 -274 -295 0
273 -274 295 0
273 274 -295 0
274 -275 284 0
274 275 -284 0
-274 275 284 0
-274 -275 -284 0
-275 -276 -281 0
-275 276 281 0
275 276 -281 0
275 -276 281 0
-276 -277 -278 0
-276 277 278 0
276 277 -278 0
276 -277 278 0
277 -371 -376 0
-277 371 0
-277 376 0
278 279 -280 0
278 -279 280 0
-278 -279 -280 0
-278 279 280 0
279 -370 -377 0
-279 370 0
-279 377 0
280 -369 -378 0
-280 369 0
-280 378 0
281 -282 283 0
281 282 -283 0
-281 282 283 0
-281 -282 -283 0
-282 258 264 0
-282 264 269 0
-282 258 269 0
282 -258 -269 0
282 -264 -269 0
282 -258 -264 0
-283 248 250 0
-283 250 251 0
-283 248 251 0
283 -250 -251 0
283 -248 -250 0
283 -248 -251 0
-284 -285 -286 0
-284 285 286 0
284 285 -286 0
284 -285 286 0
-285 247 253 0
-285 253 254 0
-285 247 254 0
285 -247 -254 0
285 -253 -254 0
285 -247 -253 0
286 -287 292 0
286 287 -292 0
-286 287 292 0
-286 -287 -292 0
-287 -288 -289 0
-287 288 289 0
287 288 -289 0
287 -288 289 0
288 -368 -379 0
-288 368 0
-288 379 0
289 290 -291 0
289 -290 291 0
-289 -290 -291 0
-289 290 291 0
290 -367 -380 0
-290 367 0
-290 380 0
291 -366 -381 0
-291 366 0
-291 381 0
-292 293 294 0
-292 -293 -294 0
292 -293 294 0
292 293 -294 0
-293 377 262 0
-293 369 259 0
-293 259 262 0
-293 377 259 0
-293 369 262 0
293 -259 -262 0
293 -369 -377 -262 0
293 -369 -377 -259 0
-294 265 268 0
-294 267 268 0
-294 265 267 0
294 -265 -267 0
294 -267 -268 0
294 -265 -268 0
-295 246 256 0
-295 256 257 0
-295 246 257 0
295 -256 -257 0
295 -246 -256 0
295 -246 -257 0
296 -297 298 0
296 297 -298 0
-296 297 298 0
-296 -297 -298 0
-297 272 295 0
-297 272 274 0
-297 274 295 0
297 -274 -295 0
297 -272 -295 0
297 -272 -274 0
-298 299 316 0
-298 -299 -316 0
298 -299 316 0
298 299 -316 0
299 -300 309 0
299 300 -309 0
-299 300 309 0
-299 -300 -309 0
-300 -301 -306 0
-300 301 306 0
300 301 -306 0
300 -301 306 0
-301 -302 -303 0
-301 302 303 0
301 302 -303 0
301 -302 303 0
302 -369 -379 0
-302 369 0
-302 379 0
303 304 -305 0
303 -304 305 0
-303 -304 -305 0
-303 304 305 0
304 -368 -380 0
-304 368 0
-304 380 0
305 -367 -381 0
-305 367 0
-305 381 0
306 -307 308 0
306 307 -308 0
-306 307 308 0
-306 -307 -308 0
-307 287 293 0
-307 293 294 0
-307 287 294 0
307 -287 -294 0
307 -293 -294 0
307 -287 -293 0
-308 277 280 0
-308 279 280 0
-308 277 279 0
308 -277 -279 0
308 -279 -280 0
308 -277 -280 0
-309 -310 -311 0
-309 310 311 0
309 310 -311 0
309 -310 311 0
-310 276 282 0
-310 282 283 0
-310 276 283 0
310 -276 -283 0
310 -282 -283 0
310 -276 -282 0
311 312 -313 0
311 -312 313 0
-311 -312 -313 0
-311 312 313 0
-312 288 291 0
-312 290 291 0
-312 288 290 0
312 -288 -290 0
312 -290 -291 0
312 -288 -291 0
313 314 -315 0
313 -314 315 0
-313 -314 -315 0
-313 314 315 0
314 -371 -377 0
-314 371 0
-314 377 0
315 -370 -378 0
-315 370 0
-315 378 0
-316 275 285 0
-316 285 286 0
-316 275 286 0
316 -285 -286 0
316 -275 -285 0
316 -275 -286 0
317 -318 319 0
317 318 -319 0
-317 318 319 0
-317 -318 -319 0
-318 297 316 0
-318 297 299 0
-318 299 316 0
318 -299 -316 0
318 -297 -316 0
318 -297 -299 0
-319 320 333 0
-319 -320 -333 0
319 -320 333 0
319 320 -333 0
320 -321 326 0
320 321 -326 0
-320 321 326 0
-320 -321 -326 0
-321 -322 -323 0
-321 322 323 0
321 322 -323 0
321 -322 323 0
-322 314 315 0
-322 312 314 0
-322 312 315 0
322 -312 -314 0
322 -314 -315 0
322 -312 -315 0
323 324 -325 0
323 -324 325 0
-323 -324 -325 0
-323 324 325 0
-324 380 305 0
-324 368 302 0
-324 302 305 0
-324 380 302 0
-324 368 305 0
324 -302 -305 0
324 -368 -380 -305 0
324 -368 -380 -302 0
325 -371 -378 0
-325 371 0
-325 378 0
-326 -327 -328 0
-326 327 328 0
326 327 -328 0
326 -327 328 0
-327 301 307 0
-327 307 308 0
-327 301 308 0
327 -301 -308 0
327 -307 -308 0
327 -301 -307 0
328 329 -330 0
328 -329 330 0
-328 -329 -330 0
-328 329 330 0
329 -370 -379 0
-329 370 0
-329 379 0
330 331 -332 0
330 -331 332 0
-330 -331 -332 0
-330 331 332 0
331 -369 -380 0
-331 369 0
-331 380 0
332 -368 -381 0
-332 368 0
-332 381 0
-333 300 310 0
-333 310 311 0
-333 300 311 0
333 -310 -311 0
333 -300 -310 0
333 -300 -311 0
334 -335 336 0
334 335 -336 0
-334 335 336 0
-334 -335 -336 0
-335 318 333 0
-335 318 320 0
-335 320 333 0
335 -320 -333 0
335 -318 -333 0
335 -318 -320 0
-336 337 346 0
-336 -337 -346 0
336 -337 346 0
336 337 -346 0
337 -338 343 0
337 338 -343 0
-337 338 343 0
-337 -338 -343 0
-338 -339 -340 0
-338 339 340 0
338 339 -340 0
338 -339 340 0
339 -371 -379 0
-339 371 0
-339 379 0
340 341 -342 0
340 -341 342 0
-340 -341 -342 0
-340 341 342 0
341 -370 -380 0
-341 370 0
-341 380 0
342 -369 -381 0
-342 369 0
-342 381 0
-343 344 345 0
-343 -344 -345 0
343 -344 345 0
343 344 -345 0
-344 322 324 0
-344 324 325 0
-344 322 325 0
344 -324 -325 0
344 -322 -324 0
344 -322 -325 0
-345 329 332 0
-345 331 332 0
-345 329 331 0
345 -329 -331 0
345 -331 -332 0
345 -329 -332 0
-346 321 327 0
-346 327 328 0
-346 321 328 0
346 -327 -328 0
346 -321 -327 0
346 -321 -328 0
347 -348 349 0
347 348 -349 0
-347 348 349 0
-347 -348 -349 0
-348 335 346 0
-348 335 337 0
-348 337 346 0
348 -337 -346 0
348 -335 -346 0
348 -335 -337 0
-349 350 355 0
-349 -350 -355 0
349 -350 355 0
349 350 -355 0
350 351 -352 0
350 -351 352 0
-350 -351 -352 0
-350 351 352 0
-351 339 342 0
-351 341 342 0
-351 339 341 0
351 -339 -341 0
351 -341 -342 0
351 -339 -342 0
352 353 -354 0
352 -353 354 0
-352 -353 -354 0
-352 353 354 0
353 -371 -380 0
-353 371 0
-353 380 0
354 -370 -381 0
-354 370 0
-354 381 0
-355 338 344 0
-355 344 345 0
-355 338 345 0
355 -338 -345 0
355 -344 -345 0
355 -338 -344 0
356 -357 358 0
356 357 -358 0
-356 357 358 0
-356 -357 -358 0
-357 348 355 0
-357 348 350 0
-357 350 355 0
357 -350 -355 0
357 -348 -355 0
357 -348 -350 0
-358 -359 -360 0
-358 359 360 0
358 359 -360 0
358 -359 360 0
-359 353 354 0
-359 351 353 0
-359 351 354 0
359 -351 -353 0
359 -353 -354 0
359 -351 -354 0
360 -371 -381 0
-360 371 0
-360 381 0
-361 357 359 0
-361 359 360 0
-361 357 360 0
361 -359 -360 0
361 -357 -359 0
361 -357 -360 0
-382 0
2 0
3 0
6 0
13 0
24 0
39 0
58 0
81 0
108 0
139 0
174 0
209 0
242 0
271 0
296 0
317 0
334 0
347 0
356 0
361 0

