c Result of efficient AIG-to-CNF conversion using package CNF
p cnf 184 723
2 -170 -177 0
-2 170 0
-2 177 0
3 4 -5 0
3 -4 5 0
-3 -4 -5 0
-3 4 5 0
4 -171 -177 0
-4 171 0
-4 177 0
5 -170 -178 0
-5 170 0
-5 178 0
6 -7 8 0
6 7 -8 0
-6 7 8 0
-6 -7 -8 0
7 -170 -171 -177 -178 0
-7 178 0
-7 170 0
-7 177 0
-7 171 0
-8 -9 -12 0
-8 9 12 0
8 9 -12 0
8 -9 12 0
-9 -10 -11 0
-9 10 11 0
9 10 -11 0
9 -10 11 0
10 -171 -178 0
-10 171 0
-10 178 0
11 -170 -179 0
-11 170 0
-11 179 0
12 -172 -177 0
-12 172 0
-12 177 0
13 -14 15 0
13 14 -15 0
-13 14 15 0
-13 -14 -15 0
-14 9 12 0
-14 7 12 0
-14 7 9 0
14 -7 -12 0
14 -7 -9 0
14 -9 -12 0
-15 -16 -23 0
-15 16 23 0
15 16 -23 0
15 -16 23 0
-16 -17 -20 0
-16 17 20 0
16 17 -20 0
16 -17 20 0
-17 -18 -19 0
-17 18 19 0
17 18 -19 0
17 -18 19 0
18 -171 -179 0
-18 171 0
-18 179 0
19 -170 -180 0
-19 170 0
-19 180 0
20 21 -22 0
20 -21 22 0
-20 -21 -22 0
-20 21 22 0
21 -173 -177 0
-21 173 0
-21 177 0
22 -172 -178 0
-22 172 0
-22 178 0
23 -170 -171 -178 -179 0
-23 179 0
-23 170 0
-23 178 0
-23 171 0
24 -25 26 0
24 25 -26 0
-24 25 26 0
-24 -25 -26 0
-25 14 16 0
-25 16 23 0
-25 14 23 0
25 -16 -23 0
25 -14 -16 0
25 -14 -23 0
-26 27 38 0
-26 -27 -38 0
26 -27 38 0
26 27 -38 0
-27 -28 -33 0
-27 28 33 0
27 28 -33 0
27 -28 33 0
-28 29 30 0
-28 -29 -30 0
28 -29 30 0
28 29 -30 0
29 -174 -177 0
-29 174 0
-29 177 0
-30 -31 -32 0
-30 31 32 0
30 31 -32 0
30 -31 32 0
31 -173 -178 0
-31 173 0
-31 178 0
32 -172 -179 0
-32 172 0
-32 179 0
33 34 -35 0
33 -34 35 0
-33 -34 -35 0
-33 34 35 0
34 -170 -171 -179 -180 0
-34 180 0
-34 170 0
-34 179 0
-34 171 0
35 36 -37 0
35 -36 37 0
-35 -36 -37 0
-35 36 37 0
36 -171 -180 0
-36 171 0
-36 180 0
37 -170 -181 0
-37 170 0
-37 181 0
-38 177 22 0
-38 173 17 0
-38 177 17 0
-38 17 22 0
-38 173 22 0
38 -17 -22 0
38 -173 -177 -22 0
38 -173 -177 -17 0
39 40 -41 0
39 -40 41 0
-39 -40 -41 0
-39 40 41 0
-40 25 27 0
-40 27 38 0
-40 25 38 0
40 -25 -38 0
40 -27 -38 0
40 -25 -27 0
41 -42 57 0
41 42 -57 0
-41 42 57 0
-41 -42 -57 0
42 -43 52 0
42 43 -52 0
-42 43 52 0
-42 -43 -52 0
-43 -44 -49 0
-43 44 49 0
43 44 -49 0
43 -44 49 0
-44 -45 -46 0
-44 45 46 0
44 45 -46 0
44 -45 46 0
45 -172 -180 0
-45 172 0
-45 180 0
46 47 -48 0
46 -47 48 0
-46 -47 -48 0
-46 47 48 0
47 -171 -181 0
-47 171 0
-47 181 0
48 -170 -182 0
-48 170 0
-48 182 0
49 50 -51 0
49 -50 51 0
-49 -50 -51 0
-49 50 51 0
50 -170 -171 -180 -181 0
-50 181 0
-50 170 0
-50 180 0
-50 171 0
51 -175 -177 0
-51 175 0
-51 177 0
-52 -53 -54 0
-52 53 54 0
52 53 -54 0
52 -53 54 0
-53 29 32 0
-53 31 32 0
-53 29 31 0
53 -29 -31 0
53 -31 -32 0
53 -29 -32 0
54 55 -56 0
54 -55 56 0
-54 -55 -56 0
-54 55 56 0
55 -174 -178 0
-55 174 0
-55 178 0
56 -173 -179 0
-56 173 0
-56 179 0
-57 34 35 0
-57 28 34 0
-57 28 35 0
57 -28 -34 0
57 -34 -35 0
57 -28 -35 0
58 -59 60 0
58 59 -60 0
-58 59 60 0
-58 -59 -60 0
-59 40 57 0
-59 40 42 0
-59 42 57 0
59 -42 -57 0
59 -40 -57 0
59 -40 -42 0
-60 61 80 0
-60 -61 -80 0
60 -61 80 0
60 61 -80 0
61 -62 71 0
61 62 -71 0
-61 62 71 0
-61 -62 -71 0
-62 -63 -68 0
-62 63 68 0
62 63 -68 0
62 -63 68 0
-63 -64 -65 0
-63 64 65 0
63 64 -65 0
63 -64 65 0
64 -174 -179 0
-64 174 0
-64 179 0
65 66 -67 0
65 -66 67 0
-65 -66 -67 0
-65 66 67 0
66 -173 -180 0
-66 173 0
-66 180 0
67 -172 -181 0
-67 172 0
-67 181 0
68 -69 70 0
68 69 -70 0
-68 69 70 0
-68 -69 -70 0
69 -173 -174 -178 -179 0
-69 179 0
-69 173 0
-69 178 0
-69 174 0
-70 45 48 0
-70 47 48 0
-70 45 47 0
70 -45 -47 0
70 -47 -48 0
70 -45 -48 0
-71 -72 -73 0
-71 72 73 0
71 72 -73 0
71 -72 73 0
-72 44 51 0
-72 50 51 0
-72 50 44 0
72 -50 -51 0
72 -50 -44 0
72 -44 -51 0
73 74 -77 0
73 -74 77 0
-73 -74 -77 0
-73 74 77 0
74 75 -76 0
74 -75 76 0
-74 -75 -76 0
-74 75 76 0
75 -171 -182 0
-75 171 0
-75 182 0
76 -170 -183 0
-76 170 0
-76 183 0
77 78 -79 0
77 -78 79 0
-77 -78 -79 0
-77 78 79 0
78 -176 -177 0
-78 176 0
-78 177 0
79 -175 -178 0
-79 175 0
-79 178 0
-80 43 53 0
-80 53 54 0
-80 43 54 0
80 -53 -54 0
80 -43 -53 0
80 -43 -54 0
81 82 -83 0
81 -82 83 0
-81 -82 -83 0
-81 82 83 0
-82 59 80 0
-82 59 61 0
-82 61 80 0
82 -61 -80 0
82 -59 -80 0
82 -59 -61 0
83 -84 103 0
83 84 -103 0
-83 84 103 0
-83 -84 -103 0
84 -85 94 0
84 85 -94 0
-84 85 94 0
-84 -85 -94 0
-85 -86 -91 0
-85 86 91 0
85 86 -91 0
85 -86 91 0
-86 -87 -88 0
-86 87 88 0
86 87 -88 0
86 -87 88 0
87 -175 -179 0
-87 175 0
-87 179 0
88 89 -90 0
88 -89 90 0
-88 -89 -90 0
-88 89 90 0
89 -174 -180 0
-89 174 0
-89 180 0
90 -173 -181 0
-90 173 0
-90 181 0
91 -92 93 0
91 92 -93 0
-91 92 93 0
-91 -92 -93 0
-92 178 78 0
-92 175 74 0
-92 74 78 0
-92 178 74 0
-92 175 78 0
92 -74 -78 0
92 -175 -178 -78 0
92 -175 -178 -74 0
-93 64 67 0
-93 66 67 0
-93 64 66 0
93 -64 -66 0
93 -66 -67 0
93 -64 -67 0
-94 -95 -96 0
-94 95 96 0
94 95 -96 0
94 -95 96 0
-95 69 63 0
-95 63 70 0
-95 69 70 0
95 -63 -70 0
95 -69 -63 0
95 -69 -70 0
96 97 -100 0
96 -97 100 0
-96 -97 -100 0
-96 97 100 0
97 98 -99 0
97 -98 99 0
-97 -98 -99 0
-97 98 99 0
98 -172 -182 0
-98 172 0
-98 182 0
99 -171 -183 0
-99 171 0
-99 183 0
100 101 -102 0
100 -101 102 0
-100 -101 -102 0
-100 101 102 0
101 -170 -171 -182 -183 0
-101 183 0
-101 170 0
-101 182 0
-101 171 0
102 -176 -178 0
-102 176 0
-102 178 0
-103 62 72 0
-103 72 73 0
-103 62 73 0
103 -72 -73 0
103 -62 -72 0
103 -62 -73 0
104 105 -106 0
104 -105 106 0
-104 -105 -106 0
-104 105 106 0
-105 82 103 0
-105 82 84 0
-105 84 103 0
105 -84 -103 0
105 -82 -103 0
105 -82 -84 0
106 -107 124 0
106 107 -124 0
-106 107 124 0
-106 -107 -124 0
107 -108 117 0
107 108 -117 0
-107 108 117 0
-107 -108 -117 0
-108 -109 -114 0
-108 109 114 0
108 109 -114 0
108 -109 114 0
-109 -110 -111 0
-109 110 111 0
109 110 -111 0
109 -110 111 0
110 -174 -181 0
-110 174 0
-110 181 0
111 112 -113 0
111 -112 113 0
-111 -112 -113 0
-111 112 113 0
112 -173 -182 0
-112 173 0
-112 182 0
113 -172 -183 0
-113 172 0
-113 183 0
114 -115 116 0
114 115 -116 0
-114 115 116 0
-114 -115 -116 0
-115 101 102 0
-115 97 102 0
-115 101 97 0
115 -101 -97 0
115 -97 -102 0
115 -101 -102 0
-116 180 90 0
-116 174 87 0
-116 87 90 0
-116 180 87 0
-116 174 90 0
116 -87 -90 0
116 -174 -180 -90 0
116 -174 -180 -87 0
-117 -118 -119 0
-117 118 119 0
117 118 -119 0
117 -118 119 0
-118 86 92 0
-118 92 93 0
-118 86 93 0
118 -86 -93 0
118 -92 -93 0
118 -86 -92 0
119 120 -121 0
119 -120 121 0
-119 -120 -121 0
-119 120 121 0
120 -171 -172 -182 -183 0
-120 183 0
-120 171 0
-120 182 0
-120 172 0
121 122 -123 0
121 -122 123 0
-121 -122 -123 0
-121 122 123 0
122 -176 -179 0
-122 176 0
-122 179 0
123 -175 -180 0
-123 175 0
-123 180 0
-124 85 95 0
-124 95 96 0
-124 85 96 0
124 -95 -96 0
124 -85 -95 0
124 -85 -96 0
125 -126 127 0
125 126 -127 0
-125 126 127 0
-125 -126 -127 0
-126 105 124 0
-126 105 107 0
-126 107 124 0
126 -107 -124 0
126 -105 -124 0
126 -105 -107 0
-127 128 141 0
-127 -128 -141 0
127 -128 141 0
127 128 -141 0
128 -129 134 0
128 129 -134 0
-128 129 134 0
-128 -129 -134 0
-129 -130 -131 0
-129 130 131 0
129 130 -131 0
129 -130 131 0
-130 120 123 0
-130 122 123 0
-130 120 122 0
130 -120 -122 0
130 -122 -123 0
130 -120 -123 0
131 132 -133 0
131 -132 133 0
-131 -132 -133 0
-131 132 133 0
-132 182 113 0
-132 173 110 0
-132 110 113 0
-132 182 110 0
-132 173 113 0
132 -110 -113 0
132 -173 -182 -113 0
132 -173 -182 -110 0
133 -176 -180 0
-133 176 0
-133 180 0
-134 -135 -136 0
-134 135 136 0
134 135 -136 0
134 -135 136 0
-135 109 115 0
-135 115 116 0
-135 109 116 0
135 -109 -116 0
135 -115 -116 0
135 -109 -115 0
136 137 -138 0
136 -137 138 0
-136 -137 -138 0
-136 137 138 0
137 -175 -181 0
-137 175 0
-137 181 0
138 139 -140 0
138 -139 140 0
-138 -139 -140 0
-138 139 140 0
139 -174 -182 0
-139 174 0
-139 182 0
140 -173 -183 0
-140 173 0
-140 183 0
-141 108 118 0
-141 118 119 0
-141 108 119 0
141 -118 -119 0
141 -108 -118 0
141 -108 -119 0
142 -143 144 0
142 143 -144 0
-142 143 144 0
-142 -143 -144 0
-143 126 141 0
-143 126 128 0
-143 128 141 0
143 -128 -141 0
143 -126 -141 0
143 -126 -128 0
-144 145 154 0
-144 -145 -154 0
144 -145 154 0
144 145 -154 0
145 -146 151 0
145 146 -151 0
-145 146 151 0
-145 -146 -151 0
-146 -147 -148 0
-146 147 148 0
146 147 -148 0
146 -147 148 0
147 -176 -181 0
-147 176 0
-147 181 0
148 149 -150 0
148 -149 150 0
-148 -149 -150 0
-148 149 150 0
149 -175 -182 0
-149 175 0
-149 182 0
150 -174 -183 0
-150 174 0
-150 183 0
-151 152 153 0
-151 -152 -153 0
151 -152 153 0
151 152 -153 0
-152 130 132 0
-152 132 133 0
-152 130 133 0
152 -132 -133 0
152 -130 -132 0
152 -130 -133 0
-153 137 140 0
-153 139 140 0
-153 137 139 0
153 -137 -139 0
153 -139 -140 0
153 -137 -140 0
-154 129 135 0
-154 135 136 0
-154 129 136 0
154 -135 -136 0
154 -129 -135 0
154 -129 -136 0
155 -156 157 0
155 156 -157 0
-155 156 157 0
-155 -156 -157 0
-156 143 154 0
-156 143 145 0
-156 145 154 0
156 -145 -154 0
156 -143 -154 0
156 -143 -145 0
-157 158 163 0
-157 -158 -163 0
157 -158 163 0
157 158 -163 0
158 159 -160 0
158 -159 160 0
-158 -159 -160 0
-158 159 160 0
-159 147 150 0
-159 149 150 0
-159 147 149 0
159 -147 -149 0
159 -149 -150 0
159 -147 -150 0
160 161 -162 0
160 -161 162 0
-160 -161 -162 0
-160 161 162 0
161 -176 -182 0
-161 176 0
-161 182 0
162 -175 -183 0
-162 175 0
-162 183 0
-163 146 152 0
-163 152 153 0
-163 146 153 0
163 -146 -153 0
163 -152 -153 0
163 -146 -152 0
164 -165 166 0
164 165 -166 0
-164 165 166 0
-164 -165 -166 0
-165 156 163 0
-165 156 158 0
-165 158 163 0
165 -158 -163 0
165 -156 -163 0
165 -156 -158 0
-166 -167 -168 0
-166 167 168 0
166 167 -168 0
166 -167 168 0
-167 161 162 0
-167 159 161 0
-167 159 162 0
167 -159 -161 0
167 -161 -162 0
167 -159 -162 0
168 -176 -183 0
-168 176 0
-168 183 0
-169 165 167 0
-169 167 168 0
-169 165 168 0
169 -167 -168 0
169 -165 -167 0
169 -165 -168 0
-184 0
2 0
3 0
6 0
13 0
24 0
39 0
58 0
81 0
104 0
125 0
142 0
155 0
164 0
169 0

