c Result of efficient AIG-to-CNF conversion using package CNF
p cnf 336 1315
2 -318 -327 0
-2 318 0
-2 327 0
3 4 -5 0
3 -4 5 0
-3 -4 -5 0
-3 4 5 0
4 -319 -327 0
-4 319 0
-4 327 0
5 -318 -328 0
-5 318 0
-5 328 0
6 -7 8 0
6 7 -8 0
-6 7 8 0
-6 -7 -8 0
7 -318 -319 -327 -328 0
-7 328 0
-7 318 0
-7 327 0
-7 319 0
-8 -9 -10 0
-8 9 10 0
8 9 -10 0
8 -9 10 0
9 -320 -327 0
-9 320 0
-9 327 0
10 11 -12 0
10 -11 12 0
-10 -11 -12 0
-10 11 12 0
11 -319 -328 0
-11 319 0
-11 328 0
12 -318 -329 0
-12 318 0
-12 329 0
13 -14 15 0
13 14 -15 0
-13 14 15 0
-13 -14 -15 0
14 -7 -8 0
-14 7 0
-14 8 0
-15 16 21 0
-15 -16 -21 0
15 -16 21 0
15 16 -21 0
-16 -17 -18 0
-16 17 18 0
16 17 -18 0
16 -17 18 0
17 -320 -328 0
-17 320 0
-17 328 0
18 19 -20 0
18 -19 20 0
-18 -19 -20 0
-18 19 20 0
19 -319 -329 0
-19 319 0
-19 329 0
20 -318 -330 0
-20 318 0
-20 330 0
-21 -22 -23 0
-21 22 23 0
21 22 -23 0
21 -22 23 0
-22 9 12 0
-22 11 12 0
-22 9 11 0
22 -9 -11 0
22 -11 -12 0
22 -9 -12 0
23 -321 -327 0
-23 321 0
-23 327 0
24 -25 26 0
24 25 -26 0
-24 25 26 0
-24 -25 -26 0
25 -14 -15 0
-25 14 0
-25 15 0
-26 27 38 0
-26 -27 -38 0
26 -27 38 0
26 27 -38 0
-27 -28 -31 0
-27 28 31 0
27 28 -31 0
27 -28 31 0
-28 -29 -30 0
-28 29 30 0
28 29 -30 0
28 -29 30 0
29 -322 -327 0
-29 322 0
-29 327 0
30 -321 -328 0
-30 321 0
-30 328 0
31 -32 37 0
31 32 -37 0
-31 32 37 0
-31 -32 -37 0
32 -33 34 0
32 33 -34 0
-32 33 34 0
-32 -33 -34 0
33 -320 -329 0
-33 320 0
-33 329 0
-34 -35 -36 0
-34 35 36 0
34 35 -36 0
34 -35 36 0
35 -319 -330 0
-35 319 0
-35 330 0
36 -318 -331 0
-36 318 0
-36 331 0
-37 17 20 0
-37 19 20 0
-37 17 19 0
37 -17 -19 0
37 -19 -20 0
37 -17 -20 0
-38 16 22 0
-38 22 23 0
-38 16 23 0
38 -22 -23 0
38 -16 -22 0
38 -16 -23 0
39 -40 41 0
39 40 -41 0
-39 40 41 0
-39 -40 -41 0
40 -25 -26 0
-40 25 0
-40 26 0
-41 -42 -59 0
-41 42 59 0
41 42 -59 0
41 -42 59 0
-42 -43 -52 0
-42 43 52 0
42 43 -52 0
42 -43 52 0
-43 -44 -49 0
-43 44 49 0
43 44 -49 0
43 -44 49 0
-44 -45 -46 0
-44 45 46 0
44 45 -46 0
44 -45 46 0
45 -320 -330 0
-45 320 0
-45 330 0
46 47 -48 0
46 -47 48 0
-46 -47 -48 0
-46 47 48 0
47 -319 -331 0
-47 319 0
-47 331 0
48 -318 -332 0
-48 318 0
-48 332 0
49 -50 51 0
49 50 -51 0
-49 50 51 0
-49 -50 -51 0
50 -321 -322 -327 -328 0
-50 328 0
-50 321 0
-50 327 0
-50 322 0
-51 330 36 0
-51 319 33 0
-51 33 36 0
-51 330 33 0
-51 319 36 0
51 -33 -36 0
51 -319 -330 -36 0
51 -319 -330 -33 0
52 53 -54 0
52 -53 54 0
-52 -53 -54 0
-52 53 54 0
-53 28 37 0
-53 28 32 0
-53 32 37 0
53 -32 -37 0
53 -28 -37 0
53 -28 -32 0
54 55 -56 0
54 -55 56 0
-54 -55 -56 0
-54 55 56 0
55 -323 -327 0
-55 323 0
-55 327 0
56 57 -58 0
56 -57 58 0
-56 -57 -58 0
-56 57 58 0
57 -322 -328 0
-57 322 0
-57 328 0
58 -321 -329 0
-58 321 0
-58 329 0
59 -27 -38 0
-59 27 0
-59 38 0
60 -61 62 0
60 61 -62 0
-60 61 62 0
-60 -61 -62 0
61 -40 -41 0
-61 40 0
-61 41 0
-62 -63 -84 0
-62 63 84 0
62 63 -84 0
62 -63 84 0
-63 64 83 0
-63 -64 -83 0
63 -64 83 0
63 64 -83 0
-64 -65 -76 0
-64 65 76 0
64 65 -76 0
64 -65 76 0
-65 -66 -71 0
-65 66 71 0
65 66 -71 0
65 -66 71 0
-66 -67 -68 0
-66 67 68 0
66 67 -68 0
66 -67 68 0
67 -323 -328 0
-67 323 0
-67 328 0
68 69 -70 0
68 -69 70 0
-68 -69 -70 0
-68 69 70 0
69 -322 -329 0
-69 322 0
-69 329 0
70 -321 -330 0
-70 321 0
-70 330 0
71 72 -73 0
71 -72 73 0
-71 -72 -73 0
-71 72 73 0
72 -320 -331 0
-72 320 0
-72 331 0
73 74 -75 0
73 -74 75 0
-73 -74 -75 0
-73 74 75 0
74 -319 -332 0
-74 319 0
-74 332 0
75 -318 -333 0
-75 318 0
-75 333 0
76 -77 82 0
76 77 -82 0
-76 77 82 0
-76 -77 -82 0
-77 78 79 0
-77 -78 -79 0
77 -78 79 0
77 78 -79 0
-78 55 58 0
-78 57 58 0
-78 55 57 0
78 -55 -57 0
78 -57 -58 0
78 -55 -58 0
-79 -80 -81 0
-79 80 81 0
79 80 -81 0
79 -80 81 0
-80 45 48 0
-80 47 48 0
-80 45 47 0
80 -45 -47 0
80 -47 -48 0
80 -45 -48 0
81 -324 -327 0
-81 324 0
-81 327 0
-82 44 51 0
-82 44 50 0
-82 50 51 0
82 -50 -51 0
82 -44 -51 0
82 -44 -50 0
-83 43 53 0
-83 53 54 0
-83 43 54 0
83 -53 -54 0
83 -43 -53 0
83 -43 -54 0
84 -42 -59 0
-84 42 0
-84 59 0
85 -86 88 0
85 86 -88 0
-85 86 88 0
-85 -86 -88 0
-86 87 0
86 -87 0
-87 63 0
-87 61 84 0
87 -61 -63 0
87 -63 -84 0
-88 -89 -114 0
-88 89 114 0
88 89 -114 0
88 -89 114 0
-89 90 103 0
-89 -90 -103 0
89 -90 103 0
89 90 -103 0
-90 -91 -100 0
-90 91 100 0
90 91 -100 0
90 -91 100 0
-91 -92 -97 0
-91 92 97 0
91 92 -97 0
91 -92 97 0
-92 -93 -94 0
-92 93 94 0
92 93 -94 0
92 -93 94 0
93 -320 -332 0
-93 320 0
-93 332 0
94 95 -96 0
94 -95 96 0
-94 -95 -96 0
-94 95 96 0
95 -319 -333 0
-95 319 0
-95 333 0
96 -318 -334 0
-96 318 0
-96 334 0
97 -98 99 0
97 98 -99 0
-97 98 99 0
-97 -98 -99 0
-98 67 70 0
-98 69 70 0
-98 67 69 0
98 -67 -69 0
98 -69 -70 0
98 -67 -70 0
-99 72 75 0
-99 74 75 0
-99 72 74 0
99 -72 -74 0
99 -74 -75 0
99 -72 -75 0
100 -101 102 0
100 101 -102 0
-100 101 102 0
-100 -101 -102 0
101 -66 -71 0
-101 66 0
-101 71 0
-102 78 80 0
-102 80 81 0
-102 78 81 0
102 -80 -81 0
102 -78 -80 0
102 -78 -81 0
-103 -104 -105 0
-103 104 105 0
103 104 -105 0
103 -104 105 0
-104 65 77 0
-104 77 82 0
-104 65 82 0
104 -65 -82 0
104 -77 -82 0
104 -65 -77 0
105 -106 109 0
105 106 -109 0
-105 106 109 0
-105 -106 -109 0
106 107 -108 0
106 -107 108 0
-106 -107 -108 0
-106 107 108 0
107 -325 -327 0
-107 325 0
-107 327 0
108 -324 -328 0
-108 324 0
-108 328 0
-109 -110 -111 0
-109 110 111 0
109 110 -111 0
109 -110 111 0
110 -323 -329 0
-110 323 0
-110 329 0
111 112 -113 0
111 -112 113 0
-111 -112 -113 0
-111 112 113 0
112 -322 -330 0
-112 322 0
-112 330 0
113 -321 -331 0
-113 321 0
-113 331 0
114 -64 -83 0
-114 64 0
-114 83 0
115 -116 117 0
115 116 -117 0
-115 116 117 0
-115 -116 -117 0
-116 86 89 0
-116 89 114 0
-116 86 114 0
116 -89 -114 0
116 -86 -89 0
116 -86 -114 0
-117 118 147 0
-117 -118 -147 0
117 -118 147 0
117 118 -147 0
118 -119 128 0
118 119 -128 0
-118 119 128 0
-118 -119 -128 0
-119 -120 -125 0
-119 120 125 0
119 120 -125 0
119 -120 125 0
-120 121 122 0
-120 -121 -122 0
120 -121 122 0
120 121 -122 0
121 -324 -325 -327 -328 0
-121 328 0
-121 324 0
-121 327 0
-121 325 0
-122 123 124 0
-122 -123 -124 0
122 -123 124 0
122 123 -124 0
-123 110 113 0
-123 112 113 0
-123 110 112 0
123 -110 -112 0
123 -112 -113 0
123 -110 -113 0
-124 93 96 0
-124 95 96 0
-124 93 95 0
124 -93 -95 0
124 -95 -96 0
124 -93 -96 0
125 -126 127 0
125 126 -127 0
-125 126 127 0
-125 -126 -127 0
126 -106 -109 0
-126 106 0
-126 109 0
-127 92 98 0
-127 98 99 0
-127 92 99 0
127 -92 -99 0
127 -98 -99 0
127 -92 -98 0
-128 -129 -130 0
-128 129 130 0
128 129 -130 0
128 -129 130 0
-129 91 102 0
-129 91 101 0
-129 101 102 0
129 -101 -102 0
129 -91 -102 0
129 -91 -101 0
130 131 -136 0
130 -131 136 0
-130 -131 -136 0
-130 131 136 0
-131 -132 -133 0
-131 132 133 0
131 132 -133 0
131 -132 133 0
132 -326 -327 0
-132 326 0
-132 327 0
133 134 -135 0
133 -134 135 0
-133 -134 -135 0
-133 134 135 0
134 -325 -328 0
-134 325 0
-134 328 0
135 -324 -329 0
-135 324 0
-135 329 0
136 -137 142 0
136 137 -142 0
-136 137 142 0
-136 -137 -142 0
-137 -138 -139 0
-137 138 139 0
137 138 -139 0
137 -138 139 0
138 -323 -330 0
-138 323 0
-138 330 0
139 140 -141 0
139 -140 141 0
-139 -140 -141 0
-139 140 141 0
140 -322 -331 0
-140 322 0
-140 331 0
141 -321 -332 0
-141 321 0
-141 332 0
-142 -143 -144 0
-142 143 144 0
142 143 -144 0
142 -143 144 0
143 -320 -333 0
-143 320 0
-143 333 0
144 145 -146 0
144 -145 146 0
-144 -145 -146 0
-144 145 146 0
145 -319 -334 0
-145 319 0
-145 334 0
146 -318 -335 0
-146 318 0
-146 335 0
-147 90 104 0
-147 104 105 0
-147 90 105 0
147 -104 -105 0
147 -90 -104 0
147 -90 -105 0
148 -149 150 0
148 149 -150 0
-148 149 150 0
-148 -149 -150 0
-149 116 147 0
-149 116 118 0
-149 118 147 0
149 -118 -147 0
149 -116 -147 0
149 -116 -118 0
-150 151 178 0
-150 -151 -178 0
150 -151 178 0
150 151 -178 0
151 -152 161 0
151 152 -161 0
-151 152 161 0
-151 -152 -161 0
-152 -153 -158 0
-152 153 158 0
152 153 -158 0
152 -153 158 0
-153 -154 -155 0
-153 154 155 0
153 154 -155 0
153 -154 155 0
-154 328 135 0
-154 325 132 0
-154 132 135 0
-154 328 132 0
-154 325 135 0
154 -132 -135 0
154 -325 -328 -135 0
154 -325 -328 -132 0
155 -156 157 0
155 156 -157 0
-155 156 157 0
-155 -156 -157 0
-156 138 141 0
-156 140 141 0
-156 138 140 0
156 -138 -140 0
156 -140 -141 0
156 -138 -141 0
-157 143 146 0
-157 145 146 0
-157 143 145 0
157 -143 -145 0
157 -145 -146 0
157 -143 -146 0
158 -159 160 0
158 159 -160 0
-158 159 160 0
-158 -159 -160 0
-159 131 137 0
-159 137 142 0
-159 131 142 0
159 -131 -142 0
159 -137 -142 0
159 -131 -137 0
-160 121 123 0
-160 123 124 0
-160 121 124 0
160 -123 -124 0
160 -121 -123 0
160 -121 -124 0
-161 -162 -163 0
-161 162 163 0
161 162 -163 0
161 -162 163 0
-162 126 120 0
-162 120 127 0
-162 126 127 0
162 -120 -127 0
162 -126 -120 0
162 -126 -127 0
163 164 -167 0
163 -164 167 0
-163 -164 -167 0
-163 164 167 0
164 165 -166 0
164 -165 166 0
-164 -165 -166 0
-164 165 166 0
165 -326 -328 0
-165 326 0
-165 328 0
166 -325 -329 0
-166 325 0
-166 329 0
167 -168 173 0
167 168 -173 0
-167 168 173 0
-167 -168 -173 0
-168 -169 -170 0
-168 169 170 0
168 169 -170 0
168 -169 170 0
169 -324 -330 0
-169 324 0
-169 330 0
170 171 -172 0
170 -171 172 0
-170 -171 -172 0
-170 171 172 0
171 -323 -331 0
-171 323 0
-171 331 0
172 -322 -332 0
-172 322 0
-172 332 0
-173 -174 -175 0
-173 174 175 0
173 174 -175 0
173 -174 175 0
174 -321 -333 0
-174 321 0
-174 333 0
175 176 -177 0
175 -176 177 0
-175 -176 -177 0
-175 176 177 0
176 -320 -334 0
-176 320 0
-176 334 0
177 -319 -335 0
-177 319 0
-177 335 0
-178 119 129 0
-178 129 130 0
-178 119 130 0
178 -129 -130 0
178 -119 -129 0
178 -119 -130 0
179 -180 181 0
179 180 -181 0
-179 180 181 0
-179 -180 -181 0
-180 149 178 0
-180 149 151 0
-180 151 178 0
180 -151 -178 0
180 -149 -178 0
180 -149 -151 0
-181 182 207 0
-181 -182 -207 0
181 -182 207 0
181 182 -207 0
182 -183 192 0
182 183 -192 0
-182 183 192 0
-182 -183 -192 0
-183 -184 -189 0
-183 184 189 0
183 184 -189 0
183 -184 189 0
-184 -185 -186 0
-184 185 186 0
184 185 -186 0
184 -185 186 0
-185 169 172 0
-185 171 172 0
-185 169 171 0
185 -169 -171 0
185 -171 -172 0
185 -169 -172 0
186 187 -188 0
186 -187 188 0
-186 -187 -188 0
-186 187 188 0
-187 174 177 0
-187 176 177 0
-187 174 176 0
187 -174 -176 0
187 -176 -177 0
187 -174 -177 0
188 -326 -329 0
-188 326 0
-188 329 0
189 -190 191 0
189 190 -191 0
-189 190 191 0
-189 -190 -191 0
-190 164 168 0
-190 168 173 0
-190 164 173 0
190 -168 -173 0
190 -164 -168 0
190 -164 -173 0
-191 154 156 0
-191 156 157 0
-191 154 157 0
191 -154 -157 0
191 -156 -157 0
191 -154 -156 0
-192 -193 -194 0
-192 193 194 0
192 193 -194 0
192 -193 194 0
-193 153 159 0
-193 159 160 0
-193 153 160 0
193 -153 -160 0
193 -159 -160 0
193 -153 -159 0
194 -195 200 0
194 195 -200 0
-194 195 200 0
-194 -195 -200 0
-195 -196 -197 0
-195 196 197 0
195 196 -197 0
195 -196 197 0
196 -325 -330 0
-196 325 0
-196 330 0
197 198 -199 0
197 -198 199 0
-197 -198 -199 0
-197 198 199 0
198 -324 -331 0
-198 324 0
-198 331 0
199 -323 -332 0
-199 323 0
-199 332 0
-200 201 202 0
-200 -201 -202 0
200 -201 202 0
200 201 -202 0
201 -325 -326 -328 -329 0
-201 329 0
-201 325 0
-201 328 0
-201 326 0
-202 -203 -204 0
-202 203 204 0
202 203 -204 0
202 -203 204 0
203 -322 -333 0
-203 322 0
-203 333 0
204 205 -206 0
204 -205 206 0
-204 -205 -206 0
-204 205 206 0
205 -321 -334 0
-205 321 0
-205 334 0
206 -320 -335 0
-206 320 0
-206 335 0
-207 152 162 0
-207 162 163 0
-207 152 163 0
207 -162 -163 0
207 -152 -162 0
207 -152 -163 0
208 -209 210 0
208 209 -210 0
-208 209 210 0
-208 -209 -210 0
-209 180 207 0
-209 180 182 0
-209 182 207 0
209 -182 -207 0
209 -180 -207 0
209 -180 -182 0
-210 211 232 0
-210 -211 -232 0
210 -211 232 0
210 211 -232 0
211 -212 221 0
211 212 -221 0
-211 212 221 0
-211 -212 -221 0
-212 -213 -214 0
-212 213 214 0
212 213 -214 0
212 -213 214 0
-213 201 195 0
-213 195 202 0
-213 201 202 0
213 -195 -202 0
213 -201 -195 0
213 -201 -202 0
214 -215 216 0
214 215 -216 0
-214 215 216 0
-214 -215 -216 0
-215 185 187 0
-215 187 188 0
-215 185 188 0
215 -187 -188 0
215 -185 -187 0
215 -185 -188 0
-216 -217 -218 0
-216 217 218 0
216 217 -218 0
216 -217 218 0
217 -326 -330 0
-217 326 0
-217 330 0
218 219 -220 0
218 -219 220 0
-218 -219 -220 0
-218 219 220 0
219 -325 -331 0
-219 325 0
-219 331 0
220 -324 -332 0
-220 324 0
-220 332 0
-221 -222 -223 0
-221 222 223 0
221 222 -223 0
221 -222 223 0
-222 184 190 0
-222 190 191 0
-222 184 191 0
222 -184 -191 0
222 -190 -191 0
222 -184 -190 0
223 -224 229 0
223 224 -229 0
-223 224 229 0
-223 -224 -229 0
-224 -225 -226 0
-224 225 226 0
224 225 -226 0
224 -225 226 0
225 -323 -333 0
-225 323 0
-225 333 0
226 227 -228 0
226 -227 228 0
-226 -227 -228 0
-226 227 228 0
227 -322 -334 0
-227 322 0
-227 334 0
228 -321 -335 0
-228 321 0
-228 335 0
-229 230 231 0
-229 -230 -231 0
229 -230 231 0
229 230 -231 0
-230 331 199 0
-230 324 196 0
-230 196 199 0
-230 331 196 0
-230 324 199 0
230 -196 -199 0
230 -324 -331 -199 0
230 -324 -331 -196 0
-231 334 206 0
-231 321 203 0
-231 203 206 0
-231 334 203 0
-231 321 206 0
231 -203 -206 0
231 -321 -334 -206 0
231 -321 -334 -203 0
-232 183 193 0
-232 193 194 0
-232 183 194 0
232 -193 -194 0
232 -183 -193 0
232 -183 -194 0
233 -234 235 0
233 234 -235 0
-233 234 235 0
-233 -234 -235 0
-234 209 232 0
-234 209 211 0
-234 211 232 0
234 -211 -232 0
234 -209 -232 0
234 -209 -211 0
-235 236 253 0
-235 -236 -253 0
235 -236 253 0
235 236 -253 0
236 -237 252 0
236 237 -252 0
-236 237 252 0
-236 -237 -252 0
-237 -238 -247 0
-237 238 247 0
237 238 -247 0
237 -238 247 0
-238 -239 -244 0
-238 239 244 0
238 239 -244 0
238 -239 244 0
-239 -240 -241 0
-239 240 241 0
239 240 -241 0
239 -240 241 0
240 -324 -333 0
-240 324 0
-240 333 0
241 242 -243 0
241 -242 243 0
-241 -242 -243 0
-241 242 243 0
242 -323 -334 0
-242 323 0
-242 334 0
243 -322 -335 0
-243 322 0
-243 335 0
244 -245 246 0
244 245 -246 0
-244 245 246 0
-244 -245 -246 0
-245 217 220 0
-245 219 220 0
-245 217 219 0
245 -217 -219 0
245 -219 -220 0
245 -217 -220 0
-246 334 228 0
-246 322 225 0
-246 225 228 0
-246 334 225 0
-246 322 228 0
246 -225 -228 0
246 -322 -334 -228 0
246 -322 -334 -225 0
247 248 -249 0
247 -248 249 0
-247 -248 -249 0
-247 248 249 0
-248 224 230 0
-248 230 231 0
-248 224 231 0
248 -224 -231 0
248 -230 -231 0
248 -224 -230 0
249 250 -251 0
249 -250 251 0
-249 -250 -251 0
-249 250 251 0
250 -326 -331 0
-250 326 0
-250 331 0
251 -325 -332 0
-251 325 0
-251 332 0
-252 213 215 0
-252 215 216 0
-252 213 216 0
252 -213 -216 0
252 -215 -216 0
252 -213 -215 0
-253 212 222 0
-253 222 223 0
-253 212 223 0
253 -222 -223 0
253 -212 -222 0
253 -212 -223 0
254 -255 256 0
254 255 -256 0
-254 255 256 0
-254 -255 -256 0
-255 234 253 0
-255 234 236 0
-255 236 253 0
255 -236 -253 0
255 -234 -253 0
255 -234 -236 0
-256 -257 -258 0
-256 257 258 0
256 257 -258 0
256 -257 258 0
257 -237 -252 0
-257 237 0
-257 252 0
258 -259 272 0
258 259 -272 0
-258 259 272 0
-258 -259 -272 0
-259 -260 -265 0
-259 260 265 0
259 260 -265 0
259 -260 265 0
-260 261 262 0
-260 -261 -262 0
260 -261 262 0
260 261 -262 0
261 -325 -326 -331 -332 0
-261 332 0
-261 325 0
-261 331 0
-261 326 0
-262 -263 -264 0
-262 263 264 0
262 263 -264 0
262 -263 264 0
-263 240 243 0
-263 242 243 0
-263 240 242 0
263 -240 -242 0
263 -242 -243 0
263 -240 -243 0
264 -326 -332 0
-264 326 0
-264 332 0
265 -266 267 0
265 266 -267 0
-265 266 267 0
-265 -266 -267 0
-266 239 245 0
-266 245 246 0
-266 239 246 0
266 -239 -246 0
266 -245 -246 0
266 -239 -245 0
-267 -268 -269 0
-267 268 269 0
267 268 -269 0
267 -268 269 0
268 -325 -333 0
-268 325 0
-268 333 0
269 270 -271 0
269 -270 271 0
-269 -270 -271 0
-269 270 271 0
270 -324 -334 0
-270 324 0
-270 334 0
271 -323 -335 0
-271 323 0
-271 335 0
-272 238 248 0
-272 248 249 0
-272 238 249 0
272 -248 -249 0
272 -238 -248 0
272 -238 -249 0
273 -274 275 0
273 274 -275 0
-273 274 275 0
-273 -274 -275 0
-274 255 258 0
-274 257 258 0
-274 257 255 0
274 -257 -258 0
274 -257 -255 0
274 -255 -258 0
-275 -276 -277 0
-275 276 277 0
275 276 -277 0
275 -276 277 0
276 -259 -272 0
-276 259 0
-276 272 0
277 -278 287 0
277 278 -287 0
-277 278 287 0
-277 -278 -287 0
-278 279 286 0
-278 -279 -286 0
278 -279 286 0
278 279 -286 0
-279 280 285 0
-279 -280 -285 0
279 -280 285 0
279 280 -285 0
-280 -281 -282 0
-280 281 282 0
280 281 -282 0
280 -281 282 0
281 -326 -333 0
-281 326 0
-281 333 0
282 283 -284 0
282 -283 284 0
-282 -283 -284 0
-282 283 284 0
283 -325 -334 0
-283 325 0
-283 334 0
284 -324 -335 0
-284 324 0
-284 335 0
-285 268 271 0
-285 270 271 0
-285 268 270 0
285 -268 -270 0
285 -270 -271 0
285 -268 -271 0
-286 263 264 0
-286 261 264 0
-286 261 263 0
286 -261 -264 0
286 -261 -263 0
286 -263 -264 0
-287 260 266 0
-287 266 267 0
-287 260 267 0
287 -260 -267 0
287 -266 -267 0
287 -260 -266 0
288 -289 290 0
288 289 -290 0
-288 289 290 0
-288 -289 -290 0
-289 274 277 0
-289 276 277 0
-289 276 274 0
289 -276 -277 0
289 -276 -274 0
289 -274 -277 0
-290 291 292 0
-290 -291 -292 0
290 -291 292 0
290 291 -292 0
291 -278 -287 0
-291 278 0
-291 287 0
-292 -293 -300 0
-292 293 300 0
292 293 -300 0
292 -293 300 0
-293 -294 -299 0
-293 294 299 0
293 294 -299 0
293 -294 299 0
-294 295 298 0
-294 -295 -298 0
294 -295 298 0
294 295 -298 0
295 296 -297 0
295 -296 297 0
-295 -296 -297 0
-295 296 297 0
296 -326 -334 0
-296 326 0
-296 334 0
297 -325 -335 0
-297 325 0
-297 335 0
-298 281 284 0
-298 283 284 0
-298 281 283 0
298 -281 -283 0
298 -283 -284 0
298 -281 -284 0
299 -280 -285 0
-299 280 0
-299 285 0
300 -279 -286 0
-300 279 0
-300 286 0
301 -302 303 0
301 302 -303 0
-301 302 303 0
-301 -302 -303 0
-302 291 289 0
-302 289 292 0
-302 291 292 0
302 -289 -292 0
302 -291 -289 0
302 -291 -292 0
-303 -304 -310 0
-303 304 310 0
303 304 -310 0
303 -304 310 0
-304 -305 -309 0
-304 305 309 0
304 305 -309 0
304 -305 309 0
-305 -306 -308 0
-305 306 308 0
305 306 -308 0
305 -306 308 0
-306 307 0
306 -307 0
307 325 -326 -335 0
307 -326 334 -335 0
-307 335 0
-307 326 0
-307 -325 -334 0
308 -295 -298 0
-308 295 0
-308 298 0
309 -294 -299 0
-309 294 0
-309 299 0
310 -293 -300 0
-310 293 0
-310 300 0
311 -312 313 0
311 312 -313 0
-311 312 313 0
-311 -312 -313 0
-312 302 304 0
-312 304 310 0
-312 302 310 0
312 -304 -310 0
312 -302 -304 0
312 -302 -310 0
-313 -314 -317 0
-313 314 317 0
313 314 -317 0
313 -314 317 0
-314 -315 -316 0
-314 315 316 0
314 315 -316 0
314 -315 316 0
315 -306 -308 0
-315 306 0
-315 308 0
316 -325 -326 -334 -335 0
-316 335 0
-316 325 0
-316 334 0
-316 326 0
317 -305 -309 0
-317 305 0
-317 309 0
-336 0
2 0
3 0
6 0
13 0
24 0
39 0
60 0
85 0
115 0
148 0
179 0
208 0
233 0
254 0
273 0
288 0
301 0
311 0

