c Result of efficient AIG-to-CNF conversion using package CNF
p cnf 210 798
2 -196 -203 0
-2 196 0
-2 203 0
3 4 -5 0
3 -4 5 0
-3 -4 -5 0
-3 4 5 0
4 -197 -203 0
-4 197 0
-4 203 0
5 -196 -204 0
-5 196 0
-5 204 0
6 -7 8 0
6 7 -8 0
-6 7 8 0
-6 -7 -8 0
7 -196 -197 -203 -204 0
-7 204 0
-7 196 0
-7 203 0
-7 197 0
-8 -9 -10 0
-8 9 10 0
8 9 -10 0
8 -9 10 0
9 -198 -203 0
-9 198 0
-9 203 0
10 11 -12 0
10 -11 12 0
-10 -11 -12 0
-10 11 12 0
11 -197 -204 0
-11 197 0
-11 204 0
12 -196 -205 0
-12 196 0
-12 205 0
13 -14 15 0
13 14 -15 0
-13 14 15 0
-13 -14 -15 0
14 -7 -8 0
-14 7 0
-14 8 0
-15 16 21 0
-15 -16 -21 0
15 -16 21 0
15 16 -21 0
-16 -17 -18 0
-16 17 18 0
16 17 -18 0
16 -17 18 0
17 -198 -204 0
-17 198 0
-17 204 0
18 19 -20 0
18 -19 20 0
-18 -19 -20 0
-18 19 20 0
19 -197 -205 0
-19 197 0
-19 205 0
20 -196 -206 0
-20 196 0
-20 206 0
-21 -22 -23 0
-21 22 23 0
21 22 -23 0
21 -22 23 0
-22 204 12 0
-22 197 9 0
-22 9 12 0
-22 204 9 0
-22 197 12 0
22 -9 -12 0
22 -197 -204 -12 0
22 -197 -204 -9 0
23 -199 -203 0
-23 199 0
-23 203 0
24 -25 26 0
24 25 -26 0
-24 25 26 0
-24 -25 -26 0
25 -14 -15 0
-25 14 0
-25 15 0
-26 27 38 0
-26 -27 -38 0
26 -27 38 0
26 27 -38 0
-27 -28 -31 0
-27 28 31 0
27 28 -31 0
27 -28 31 0
-28 -29 -30 0
-28 29 30 0
28 29 -30 0
28 -29 30 0
29 -200 -203 0
-29 200 0
-29 203 0
30 -199 -204 0
-30 199 0
-30 204 0
31 -32 37 0
31 32 -37 0
-31 32 37 0
-31 -32 -37 0
32 -33 34 0
32 33 -34 0
-32 33 34 0
-32 -33 -34 0
33 -198 -205 0
-33 198 0
-33 205 0
-34 -35 -36 0
-34 35 36 0
34 35 -36 0
34 -35 36 0
35 -197 -206 0
-35 197 0
-35 206 0
36 -196 -207 0
-36 196 0
-36 207 0
-37 205 20 0
-37 197 17 0
-37 17 20 0
-37 205 17 0
-37 197 20 0
37 -17 -20 0
37 -197 -205 -20 0
37 -197 -205 -17 0
-38 16 22 0
-38 22 23 0
-38 16 23 0
38 -22 -23 0
38 -16 -22 0
38 -16 -23 0
39 -40 41 0
39 40 -41 0
-39 40 41 0
-39 -40 -41 0
40 -25 -26 0
-40 25 0
-40 26 0
-41 -42 -59 0
-41 42 59 0
41 42 -59 0
41 -42 59 0
-42 -43 -52 0
-42 43 52 0
42 43 -52 0
42 -43 52 0
-43 -44 -49 0
-43 44 49 0
43 44 -49 0
43 -44 49 0
-44 -45 -46 0
-44 45 46 0
44 45 -46 0
44 -45 46 0
45 -198 -206 0
-45 198 0
-45 206 0
46 47 -48 0
46 -47 48 0
-46 -47 -48 0
-46 47 48 0
47 -197 -207 0
-47 197 0
-47 207 0
48 -196 -208 0
-48 196 0
-48 208 0
49 -50 51 0
49 50 -51 0
-49 50 51 0
-49 -50 -51 0
50 -199 -200 -203 -204 0
-50 204 0
-50 199 0
-50 203 0
-50 200 0
-51 33 36 0
-51 35 36 0
-51 33 35 0
51 -33 -35 0
51 -35 -36 0
51 -33 -36 0
52 53 -54 0
52 -53 54 0
-52 -53 -54 0
-52 53 54 0
-53 28 37 0
-53 28 32 0
-53 32 37 0
53 -32 -37 0
53 -28 -37 0
53 -28 -32 0
54 55 -56 0
54 -55 56 0
-54 -55 -56 0
-54 55 56 0
55 -201 -203 0
-55 201 0
-55 203 0
56 57 -58 0
56 -57 58 0
-56 -57 -58 0
-56 57 58 0
57 -200 -204 0
-57 200 0
-57 204 0
58 -199 -205 0
-58 199 0
-58 205 0
59 -27 -38 0
-59 27 0
-59 38 0
60 -61 62 0
60 61 -62 0
-60 61 62 0
-60 -61 -62 0
61 -40 -41 0
-61 40 0
-61 41 0
-62 -63 -84 0
-62 63 84 0
62 63 -84 0
62 -63 84 0
-63 64 83 0
-63 -64 -83 0
63 -64 83 0
63 64 -83 0
-64 -65 -76 0
-64 65 76 0
64 65 -76 0
64 -65 76 0
65 -66 71 0
65 66 -71 0
-65 66 71 0
-65 -66 -71 0
-66 -67 -68 0
-66 67 68 0
66 67 -68 0
66 -67 68 0
67 -201 -204 0
-67 201 0
-67 204 0
68 69 -70 0
68 -69 70 0
-68 -69 -70 0
-68 69 70 0
69 -200 -205 0
-69 200 0
-69 205 0
70 -199 -206 0
-70 199 0
-70 206 0
-71 -72 -73 0
-71 72 73 0
71 72 -73 0
71 -72 73 0
72 -198 -207 0
-72 198 0
-72 207 0
73 74 -75 0
73 -74 75 0
-73 -74 -75 0
-73 74 75 0
74 -197 -208 0
-74 197 0
-74 208 0
75 -196 -209 0
-75 196 0
-75 209 0
76 -77 82 0
76 77 -82 0
-76 77 82 0
-76 -77 -82 0
-77 78 79 0
-77 -78 -79 0
77 -78 79 0
77 78 -79 0
-78 55 58 0
-78 57 58 0
-78 55 57 0
78 -55 -57 0
78 -57 -58 0
78 -55 -58 0
-79 -80 -81 0
-79 80 81 0
79 80 -81 0
79 -80 81 0
-80 45 48 0
-80 47 48 0
-80 45 47 0
80 -45 -47 0
80 -47 -48 0
80 -45 -48 0
81 -202 -203 0
-81 202 0
-81 203 0
-82 44 51 0
-82 44 50 0
-82 50 51 0
82 -50 -51 0
82 -44 -51 0
82 -44 -50 0
-83 43 53 0
-83 53 54 0
-83 43 54 0
83 -53 -54 0
83 -43 -53 0
83 -43 -54 0
84 -42 -59 0
-84 42 0
-84 59 0
85 -86 88 0
85 86 -88 0
-85 86 88 0
-85 -86 -88 0
-86 87 0
86 -87 0
-87 63 0
-87 61 84 0
87 -61 -63 0
87 -63 -84 0
-88 -89 -110 0
-88 89 110 0
88 89 -110 0
88 -89 110 0
-89 90 99 0
-89 -90 -99 0
89 -90 99 0
89 90 -99 0
-90 91 92 0
-90 -91 -92 0
90 -91 92 0
90 91 -92 0
91 -66 -71 0
-91 66 0
-91 71 0
-92 -93 -94 0
-92 93 94 0
92 93 -94 0
92 -93 94 0
-93 78 80 0
-93 80 81 0
-93 78 81 0
93 -80 -81 0
93 -78 -80 0
93 -78 -81 0
94 95 -96 0
94 -95 96 0
-94 -95 -96 0
-94 95 96 0
95 -202 -204 0
-95 202 0
-95 204 0
96 97 -98 0
96 -97 98 0
-96 -97 -98 0
-96 97 98 0
97 -201 -205 0
-97 201 0
-97 205 0
98 -200 -206 0
-98 200 0
-98 206 0
-99 -100 -101 0
-99 100 101 0
99 100 -101 0
99 -100 101 0
-100 65 77 0
-100 77 82 0
-100 65 82 0
100 -77 -82 0
100 -65 -77 0
100 -65 -82 0
101 -102 107 0
101 102 -107 0
-101 102 107 0
-101 -102 -107 0
-102 -103 -104 0
-102 103 104 0
102 103 -104 0
102 -103 104 0
103 -199 -207 0
-103 199 0
-103 207 0
104 105 -106 0
104 -105 106 0
-104 -105 -106 0
-104 105 106 0
105 -198 -208 0
-105 198 0
-105 208 0
106 -197 -209 0
-106 197 0
-106 209 0
-107 108 109 0
-107 -108 -109 0
107 -108 109 0
107 108 -109 0
-108 205 70 0
-108 200 67 0
-108 67 70 0
-108 205 67 0
-108 200 70 0
108 -67 -70 0
108 -200 -205 -70 0
108 -200 -205 -67 0
-109 72 75 0
-109 74 75 0
-109 72 74 0
109 -72 -74 0
109 -74 -75 0
109 -72 -75 0
110 -64 -83 0
-110 64 0
-110 83 0
111 -112 113 0
111 112 -113 0
-111 112 113 0
-111 -112 -113 0
-112 86 89 0
-112 89 110 0
-112 86 110 0
112 -89 -110 0
112 -86 -89 0
112 -86 -110 0
-113 114 131 0
-113 -114 -131 0
113 -114 131 0
113 114 -131 0
114 -115 130 0
114 115 -130 0
-114 115 130 0
-114 -115 -130 0
-115 -116 -125 0
-115 116 125 0
115 116 -125 0
115 -116 125 0
-116 -117 -122 0
-116 117 122 0
116 117 -122 0
116 -117 122 0
-117 -118 -119 0
-117 118 119 0
117 118 -119 0
117 -118 119 0
118 -200 -207 0
-118 200 0
-118 207 0
119 120 -121 0
119 -120 121 0
-119 -120 -121 0
-119 120 121 0
120 -199 -208 0
-120 199 0
-120 208 0
121 -198 -209 0
-121 198 0
-121 209 0
122 -123 124 0
122 123 -124 0
-122 123 124 0
-122 -123 -124 0
-123 95 98 0
-123 97 98 0
-123 95 97 0
123 -95 -97 0
123 -97 -98 0
123 -95 -98 0
-124 208 106 0
-124 198 103 0
-124 103 106 0
-124 208 103 0
-124 198 106 0
124 -103 -106 0
124 -198 -208 -106 0
124 -198 -208 -103 0
125 126 -127 0
125 -126 127 0
-125 -126 -127 0
-125 126 127 0
-126 102 108 0
-126 108 109 0
-126 102 109 0
126 -102 -109 0
126 -108 -109 0
126 -102 -108 0
127 128 -129 0
127 -128 129 0
-127 -128 -129 0
-127 128 129 0
128 -202 -205 0
-128 202 0
-128 205 0
129 -201 -206 0
-129 201 0
-129 206 0
-130 93 94 0
-130 91 94 0
-130 91 93 0
130 -91 -94 0
130 -91 -93 0
130 -93 -94 0
-131 90 100 0
-131 100 101 0
-131 90 101 0
131 -100 -101 0
131 -90 -100 0
131 -90 -101 0
132 -133 134 0
132 133 -134 0
-132 133 134 0
-132 -133 -134 0
-133 112 131 0
-133 112 114 0
-133 114 131 0
133 -114 -131 0
133 -112 -131 0
133 -112 -114 0
-134 -135 -136 0
-134 135 136 0
134 135 -136 0
134 -135 136 0
135 -115 -130 0
-135 115 0
-135 130 0
136 -137 150 0
136 137 -150 0
-136 137 150 0
-136 -137 -150 0
-137 -138 -143 0
-137 138 143 0
137 138 -143 0
137 -138 143 0
-138 139 140 0
-138 -139 -140 0
138 -139 140 0
138 139 -140 0
139 -201 -202 -205 -206 0
-139 206 0
-139 201 0
-139 205 0
-139 202 0
-140 -141 -142 0
-140 141 142 0
140 141 -142 0
140 -141 142 0
-141 118 121 0
-141 120 121 0
-141 118 120 0
141 -118 -120 0
141 -120 -121 0
141 -118 -121 0
142 -202 -206 0
-142 202 0
-142 206 0
143 -144 145 0
143 144 -145 0
-143 144 145 0
-143 -144 -145 0
-144 117 123 0
-144 123 124 0
-144 117 124 0
144 -117 -124 0
144 -123 -124 0
144 -117 -123 0
-145 -146 -147 0
-145 146 147 0
145 146 -147 0
145 -146 147 0
146 -201 -207 0
-146 201 0
-146 207 0
147 148 -149 0
147 -148 149 0
-147 -148 -149 0
-147 148 149 0
148 -200 -208 0
-148 200 0
-148 208 0
149 -199 -209 0
-149 199 0
-149 209 0
-150 116 126 0
-150 126 127 0
-150 116 127 0
150 -126 -127 0
150 -116 -126 0
150 -116 -127 0
151 -152 153 0
151 152 -153 0
-151 152 153 0
-151 -152 -153 0
-152 133 136 0
-152 135 136 0
-152 135 133 0
152 -135 -136 0
152 -135 -133 0
152 -133 -136 0
-153 -154 -155 0
-153 154 155 0
153 154 -155 0
153 -154 155 0
154 -137 -150 0
-154 137 0
-154 150 0
155 -156 165 0
155 156 -165 0
-155 156 165 0
-155 -156 -165 0
-156 157 164 0
-156 -157 -164 0
156 -157 164 0
156 157 -164 0
-157 158 163 0
-157 -158 -163 0
157 -158 163 0
157 158 -163 0
-158 -159 -160 0
-158 159 160 0
158 159 -160 0
158 -159 160 0
159 -202 -207 0
-159 202 0
-159 207 0
160 161 -162 0
160 -161 162 0
-160 -161 -162 0
-160 161 162 0
161 -201 -208 0
-161 201 0
-161 208 0
162 -200 -209 0
-162 200 0
-162 209 0
-163 208 149 0
-163 200 146 0
-163 146 149 0
-163 208 146 0
-163 200 149 0
163 -146 -149 0
163 -200 -208 -149 0
163 -200 -208 -146 0
-164 141 142 0
-164 139 142 0
-164 139 141 0
164 -139 -142 0
164 -139 -141 0
164 -141 -142 0
-165 138 144 0
-165 144 145 0
-165 138 145 0
165 -138 -145 0
165 -144 -145 0
165 -138 -144 0
166 -167 168 0
166 167 -168 0
-166 167 168 0
-166 -167 -168 0
-167 152 155 0
-167 154 155 0
-167 154 152 0
167 -154 -155 0
167 -154 -152 0
167 -152 -155 0
-168 169 170 0
-168 -169 -170 0
168 -169 170 0
168 169 -170 0
169 -156 -165 0
-169 156 0
-169 165 0
-170 -171 -178 0
-170 171 178 0
170 171 -178 0
170 -171 178 0
-171 -172 -177 0
-171 172 177 0
171 172 -177 0
171 -172 177 0
-172 173 176 0
-172 -173 -176 0
172 -173 176 0
172 173 -176 0
173 174 -175 0
173 -174 175 0
-173 -174 -175 0
-173 174 175 0
174 -202 -208 0
-174 202 0
-174 208 0
175 -201 -209 0
-175 201 0
-175 209 0
-176 159 162 0
-176 161 162 0
-176 159 161 0
176 -159 -161 0
176 -161 -162 0
176 -159 -162 0
177 -158 -163 0
-177 158 0
-177 163 0
178 -157 -164 0
-178 157 0
-178 164 0
179 -180 181 0
179 180 -181 0
-179 180 181 0
-179 -180 -181 0
-180 169 167 0
-180 167 170 0
-180 169 170 0
180 -167 -170 0
180 -169 -167 0
180 -169 -170 0
-181 -182 -188 0
-181 182 188 0
181 182 -188 0
181 -182 188 0
-182 -183 -187 0
-182 183 187 0
182 183 -187 0
182 -183 187 0
-183 -184 -186 0
-183 184 186 0
183 184 -186 0
183 -184 186 0
-184 185 0
184 -185 0
185 201 -202 -209 0
185 -202 208 -209 0
-185 209 0
-185 202 0
-185 -201 -208 0
186 -173 -176 0
-186 173 0
-186 176 0
187 -172 -177 0
-187 172 0
-187 177 0
188 -171 -178 0
-188 171 0
-188 178 0
189 -190 191 0
189 190 -191 0
-189 190 191 0
-189 -190 -191 0
-190 180 182 0
-190 182 188 0
-190 180 188 0
190 -182 -188 0
190 -180 -182 0
190 -180 -188 0
-191 -192 -195 0
-191 192 195 0
191 192 -195 0
191 -192 195 0
-192 -193 -194 0
-192 193 194 0
192 193 -194 0
192 -193 194 0
193 -184 -186 0
-193 184 0
-193 186 0
194 -201 -202 -208 -209 0
-194 209 0
-194 201 0
-194 208 0
-194 202 0
195 -183 -187 0
-195 183 0
-195 187 0
-210 0
2 0
3 0
6 0
13 0
24 0
39 0
60 0
85 0
111 0
132 0
151 0
166 0
179 0
189 0

