c Result of efficient AIG-to-CNF conversion using package CNF
p cnf 464 1861
2 -442 -453 0
-2 442 0
-2 453 0
-3 -4 -5 0
-3 4 5 0
3 4 -5 0
3 -4 5 0
4 -443 -453 0
-4 443 0
-4 453 0
5 -442 -454 0
-5 442 0
-5 454 0
6 7 -8 0
6 -7 8 0
-6 -7 -8 0
-6 7 8 0
7 -444 -453 0
-7 444 0
-7 453 0
8 -9 10 0
8 9 -10 0
-8 9 10 0
-8 -9 -10 0
9 -443 -454 0
-9 443 0
-9 454 0
-10 -11 -12 0
-10 11 12 0
10 11 -12 0
10 -11 12 0
11 -442 -455 0
-11 442 0
-11 455 0
12 -442 -443 -453 -454 0
-12 454 0
-12 442 0
-12 453 0
-12 443 0
13 14 -15 0
13 -14 15 0
-13 -14 -15 0
-13 14 15 0
14 -445 -453 0
-14 445 0
-14 453 0
15 -16 17 0
15 16 -17 0
-15 16 17 0
-15 -16 -17 0
16 -444 -454 0
-16 444 0
-16 454 0
-17 -18 -19 0
-17 18 19 0
17 18 -19 0
17 -18 19 0
18 -444 -453 -8 0
-18 444 0
-18 453 0
-18 8 0
19 20 -21 0
19 -20 21 0
-19 -20 -21 0
-19 20 21 0
20 -443 -455 0
-20 443 0
-20 455 0
21 -22 23 0
21 22 -23 0
-21 22 23 0
-21 -22 -23 0
22 -442 -456 0
-22 442 0
-22 456 0
-23 9 12 0
-23 11 12 0
-23 9 11 0
23 -9 -11 0
23 -11 -12 0
23 -9 -12 0
24 25 -26 0
24 -25 26 0
-24 -25 -26 0
-24 25 26 0
25 -446 -453 0
-25 446 0
-25 453 0
26 -27 28 0
26 27 -28 0
-26 27 28 0
-26 -27 -28 0
27 -445 -454 0
-27 445 0
-27 454 0
-28 29 30 0
-28 -29 -30 0
28 -29 30 0
28 29 -30 0
29 -445 -453 -15 0
-29 445 0
-29 453 0
-29 15 0
-30 31 32 0
-30 -31 -32 0
30 -31 32 0
30 31 -32 0
31 -444 -455 0
-31 444 0
-31 455 0
-32 33 38 0
-32 -33 -38 0
32 -33 38 0
32 33 -38 0
-33 -34 -35 0
-33 34 35 0
33 34 -35 0
33 -34 35 0
34 -443 -456 0
-34 443 0
-34 456 0
35 -36 37 0
35 36 -37 0
-35 36 37 0
-35 -36 -37 0
36 -442 -457 0
-36 442 0
-36 457 0
-37 22 23 0
-37 20 22 0
-37 20 23 0
37 -20 -22 0
37 -22 -23 0
37 -20 -23 0
-38 18 19 0
-38 16 19 0
-38 18 16 0
38 -18 -16 0
38 -16 -19 0
38 -18 -19 0
39 40 -41 0
39 -40 41 0
-39 -40 -41 0
-39 40 41 0
40 -447 -453 0
-40 447 0
-40 453 0
41 -42 43 0
41 42 -43 0
-41 42 43 0
-41 -42 -43 0
42 -446 -454 0
-42 446 0
-42 454 0
-43 44 45 0
-43 -44 -45 0
43 -44 45 0
43 44 -45 0
44 -446 -453 -26 0
-44 446 0
-44 453 0
-44 26 0
-45 46 47 0
-45 -46 -47 0
45 -46 47 0
45 46 -47 0
46 -445 -455 0
-46 445 0
-46 455 0
-47 48 57 0
-47 -48 -57 0
47 -48 57 0
47 48 -57 0
-48 49 50 0
-48 -49 -50 0
48 -49 50 0
48 49 -50 0
49 -444 -456 0
-49 444 0
-49 456 0
-50 51 56 0
-50 -51 -56 0
50 -51 56 0
50 51 -56 0
-51 -52 -53 0
-51 52 53 0
51 52 -53 0
51 -52 53 0
52 -443 -457 0
-52 443 0
-52 457 0
53 -54 55 0
53 54 -55 0
-53 54 55 0
-53 -54 -55 0
54 -442 -458 0
-54 442 0
-54 458 0
-55 36 37 0
-55 34 36 0
-55 34 37 0
55 -34 -36 0
55 -36 -37 0
55 -34 -37 0
-56 31 33 0
-56 33 38 0
-56 31 38 0
56 -33 -38 0
56 -31 -33 0
56 -31 -38 0
-57 27 30 0
-57 29 27 0
-57 29 30 0
57 -29 -27 0
57 -27 -30 0
57 -29 -30 0
58 59 -60 0
58 -59 60 0
-58 -59 -60 0
-58 59 60 0
59 -448 -453 0
-59 448 0
-59 453 0
60 -61 62 0
60 61 -62 0
-60 61 62 0
-60 -61 -62 0
61 -447 -454 0
-61 447 0
-61 454 0
-62 63 64 0
-62 -63 -64 0
62 -63 64 0
62 63 -64 0
63 -447 -453 -41 0
-63 447 0
-63 453 0
-63 41 0
-64 65 66 0
-64 -65 -66 0
64 -65 66 0
64 65 -66 0
65 -446 -455 0
-65 446 0
-65 455 0
-66 67 80 0
-66 -67 -80 0
66 -67 80 0
66 67 -80 0
-67 68 69 0
-67 -68 -69 0
67 -68 69 0
67 68 -69 0
68 -445 -456 0
-68 445 0
-68 456 0
-69 70 79 0
-69 -70 -79 0
69 -70 79 0
69 70 -79 0
-70 71 72 0
-70 -71 -72 0
70 -71 72 0
70 71 -72 0
71 -444 -457 0
-71 444 0
-71 457 0
-72 73 78 0
-72 -73 -78 0
72 -73 78 0
72 73 -78 0
-73 -74 -75 0
-73 74 75 0
73 74 -75 0
73 -74 75 0
74 -443 -458 0
-74 443 0
-74 458 0
75 -76 77 0
75 76 -77 0
-75 76 77 0
-75 -76 -77 0
76 -442 -459 0
-76 442 0
-76 459 0
-77 54 55 0
-77 52 54 0
-77 52 55 0
77 -52 -54 0
77 -54 -55 0
77 -52 -55 0
-78 49 51 0
-78 51 56 0
-78 49 56 0
78 -51 -56 0
78 -49 -51 0
78 -49 -56 0
-79 46 48 0
-79 48 57 0
-79 46 57 0
79 -48 -57 0
79 -46 -48 0
79 -46 -57 0
-80 42 45 0
-80 44 42 0
-80 44 45 0
80 -44 -42 0
80 -42 -45 0
80 -44 -45 0
81 82 -83 0
81 -82 83 0
-81 -82 -83 0
-81 82 83 0
82 -449 -453 0
-82 449 0
-82 453 0
83 -84 85 0
83 84 -85 0
-83 84 85 0
-83 -84 -85 0
84 -448 -454 0
-84 448 0
-84 454 0
-85 86 87 0
-85 -86 -87 0
85 -86 87 0
85 86 -87 0
86 -448 -453 -60 0
-86 448 0
-86 453 0
-86 60 0
-87 88 89 0
-87 -88 -89 0
87 -88 89 0
87 88 -89 0
88 -447 -455 0
-88 447 0
-88 455 0
-89 90 107 0
-89 -90 -107 0
89 -90 107 0
89 90 -107 0
-90 91 92 0
-90 -91 -92 0
90 -91 92 0
90 91 -92 0
91 -446 -456 0
-91 446 0
-91 456 0
-92 93 106 0
-92 -93 -106 0
92 -93 106 0
92 93 -106 0
-93 94 95 0
-93 -94 -95 0
93 -94 95 0
93 94 -95 0
94 -445 -457 0
-94 445 0
-94 457 0
-95 96 105 0
-95 -96 -105 0
95 -96 105 0
95 96 -105 0
-96 97 98 0
-96 -97 -98 0
96 -97 98 0
96 97 -98 0
97 -444 -458 0
-97 444 0
-97 458 0
-98 99 104 0
-98 -99 -104 0
98 -99 104 0
98 99 -104 0
-99 -100 -101 0
-99 100 101 0
99 100 -101 0
99 -100 101 0
100 -443 -459 0
-100 443 0
-100 459 0
101 -102 103 0
101 102 -103 0
-101 102 103 0
-101 -102 -103 0
102 -442 -460 0
-102 442 0
-102 460 0
-103 76 77 0
-103 74 76 0
-103 74 77 0
103 -74 -76 0
103 -76 -77 0
103 -74 -77 0
-104 71 73 0
-104 73 78 0
-104 71 78 0
104 -73 -78 0
104 -71 -73 0
104 -71 -78 0
-105 68 70 0
-105 70 79 0
-105 68 79 0
105 -70 -79 0
105 -68 -70 0
105 -68 -79 0
-106 65 67 0
-106 67 80 0
-106 65 80 0
106 -67 -80 0
106 -65 -67 0
106 -65 -80 0
-107 61 64 0
-107 63 61 0
-107 63 64 0
107 -63 -61 0
107 -61 -64 0
107 -63 -64 0
108 109 -110 0
108 -109 110 0
-108 -109 -110 0
-108 109 110 0
109 -450 -453 0
-109 450 0
-109 453 0
110 -111 112 0
110 111 -112 0
-110 111 112 0
-110 -111 -112 0
111 -449 -454 0
-111 449 0
-111 454 0
-112 113 114 0
-112 -113 -114 0
112 -113 114 0
112 113 -114 0
113 -449 -453 -83 0
-113 449 0
-113 453 0
-113 83 0
-114 115 116 0
-114 -115 -116 0
114 -115 116 0
114 115 -116 0
115 -448 -455 0
-115 448 0
-115 455 0
-116 117 138 0
-116 -117 -138 0
116 -117 138 0
116 117 -138 0
-117 118 119 0
-117 -118 -119 0
117 -118 119 0
117 118 -119 0
118 -447 -456 0
-118 447 0
-118 456 0
-119 120 137 0
-119 -120 -137 0
119 -120 137 0
119 120 -137 0
-120 121 122 0
-120 -121 -122 0
120 -121 122 0
120 121 -122 0
121 -446 -457 0
-121 446 0
-121 457 0
-122 123 136 0
-122 -123 -136 0
122 -123 136 0
122 123 -136 0
-123 124 125 0
-123 -124 -125 0
123 -124 125 0
123 124 -125 0
124 -445 -458 0
-124 445 0
-124 458 0
-125 126 135 0
-125 -126 -135 0
125 -126 135 0
125 126 -135 0
-126 127 128 0
-126 -127 -128 0
126 -127 128 0
126 127 -128 0
127 -444 -459 0
-127 444 0
-127 459 0
-128 129 134 0
-128 -129 -134 0
128 -129 134 0
128 129 -134 0
-129 -130 -131 0
-129 130 131 0
129 130 -131 0
129 -130 131 0
130 -443 -460 0
-130 443 0
-130 460 0
131 -132 133 0
131 132 -133 0
-131 132 133 0
-131 -132 -133 0
132 -442 -461 0
-132 442 0
-132 461 0
-133 102 103 0
-133 100 102 0
-133 100 103 0
133 -100 -102 0
133 -102 -103 0
133 -100 -103 0
-134 97 99 0
-134 99 104 0
-134 97 104 0
134 -99 -104 0
134 -97 -99 0
134 -97 -104 0
-135 94 96 0
-135 96 105 0
-135 94 105 0
135 -96 -105 0
135 -94 -96 0
135 -94 -105 0
-136 91 93 0
-136 93 106 0
-136 91 106 0
136 -93 -106 0
136 -91 -93 0
136 -91 -106 0
-137 88 90 0
-137 90 107 0
-137 88 107 0
137 -90 -107 0
137 -88 -90 0
137 -88 -107 0
-138 84 87 0
-138 86 84 0
-138 86 87 0
138 -86 -84 0
138 -84 -87 0
138 -86 -87 0
139 140 -141 0
139 -140 141 0
-139 -140 -141 0
-139 140 141 0
140 -451 -453 0
-140 451 0
-140 453 0
141 -142 143 0
141 142 -143 0
-141 142 143 0
-141 -142 -143 0
142 -450 -454 0
-142 450 0
-142 454 0
-143 144 145 0
-143 -144 -145 0
143 -144 145 0
143 144 -145 0
144 -450 -453 -110 0
-144 450 0
-144 453 0
-144 110 0
-145 146 147 0
-145 -146 -147 0
145 -146 147 0
145 146 -147 0
146 -449 -455 0
-146 449 0
-146 455 0
-147 148 173 0
-147 -148 -173 0
147 -148 173 0
147 148 -173 0
-148 149 150 0
-148 -149 -150 0
148 -149 150 0
148 149 -150 0
149 -448 -456 0
-149 448 0
-149 456 0
-150 151 172 0
-150 -151 -172 0
150 -151 172 0
150 151 -172 0
-151 152 153 0
-151 -152 -153 0
151 -152 153 0
151 152 -153 0
152 -447 -457 0
-152 447 0
-152 457 0
-153 154 171 0
-153 -154 -171 0
153 -154 171 0
153 154 -171 0
-154 155 156 0
-154 -155 -156 0
154 -155 156 0
154 155 -156 0
155 -446 -458 0
-155 446 0
-155 458 0
-156 157 170 0
-156 -157 -170 0
156 -157 170 0
156 157 -170 0
-157 158 159 0
-157 -158 -159 0
157 -158 159 0
157 158 -159 0
158 -445 -459 0
-158 445 0
-158 459 0
-159 160 169 0
-159 -160 -169 0
159 -160 169 0
159 160 -169 0
-160 161 162 0
-160 -161 -162 0
160 -161 162 0
160 161 -162 0
161 -444 -460 0
-161 444 0
-161 460 0
-162 163 168 0
-162 -163 -168 0
162 -163 168 0
162 163 -168 0
-163 -164 -165 0
-163 164 165 0
163 164 -165 0
163 -164 165 0
164 -443 -461 0
-164 443 0
-164 461 0
165 -166 167 0
165 166 -167 0
-165 166 167 0
-165 -166 -167 0
166 -442 -462 0
-166 442 0
-166 462 0
-167 132 133 0
-167 130 132 0
-167 130 133 0
167 -130 -132 0
167 -132 -133 0
167 -130 -133 0
-168 127 129 0
-168 129 134 0
-168 127 134 0
168 -129 -134 0
168 -127 -129 0
168 -127 -134 0
-169 124 126 0
-169 126 135 0
-169 124 135 0
169 -126 -135 0
169 -124 -126 0
169 -124 -135 0
-170 121 123 0
-170 123 136 0
-170 121 136 0
170 -123 -136 0
170 -121 -123 0
170 -121 -136 0
-171 118 120 0
-171 120 137 0
-171 118 137 0
171 -120 -137 0
171 -118 -120 0
171 -118 -137 0
-172 115 117 0
-172 117 138 0
-172 115 138 0
172 -117 -138 0
172 -115 -117 0
172 -115 -138 0
-173 111 114 0
-173 113 111 0
-173 113 114 0
173 -113 -111 0
173 -111 -114 0
173 -113 -114 0
174 175 -176 0
174 -175 176 0
-174 -175 -176 0
-174 175 176 0
175 -452 -453 0
-175 452 0
-175 453 0
176 177 -178 0
176 -177 178 0
-176 -177 -178 0
-176 177 178 0
177 -451 -454 0
-177 451 0
-177 454 0
178 179 -180 0
178 -179 180 0
-178 -179 -180 0
-178 179 180 0
179 -451 -453 -141 0
-179 451 0
-179 453 0
-179 141 0
180 -181 182 0
180 181 -182 0
-180 181 182 0
-180 -181 -182 0
181 -450 -455 0
-181 450 0
-181 455 0
-182 183 212 0
-182 -183 -212 0
182 -183 212 0
182 183 -212 0
-183 184 185 0
-183 -184 -185 0
183 -184 185 0
183 184 -185 0
184 -449 -456 0
-184 449 0
-184 456 0
-185 186 211 0
-185 -186 -211 0
185 -186 211 0
185 186 -211 0
-186 187 188 0
-186 -187 -188 0
186 -187 188 0
186 187 -188 0
187 -448 -457 0
-187 448 0
-187 457 0
-188 189 210 0
-188 -189 -210 0
188 -189 210 0
188 189 -210 0
-189 190 191 0
-189 -190 -191 0
189 -190 191 0
189 190 -191 0
190 -447 -458 0
-190 447 0
-190 458 0
-191 192 209 0
-191 -192 -209 0
191 -192 209 0
191 192 -209 0
-192 193 194 0
-192 -193 -194 0
192 -193 194 0
192 193 -194 0
193 -446 -459 0
-193 446 0
-193 459 0
-194 195 208 0
-194 -195 -208 0
194 -195 208 0
194 195 -208 0
-195 196 197 0
-195 -196 -197 0
195 -196 197 0
195 196 -197 0
196 -445 -460 0
-196 445 0
-196 460 0
-197 198 207 0
-197 -198 -207 0
197 -198 207 0
197 198 -207 0
-198 199 200 0
-198 -199 -200 0
198 -199 200 0
198 199 -200 0
199 -444 -461 0
-199 444 0
-199 461 0
-200 201 206 0
-200 -201 -206 0
200 -201 206 0
200 201 -206 0
-201 -202 -203 0
-201 202 203 0
201 202 -203 0
201 -202 203 0
202 -443 -462 0
-202 443 0
-202 462 0
203 -204 205 0
203 204 -205 0
-203 204 205 0
-203 -204 -205 0
204 -442 -463 0
-204 442 0
-204 463 0
-205 166 167 0
-205 164 166 0
-205 164 167 0
205 -164 -166 0
205 -166 -167 0
205 -164 -167 0
-206 161 163 0
-206 163 168 0
-206 161 168 0
206 -163 -168 0
206 -161 -163 0
206 -161 -168 0
-207 158 160 0
-207 160 169 0
-207 158 169 0
207 -160 -169 0
207 -158 -160 0
207 -158 -169 0
-208 155 157 0
-208 157 170 0
-208 155 170 0
208 -157 -170 0
208 -155 -157 0
208 -155 -170 0
-209 152 154 0
-209 154 171 0
-209 152 171 0
209 -154 -171 0
209 -152 -154 0
209 -152 -171 0
-210 149 151 0
-210 151 172 0
-210 149 172 0
210 -151 -172 0
210 -149 -151 0
210 -149 -172 0
-211 146 148 0
-211 148 173 0
-211 146 173 0
211 -148 -173 0
211 -146 -148 0
211 -146 -173 0
-212 142 145 0
-212 144 142 0
-212 144 145 0
212 -144 -142 0
212 -142 -145 0
212 -144 -145 0
213 -214 215 0
213 214 -215 0
-213 214 215 0
-213 -214 -215 0
214 -452 -454 0
-214 452 0
-214 454 0
-215 216 217 0
-215 -216 -217 0
215 -216 217 0
215 216 -217 0
216 -451 -455 0
-216 451 0
-216 455 0
-217 218 219 0
-217 -218 -219 0
217 -218 219 0
217 218 -219 0
218 -452 -453 -176 0
-218 452 0
-218 453 0
-218 176 0
-219 220 221 0
-219 -220 -221 0
219 -220 221 0
219 220 -221 0
220 -450 -456 0
-220 450 0
-220 456 0
-221 222 251 0
-221 -222 -251 0
221 -222 251 0
221 222 -251 0
-222 223 224 0
-222 -223 -224 0
222 -223 224 0
222 223 -224 0
223 -449 -457 0
-223 449 0
-223 457 0
-224 225 250 0
-224 -225 -250 0
224 -225 250 0
224 225 -250 0
-225 226 227 0
-225 -226 -227 0
225 -226 227 0
225 226 -227 0
226 -448 -458 0
-226 448 0
-226 458 0
-227 228 249 0
-227 -228 -249 0
227 -228 249 0
227 228 -249 0
-228 229 230 0
-228 -229 -230 0
228 -229 230 0
228 229 -230 0
229 -447 -459 0
-229 447 0
-229 459 0
-230 231 248 0
-230 -231 -248 0
230 -231 248 0
230 231 -248 0
-231 232 233 0
-231 -232 -233 0
231 -232 233 0
231 232 -233 0
232 -446 -460 0
-232 446 0
-232 460 0
-233 234 247 0
-233 -234 -247 0
233 -234 247 0
233 234 -247 0
-234 235 236 0
-234 -235 -236 0
234 -235 236 0
234 235 -236 0
235 -445 -461 0
-235 445 0
-235 461 0
-236 237 246 0
-236 -237 -246 0
236 -237 246 0
236 237 -246 0
-237 238 239 0
-237 -238 -239 0
237 -238 239 0
237 238 -239 0
238 -444 -462 0
-238 444 0
-238 462 0
-239 240 245 0
-239 -240 -245 0
239 -240 245 0
239 240 -245 0
-240 241 242 0
-240 -241 -242 0
240 -241 242 0
240 241 -242 0
241 -443 -463 0
-241 443 0
-241 463 0
-242 243 244 0
-242 -243 -244 0
242 -243 244 0
242 243 -244 0
-243 204 205 0
-243 202 204 0
-243 202 205 0
243 -202 -204 0
243 -204 -205 0
243 -202 -205 0
-244 199 201 0
-244 201 206 0
-244 199 206 0
244 -201 -206 0
244 -199 -201 0
244 -199 -206 0
-245 196 198 0
-245 198 207 0
-245 196 207 0
245 -198 -207 0
245 -196 -198 0
245 -196 -207 0
-246 193 195 0
-246 195 208 0
-246 193 208 0
246 -195 -208 0
246 -193 -195 0
246 -193 -208 0
-247 190 192 0
-247 192 209 0
-247 190 209 0
247 -192 -209 0
247 -190 -192 0
247 -190 -209 0
-248 187 189 0
-248 189 210 0
-248 187 210 0
248 -189 -210 0
248 -187 -189 0
248 -187 -210 0
-249 184 186 0
-249 186 211 0
-249 184 211 0
249 -186 -211 0
249 -184 -186 0
249 -184 -211 0
-250 181 183 0
-250 183 212 0
-250 181 212 0
250 -183 -212 0
250 -181 -183 0
250 -181 -212 0
-251 179 180 0
-251 177 180 0
-251 179 177 0
251 -179 -177 0
251 -177 -180 0
251 -179 -180 0
252 253 -254 0
252 -253 254 0
-252 -253 -254 0
-252 253 254 0
253 -452 -454 -215 0
-253 452 0
-253 454 0
-253 215 0
254 255 -256 0
254 -255 256 0
-254 -255 -256 0
-254 255 256 0
255 -452 -455 0
-255 452 0
-255 455 0
256 -257 258 0
256 257 -258 0
-256 257 258 0
-256 -257 -258 0
257 -451 -456 0
-257 451 0
-257 456 0
-258 259 288 0
-258 -259 -288 0
258 -259 288 0
258 259 -288 0
-259 260 261 0
-259 -260 -261 0
259 -260 261 0
259 260 -261 0
260 -450 -457 0
-260 450 0
-260 457 0
-261 262 287 0
-261 -262 -287 0
261 -262 287 0
261 262 -287 0
-262 263 264 0
-262 -263 -264 0
262 -263 264 0
262 263 -264 0
263 -449 -458 0
-263 449 0
-263 458 0
-264 265 286 0
-264 -265 -286 0
264 -265 286 0
264 265 -286 0
-265 266 267 0
-265 -266 -267 0
265 -266 267 0
265 266 -267 0
266 -448 -459 0
-266 448 0
-266 459 0
-267 268 285 0
-267 -268 -285 0
267 -268 285 0
267 268 -285 0
-268 269 270 0
-268 -269 -270 0
268 -269 270 0
268 269 -270 0
269 -447 -460 0
-269 447 0
-269 460 0
-270 271 284 0
-270 -271 -284 0
270 -271 284 0
270 271 -284 0
-271 272 273 0
-271 -272 -273 0
271 -272 273 0
271 272 -273 0
272 -446 -461 0
-272 446 0
-272 461 0
-273 274 283 0
-273 -274 -283 0
273 -274 283 0
273 274 -283 0
-274 275 276 0
-274 -275 -276 0
274 -275 276 0
274 275 -276 0
275 -445 -462 0
-275 445 0
-275 462 0
-276 277 282 0
-276 -277 -282 0
276 -277 282 0
276 277 -282 0
-277 278 279 0
-277 -278 -279 0
277 -278 279 0
277 278 -279 0
278 -444 -463 0
-278 444 0
-278 463 0
-279 280 281 0
-279 -280 -281 0
279 -280 281 0
279 280 -281 0
-280 241 243 0
-280 243 244 0
-280 241 244 0
280 -243 -244 0
280 -241 -243 0
280 -241 -244 0
-281 238 240 0
-281 240 245 0
-281 238 245 0
281 -240 -245 0
281 -238 -240 0
281 -238 -245 0
-282 235 237 0
-282 237 246 0
-282 235 246 0
282 -237 -246 0
282 -235 -237 0
282 -235 -246 0
-283 232 234 0
-283 234 247 0
-283 232 247 0
283 -234 -247 0
283 -232 -234 0
283 -232 -247 0
-284 229 231 0
-284 231 248 0
-284 229 248 0
284 -231 -248 0
284 -229 -231 0
284 -229 -248 0
-285 226 228 0
-285 228 249 0
-285 226 249 0
285 -228 -249 0
285 -226 -228 0
285 -226 -249 0
-286 223 225 0
-286 225 250 0
-286 223 250 0
286 -225 -250 0
286 -223 -225 0
286 -223 -250 0
-287 220 222 0
-287 222 251 0
-287 220 251 0
287 -222 -251 0
287 -220 -222 0
287 -220 -251 0
-288 216 219 0
-288 218 216 0
-288 218 219 0
288 -218 -216 0
288 -216 -219 0
288 -218 -219 0
289 290 -291 0
289 -290 291 0
-289 -290 -291 0
-289 290 291 0
-290 253 256 0
-290 255 256 0
-290 253 255 0
290 -253 -255 0
290 -255 -256 0
290 -253 -256 0
291 292 -293 0
291 -292 293 0
-291 -292 -293 0
-291 292 293 0
292 -452 -456 0
-292 452 0
-292 456 0
293 -294 295 0
293 294 -295 0
-293 294 295 0
-293 -294 -295 0
294 -451 -457 0
-294 451 0
-294 457 0
-295 296 321 0
-295 -296 -321 0
295 -296 321 0
295 296 -321 0
-296 297 298 0
-296 -297 -298 0
296 -297 298 0
296 297 -298 0
297 -450 -458 0
-297 450 0
-297 458 0
-298 299 320 0
-298 -299 -320 0
298 -299 320 0
298 299 -320 0
-299 300 301 0
-299 -300 -301 0
299 -300 301 0
299 300 -301 0
300 -449 -459 0
-300 449 0
-300 459 0
-301 302 319 0
-301 -302 -319 0
301 -302 319 0
301 302 -319 0
-302 303 304 0
-302 -303 -304 0
302 -303 304 0
302 303 -304 0
303 -448 -460 0
-303 448 0
-303 460 0
-304 305 318 0
-304 -305 -318 0
304 -305 318 0
304 305 -318 0
-305 306 307 0
-305 -306 -307 0
305 -306 307 0
305 306 -307 0
306 -447 -461 0
-306 447 0
-306 461 0
-307 308 317 0
-307 -308 -317 0
307 -308 317 0
307 308 -317 0
-308 309 310 0
-308 -309 -310 0
308 -309 310 0
308 309 -310 0
309 -446 -462 0
-309 446 0
-309 462 0
-310 311 316 0
-310 -311 -316 0
310 -311 316 0
310 311 -316 0
-311 312 313 0
-311 -312 -313 0
311 -312 313 0
311 312 -313 0
312 -445 -463 0
-312 445 0
-312 463 0
-313 314 315 0
-313 -314 -315 0
313 -314 315 0
313 314 -315 0
-314 278 280 0
-314 280 281 0
-314 278 281 0
314 -280 -281 0
314 -278 -280 0
314 -278 -281 0
-315 275 277 0
-315 277 282 0
-315 275 282 0
315 -277 -282 0
315 -275 -277 0
315 -275 -282 0
-316 272 274 0
-316 274 283 0
-316 272 283 0
316 -274 -283 0
316 -272 -274 0
316 -272 -283 0
-317 269 271 0
-317 271 284 0
-317 269 284 0
317 -271 -284 0
317 -269 -271 0
317 -269 -284 0
-318 266 268 0
-318 268 285 0
-318 266 285 0
318 -268 -285 0
318 -266 -268 0
318 -266 -285 0
-319 263 265 0
-319 265 286 0
-319 263 286 0
319 -265 -286 0
319 -263 -265 0
319 -263 -286 0
-320 260 262 0
-320 262 287 0
-320 260 287 0
320 -262 -287 0
320 -260 -262 0
320 -260 -287 0
-321 257 259 0
-321 259 288 0
-321 257 288 0
321 -259 -288 0
321 -257 -259 0
321 -257 -288 0
322 323 -324 0
322 -323 324 0
-322 -323 -324 0
-322 323 324 0
-323 292 293 0
-323 290 292 0
-323 290 293 0
323 -290 -292 0
323 -292 -293 0
323 -290 -293 0
324 325 -326 0
324 -325 326 0
-324 -325 -326 0
-324 325 326 0
325 -452 -457 0
-325 452 0
-325 457 0
326 -327 328 0
326 327 -328 0
-326 327 328 0
-326 -327 -328 0
327 -451 -458 0
-327 451 0
-327 458 0
-328 329 350 0
-328 -329 -350 0
328 -329 350 0
328 329 -350 0
-329 330 331 0
-329 -330 -331 0
329 -330 331 0
329 330 -331 0
330 -450 -459 0
-330 450 0
-330 459 0
-331 332 349 0
-331 -332 -349 0
331 -332 349 0
331 332 -349 0
-332 333 334 0
-332 -333 -334 0
332 -333 334 0
332 333 -334 0
333 -449 -460 0
-333 449 0
-333 460 0
-334 335 348 0
-334 -335 -348 0
334 -335 348 0
334 335 -348 0
-335 336 337 0
-335 -336 -337 0
335 -336 337 0
335 336 -337 0
336 -448 -461 0
-336 448 0
-336 461 0
-337 338 347 0
-337 -338 -347 0
337 -338 347 0
337 338 -347 0
-338 339 340 0
-338 -339 -340 0
338 -339 340 0
338 339 -340 0
339 -447 -462 0
-339 447 0
-339 462 0
-340 341 346 0
-340 -341 -346 0
340 -341 346 0
340 341 -346 0
-341 342 343 0
-341 -342 -343 0
341 -342 343 0
341 342 -343 0
342 -446 -463 0
-342 446 0
-342 463 0
-343 344 345 0
-343 -344 -345 0
343 -344 345 0
343 344 -345 0
-344 312 314 0
-344 314 315 0
-344 312 315 0
344 -314 -315 0
344 -312 -314 0
344 -312 -315 0
-345 309 311 0
-345 311 316 0
-345 309 316 0
345 -311 -316 0
345 -309 -311 0
345 -309 -316 0
-346 306 308 0
-346 308 317 0
-346 306 317 0
346 -308 -317 0
346 -306 -308 0
346 -306 -317 0
-347 303 305 0
-347 305 318 0
-347 303 318 0
347 -305 -318 0
347 -303 -305 0
347 -303 -318 0
-348 300 302 0
-348 302 319 0
-348 300 319 0
348 -302 -319 0
348 -300 -302 0
348 -300 -319 0
-349 297 299 0
-349 299 320 0
-349 297 320 0
349 -299 -320 0
349 -297 -299 0
349 -297 -320 0
-350 294 296 0
-350 296 321 0
-350 294 321 0
350 -296 -321 0
350 -294 -296 0
350 -294 -321 0
351 352 -353 0
351 -352 353 0
-351 -352 -353 0
-351 352 353 0
-352 325 326 0
-352 323 325 0
-352 323 326 0
352 -323 -325 0
352 -325 -326 0
352 -323 -326 0
353 354 -355 0
353 -354 355 0
-353 -354 -355 0
-353 354 355 0
354 -452 -458 0
-354 452 0
-354 458 0
355 -356 357 0
355 356 -357 0
-355 356 357 0
-355 -356 -357 0
356 -451 -459 0
-356 451 0
-356 459 0
-357 358 375 0
-357 -358 -375 0
357 -358 375 0
357 358 -375 0
-358 359 360 0
-358 -359 -360 0
358 -359 360 0
358 359 -360 0
359 -450 -460 0
-359 450 0
-359 460 0
-360 361 374 0
-360 -361 -374 0
360 -361 374 0
360 361 -374 0
-361 362 363 0
-361 -362 -363 0
361 -362 363 0
361 362 -363 0
362 -449 -461 0
-362 449 0
-362 461 0
-363 364 373 0
-363 -364 -373 0
363 -364 373 0
363 364 -373 0
-364 365 366 0
-364 -365 -366 0
364 -365 366 0
364 365 -366 0
365 -448 -462 0
-365 448 0
-365 462 0
-366 367 372 0
-366 -367 -372 0
366 -367 372 0
366 367 -372 0
-367 368 369 0
-367 -368 -369 0
367 -368 369 0
367 368 -369 0
368 -447 -463 0
-368 447 0
-368 463 0
-369 370 371 0
-369 -370 -371 0
369 -370 371 0
369 370 -371 0
-370 342 344 0
-370 344 345 0
-370 342 345 0
370 -344 -345 0
370 -342 -344 0
370 -342 -345 0
-371 339 341 0
-371 341 346 0
-371 339 346 0
371 -341 -346 0
371 -339 -341 0
371 -339 -346 0
-372 336 338 0
-372 338 347 0
-372 336 347 0
372 -338 -347 0
372 -336 -338 0
372 -336 -347 0
-373 333 335 0
-373 335 348 0
-373 333 348 0
373 -335 -348 0
373 -333 -335 0
373 -333 -348 0
-374 330 332 0
-374 332 349 0
-374 330 349 0
374 -332 -349 0
374 -330 -332 0
374 -330 -349 0
-375 327 329 0
-375 329 350 0
-375 327 350 0
375 -329 -350 0
375 -327 -329 0
375 -327 -350 0
376 377 -378 0
376 -377 378 0
-376 -377 -378 0
-376 377 378 0
-377 354 355 0
-377 352 354 0
-377 352 355 0
377 -352 -354 0
377 -354 -355 0
377 -352 -355 0
378 379 -380 0
378 -379 380 0
-378 -379 -380 0
-378 379 380 0
379 -452 -459 0
-379 452 0
-379 459 0
380 -381 382 0
380 381 -382 0
-380 381 382 0
-380 -381 -382 0
381 -451 -460 0
-381 451 0
-381 460 0
-382 383 396 0
-382 -383 -396 0
382 -383 396 0
382 383 -396 0
-383 384 385 0
-383 -384 -385 0
383 -384 385 0
383 384 -385 0
384 -450 -461 0
-384 450 0
-384 461 0
-385 386 395 0
-385 -386 -395 0
385 -386 395 0
385 386 -395 0
-386 387 388 0
-386 -387 -388 0
386 -387 388 0
386 387 -388 0
387 -449 -462 0
-387 449 0
-387 462 0
-388 389 394 0
-388 -389 -394 0
388 -389 394 0
388 389 -394 0
-389 390 391 0
-389 -390 -391 0
389 -390 391 0
389 390 -391 0
390 -448 -463 0
-390 448 0
-390 463 0
-391 392 393 0
-391 -392 -393 0
391 -392 393 0
391 392 -393 0
-392 368 370 0
-392 370 371 0
-392 368 371 0
392 -370 -371 0
392 -368 -370 0
392 -368 -371 0
-393 365 367 0
-393 367 372 0
-393 365 372 0
393 -367 -372 0
393 -365 -367 0
393 -365 -372 0
-394 362 364 0
-394 364 373 0
-394 362 373 0
394 -364 -373 0
394 -362 -364 0
394 -362 -373 0
-395 359 361 0
-395 361 374 0
-395 359 374 0
395 -361 -374 0
395 -359 -361 0
395 -359 -374 0
-396 356 358 0
-396 358 375 0
-396 356 375 0
396 -358 -375 0
396 -356 -358 0
396 -356 -375 0
397 398 -399 0
397 -398 399 0
-397 -398 -399 0
-397 398 399 0
-398 379 380 0
-398 377 379 0
-398 377 380 0
398 -377 -379 0
398 -379 -380 0
398 -377 -380 0
399 400 -401 0
399 -400 401 0
-399 -400 -401 0
-399 400 401 0
400 -452 -460 0
-400 452 0
-400 460 0
401 -402 403 0
401 402 -403 0
-401 402 403 0
-401 -402 -403 0
402 -451 -461 0
-402 451 0
-402 461 0
-403 404 413 0
-403 -404 -413 0
403 -404 413 0
403 404 -413 0
-404 405 406 0
-404 -405 -406 0
404 -405 406 0
404 405 -406 0
405 -450 -462 0
-405 450 0
-405 462 0
-406 407 412 0
-406 -407 -412 0
406 -407 412 0
406 407 -412 0
-407 408 409 0
-407 -408 -409 0
407 -408 409 0
407 408 -409 0
408 -449 -463 0
-408 449 0
-408 463 0
-409 410 411 0
-409 -410 -411 0
409 -410 411 0
409 410 -411 0
-410 390 392 0
-410 392 393 0
-410 390 393 0
410 -392 -393 0
410 -390 -392 0
410 -390 -393 0
-411 387 389 0
-411 389 394 0
-411 387 394 0
411 -389 -394 0
411 -387 -389 0
411 -387 -394 0
-412 384 386 0
-412 386 395 0
-412 384 395 0
412 -386 -395 0
412 -384 -386 0
412 -384 -395 0
-413 381 383 0
-413 383 396 0
-413 381 396 0
413 -383 -396 0
413 -381 -383 0
413 -381 -396 0
414 415 -416 0
414 -415 416 0
-414 -415 -416 0
-414 415 416 0
-415 400 401 0
-415 398 400 0
-415 398 401 0
415 -398 -400 0
415 -400 -401 0
415 -398 -401 0
416 417 -418 0
416 -417 418 0
-416 -417 -418 0
-416 417 418 0
417 -452 -461 0
-417 452 0
-417 461 0
418 -419 420 0
418 419 -420 0
-418 419 420 0
-418 -419 -420 0
419 -451 -462 0
-419 451 0
-419 462 0
-420 421 426 0
-420 -421 -426 0
420 -421 426 0
420 421 -426 0
-421 422 423 0
-421 -422 -423 0
421 -422 423 0
421 422 -423 0
422 -450 -463 0
-422 450 0
-422 463 0
-423 424 425 0
-423 -424 -425 0
423 -424 425 0
423 424 -425 0
-424 408 410 0
-424 410 411 0
-424 408 411 0
424 -410 -411 0
424 -408 -410 0
424 -408 -411 0
-425 405 407 0
-425 407 412 0
-425 405 412 0
425 -407 -412 0
425 -405 -407 0
425 -405 -412 0
-426 402 404 0
-426 404 413 0
-426 402 413 0
426 -404 -413 0
426 -402 -404 0
426 -402 -413 0
427 428 -429 0
427 -428 429 0
-427 -428 -429 0
-427 428 429 0
-428 417 418 0
-428 415 417 0
-428 415 418 0
428 -415 -417 0
428 -417 -418 0
428 -415 -418 0
429 430 -431 0
429 -430 431 0
-429 -430 -431 0
-429 430 431 0
430 -452 -462 0
-430 452 0
-430 462 0
431 -432 433 0
431 432 -433 0
-431 432 433 0
-431 -432 -433 0
432 -451 -463 0
-432 451 0
-432 463 0
-433 434 435 0
-433 -434 -435 0
433 -434 435 0
433 434 -435 0
-434 422 424 0
-434 424 425 0
-434 422 425 0
434 -424 -425 0
434 -422 -424 0
434 -422 -425 0
-435 419 421 0
-435 421 426 0
-435 419 426 0
435 -421 -426 0
435 -419 -421 0
435 -419 -426 0
436 437 -438 0
436 -437 438 0
-436 -437 -438 0
-436 437 438 0
-437 430 431 0
-437 428 430 0
-437 428 431 0
437 -428 -430 0
437 -430 -431 0
437 -428 -431 0
438 -439 440 0
438 439 -440 0
-438 439 440 0
-438 -439 -440 0
439 -452 -463 0
-439 452 0
-439 463 0
-440 432 434 0
-440 434 435 0
-440 432 435 0
440 -434 -435 0
440 -432 -434 0
440 -432 -435 0
-441 437 440 0
-441 437 439 0
-441 439 440 0
441 -439 -440 0
441 -437 -440 0
441 -437 -439 0
-464 0
2 0
3 0
6 0
13 0
24 0
39 0
58 0
81 0
108 0
139 0
174 0
213 0
252 0
289 0
322 0
351 0
376 0
397 0
414 0
427 0
436 0
441 0

