c Result of efficient AIG-to-CNF conversion using package CNF
p cnf 554 2234
2 -530 -542 0
-2 530 0
-2 542 0
-3 -4 -5 0
-3 4 5 0
3 4 -5 0
3 -4 5 0
4 -531 -542 0
-4 531 0
-4 542 0
5 -530 -543 0
-5 530 0
-5 543 0
6 7 -8 0
6 -7 8 0
-6 -7 -8 0
-6 7 8 0
7 -532 -542 0
-7 532 0
-7 542 0
8 -9 10 0
8 9 -10 0
-8 9 10 0
-8 -9 -10 0
9 -531 -543 0
-9 531 0
-9 543 0
-10 -11 -12 0
-10 11 12 0
10 11 -12 0
10 -11 12 0
11 -530 -544 0
-11 530 0
-11 544 0
12 -530 -531 -542 -543 0
-12 543 0
-12 530 0
-12 542 0
-12 531 0
13 14 -15 0
13 -14 15 0
-13 -14 -15 0
-13 14 15 0
14 -533 -542 0
-14 533 0
-14 542 0
15 -16 17 0
15 16 -17 0
-15 16 17 0
-15 -16 -17 0
16 -532 -543 0
-16 532 0
-16 543 0
-17 -18 -19 0
-17 18 19 0
17 18 -19 0
17 -18 19 0
18 -532 -542 -8 0
-18 532 0
-18 542 0
-18 8 0
19 20 -21 0
19 -20 21 0
-19 -20 -21 0
-19 20 21 0
20 -531 -544 0
-20 531 0
-20 544 0
21 -22 23 0
21 22 -23 0
-21 22 23 0
-21 -22 -23 0
22 -530 -545 0
-22 530 0
-22 545 0
-23 9 12 0
-23 11 12 0
-23 9 11 0
23 -9 -11 0
23 -11 -12 0
23 -9 -12 0
24 25 -26 0
24 -25 26 0
-24 -25 -26 0
-24 25 26 0
25 -534 -542 0
-25 534 0
-25 542 0
26 -27 28 0
26 27 -28 0
-26 27 28 0
-26 -27 -28 0
27 -533 -543 0
-27 533 0
-27 543 0
-28 29 30 0
-28 -29 -30 0
28 -29 30 0
28 29 -30 0
29 -533 -542 -15 0
-29 533 0
-29 542 0
-29 15 0
-30 31 32 0
-30 -31 -32 0
30 -31 32 0
30 31 -32 0
31 -532 -544 0
-31 532 0
-31 544 0
-32 33 38 0
-32 -33 -38 0
32 -33 38 0
32 33 -38 0
-33 -34 -35 0
-33 34 35 0
33 34 -35 0
33 -34 35 0
34 -531 -545 0
-34 531 0
-34 545 0
35 -36 37 0
35 36 -37 0
-35 36 37 0
-35 -36 -37 0
36 -530 -546 0
-36 530 0
-36 546 0
-37 22 23 0
-37 20 22 0
-37 20 23 0
37 -20 -22 0
37 -22 -23 0
37 -20 -23 0
-38 18 19 0
-38 16 19 0
-38 18 16 0
38 -18 -16 0
38 -16 -19 0
38 -18 -19 0
39 40 -41 0
39 -40 41 0
-39 -40 -41 0
-39 40 41 0
40 -535 -542 0
-40 535 0
-40 542 0
41 -42 43 0
41 42 -43 0
-41 42 43 0
-41 -42 -43 0
42 -534 -543 0
-42 534 0
-42 543 0
-43 44 45 0
-43 -44 -45 0
43 -44 45 0
43 44 -45 0
44 -534 -542 -26 0
-44 534 0
-44 542 0
-44 26 0
-45 46 47 0
-45 -46 -47 0
45 -46 47 0
45 46 -47 0
46 -533 -544 0
-46 533 0
-46 544 0
-47 48 57 0
-47 -48 -57 0
47 -48 57 0
47 48 -57 0
-48 49 50 0
-48 -49 -50 0
48 -49 50 0
48 49 -50 0
49 -532 -545 0
-49 532 0
-49 545 0
-50 51 56 0
-50 -51 -56 0
50 -51 56 0
50 51 -56 0
-51 -52 -53 0
-51 52 53 0
51 52 -53 0
51 -52 53 0
52 -531 -546 0
-52 531 0
-52 546 0
53 -54 55 0
53 54 -55 0
-53 54 55 0
-53 -54 -55 0
54 -530 -547 0
-54 530 0
-54 547 0
-55 36 37 0
-55 34 36 0
-55 34 37 0
55 -34 -36 0
55 -36 -37 0
55 -34 -37 0
-56 31 33 0
-56 33 38 0
-56 31 38 0
56 -33 -38 0
56 -31 -33 0
56 -31 -38 0
-57 27 30 0
-57 29 27 0
-57 29 30 0
57 -29 -27 0
57 -27 -30 0
57 -29 -30 0
58 59 -60 0
58 -59 60 0
-58 -59 -60 0
-58 59 60 0
59 -536 -542 0
-59 536 0
-59 542 0
60 -61 62 0
60 61 -62 0
-60 61 62 0
-60 -61 -62 0
61 -535 -543 0
-61 535 0
-61 543 0
-62 63 64 0
-62 -63 -64 0
62 -63 64 0
62 63 -64 0
63 -535 -542 -41 0
-63 535 0
-63 542 0
-63 41 0
-64 65 66 0
-64 -65 -66 0
64 -65 66 0
64 65 -66 0
65 -534 -544 0
-65 534 0
-65 544 0
-66 67 80 0
-66 -67 -80 0
66 -67 80 0
66 67 -80 0
-67 68 69 0
-67 -68 -69 0
67 -68 69 0
67 68 -69 0
68 -533 -545 0
-68 533 0
-68 545 0
-69 70 79 0
-69 -70 -79 0
69 -70 79 0
69 70 -79 0
-70 71 72 0
-70 -71 -72 0
70 -71 72 0
70 71 -72 0
71 -532 -546 0
-71 532 0
-71 546 0
-72 73 78 0
-72 -73 -78 0
72 -73 78 0
72 73 -78 0
-73 -74 -75 0
-73 74 75 0
73 74 -75 0
73 -74 75 0
74 -531 -547 0
-74 531 0
-74 547 0
75 -76 77 0
75 76 -77 0
-75 76 77 0
-75 -76 -77 0
76 -530 -548 0
-76 530 0
-76 548 0
-77 54 55 0
-77 52 54 0
-77 52 55 0
77 -52 -54 0
77 -54 -55 0
77 -52 -55 0
-78 49 51 0
-78 51 56 0
-78 49 56 0
78 -51 -56 0
78 -49 -51 0
78 -49 -56 0
-79 46 48 0
-79 48 57 0
-79 46 57 0
79 -48 -57 0
79 -46 -48 0
79 -46 -57 0
-80 42 45 0
-80 44 42 0
-80 44 45 0
80 -44 -42 0
80 -42 -45 0
80 -44 -45 0
81 82 -83 0
81 -82 83 0
-81 -82 -83 0
-81 82 83 0
82 -537 -542 0
-82 537 0
-82 542 0
83 -84 85 0
83 84 -85 0
-83 84 85 0
-83 -84 -85 0
84 -536 -543 0
-84 536 0
-84 543 0
-85 86 87 0
-85 -86 -87 0
85 -86 87 0
85 86 -87 0
86 -536 -542 -60 0
-86 536 0
-86 542 0
-86 60 0
-87 88 89 0
-87 -88 -89 0
87 -88 89 0
87 88 -89 0
88 -535 -544 0
-88 535 0
-88 544 0
-89 90 107 0
-89 -90 -107 0
89 -90 107 0
89 90 -107 0
-90 91 92 0
-90 -91 -92 0
90 -91 92 0
90 91 -92 0
91 -534 -545 0
-91 534 0
-91 545 0
-92 93 106 0
-92 -93 -106 0
92 -93 106 0
92 93 -106 0
-93 94 95 0
-93 -94 -95 0
93 -94 95 0
93 94 -95 0
94 -533 -546 0
-94 533 0
-94 546 0
-95 96 105 0
-95 -96 -105 0
95 -96 105 0
95 96 -105 0
-96 97 98 0
-96 -97 -98 0
96 -97 98 0
96 97 -98 0
97 -532 -547 0
-97 532 0
-97 547 0
-98 99 104 0
-98 -99 -104 0
98 -99 104 0
98 99 -104 0
-99 -100 -101 0
-99 100 101 0
99 100 -101 0
99 -100 101 0
100 -531 -548 0
-100 531 0
-100 548 0
101 -102 103 0
101 102 -103 0
-101 102 103 0
-101 -102 -103 0
102 -530 -549 0
-102 530 0
-102 549 0
-103 76 77 0
-103 74 76 0
-103 74 77 0
103 -74 -76 0
103 -76 -77 0
103 -74 -77 0
-104 71 73 0
-104 73 78 0
-104 71 78 0
104 -73 -78 0
104 -71 -73 0
104 -71 -78 0
-105 68 70 0
-105 70 79 0
-105 68 79 0
105 -70 -79 0
105 -68 -70 0
105 -68 -79 0
-106 65 67 0
-106 67 80 0
-106 65 80 0
106 -67 -80 0
106 -65 -67 0
106 -65 -80 0
-107 61 64 0
-107 63 61 0
-107 63 64 0
107 -63 -61 0
107 -61 -64 0
107 -63 -64 0
108 109 -110 0
108 -109 110 0
-108 -109 -110 0
-108 109 110 0
109 -538 -542 0
-109 538 0
-109 542 0
110 -111 112 0
110 111 -112 0
-110 111 112 0
-110 -111 -112 0
111 -537 -543 0
-111 537 0
-111 543 0
-112 113 114 0
-112 -113 -114 0
112 -113 114 0
112 113 -114 0
113 -537 -542 -83 0
-113 537 0
-113 542 0
-113 83 0
-114 115 116 0
-114 -115 -116 0
114 -115 116 0
114 115 -116 0
115 -536 -544 0
-115 536 0
-115 544 0
-116 117 138 0
-116 -117 -138 0
116 -117 138 0
116 117 -138 0
-117 118 119 0
-117 -118 -119 0
117 -118 119 0
117 118 -119 0
118 -535 -545 0
-118 535 0
-118 545 0
-119 120 137 0
-119 -120 -137 0
119 -120 137 0
119 120 -137 0
-120 121 122 0
-120 -121 -122 0
120 -121 122 0
120 121 -122 0
121 -534 -546 0
-121 534 0
-121 546 0
-122 123 136 0
-122 -123 -136 0
122 -123 136 0
122 123 -136 0
-123 124 125 0
-123 -124 -125 0
123 -124 125 0
123 124 -125 0
124 -533 -547 0
-124 533 0
-124 547 0
-125 126 135 0
-125 -126 -135 0
125 -126 135 0
125 126 -135 0
-126 127 128 0
-126 -127 -128 0
126 -127 128 0
126 127 -128 0
127 -532 -548 0
-127 532 0
-127 548 0
-128 129 134 0
-128 -129 -134 0
128 -129 134 0
128 129 -134 0
-129 -130 -131 0
-129 130 131 0
129 130 -131 0
129 -130 131 0
130 -531 -549 0
-130 531 0
-130 549 0
131 -132 133 0
131 132 -133 0
-131 132 133 0
-131 -132 -133 0
132 -530 -550 0
-132 530 0
-132 550 0
-133 102 103 0
-133 100 102 0
-133 100 103 0
133 -100 -102 0
133 -102 -103 0
133 -100 -103 0
-134 97 99 0
-134 99 104 0
-134 97 104 0
134 -99 -104 0
134 -97 -99 0
134 -97 -104 0
-135 94 96 0
-135 96 105 0
-135 94 105 0
135 -96 -105 0
135 -94 -96 0
135 -94 -105 0
-136 91 93 0
-136 93 106 0
-136 91 106 0
136 -93 -106 0
136 -91 -93 0
136 -91 -106 0
-137 88 90 0
-137 90 107 0
-137 88 107 0
137 -90 -107 0
137 -88 -90 0
137 -88 -107 0
-138 84 87 0
-138 86 84 0
-138 86 87 0
138 -86 -84 0
138 -84 -87 0
138 -86 -87 0
139 140 -141 0
139 -140 141 0
-139 -140 -141 0
-139 140 141 0
140 -539 -542 0
-140 539 0
-140 542 0
141 -142 143 0
141 142 -143 0
-141 142 143 0
-141 -142 -143 0
142 -538 -543 0
-142 538 0
-142 543 0
-143 144 145 0
-143 -144 -145 0
143 -144 145 0
143 144 -145 0
144 -538 -542 -110 0
-144 538 0
-144 542 0
-144 110 0
-145 146 147 0
-145 -146 -147 0
145 -146 147 0
145 146 -147 0
146 -537 -544 0
-146 537 0
-146 544 0
-147 148 173 0
-147 -148 -173 0
147 -148 173 0
147 148 -173 0
-148 149 150 0
-148 -149 -150 0
148 -149 150 0
148 149 -150 0
149 -536 -545 0
-149 536 0
-149 545 0
-150 151 172 0
-150 -151 -172 0
150 -151 172 0
150 151 -172 0
-151 152 153 0
-151 -152 -153 0
151 -152 153 0
151 152 -153 0
152 -535 -546 0
-152 535 0
-152 546 0
-153 154 171 0
-153 -154 -171 0
153 -154 171 0
153 154 -171 0
-154 155 156 0
-154 -155 -156 0
154 -155 156 0
154 155 -156 0
155 -534 -547 0
-155 534 0
-155 547 0
-156 157 170 0
-156 -157 -170 0
156 -157 170 0
156 157 -170 0
-157 158 159 0
-157 -158 -159 0
157 -158 159 0
157 158 -159 0
158 -533 -548 0
-158 533 0
-158 548 0
-159 160 169 0
-159 -160 -169 0
159 -160 169 0
159 160 -169 0
-160 161 162 0
-160 -161 -162 0
160 -161 162 0
160 161 -162 0
161 -532 -549 0
-161 532 0
-161 549 0
-162 163 168 0
-162 -163 -168 0
162 -163 168 0
162 163 -168 0
-163 -164 -165 0
-163 164 165 0
163 164 -165 0
163 -164 165 0
164 -531 -550 0
-164 531 0
-164 550 0
165 -166 167 0
165 166 -167 0
-165 166 167 0
-165 -166 -167 0
166 -530 -551 0
-166 530 0
-166 551 0
-167 132 133 0
-167 130 132 0
-167 130 133 0
167 -130 -132 0
167 -132 -133 0
167 -130 -133 0
-168 127 129 0
-168 129 134 0
-168 127 134 0
168 -129 -134 0
168 -127 -129 0
168 -127 -134 0
-169 124 126 0
-169 126 135 0
-169 124 135 0
169 -126 -135 0
169 -124 -126 0
169 -124 -135 0
-170 121 123 0
-170 123 136 0
-170 121 136 0
170 -123 -136 0
170 -121 -123 0
170 -121 -136 0
-171 118 120 0
-171 120 137 0
-171 118 137 0
171 -120 -137 0
171 -118 -120 0
171 -118 -137 0
-172 115 117 0
-172 117 138 0
-172 115 138 0
172 -117 -138 0
172 -115 -117 0
172 -115 -138 0
-173 111 114 0
-173 113 111 0
-173 113 114 0
173 -113 -111 0
173 -111 -114 0
173 -113 -114 0
174 175 -176 0
174 -175 176 0
-174 -175 -176 0
-174 175 176 0
175 -540 -542 0
-175 540 0
-175 542 0
176 -177 178 0
176 177 -178 0
-176 177 178 0
-176 -177 -178 0
177 -539 -543 0
-177 539 0
-177 543 0
-178 179 180 0
-178 -179 -180 0
178 -179 180 0
178 179 -180 0
179 -539 -542 -141 0
-179 539 0
-179 542 0
-179 141 0
-180 181 182 0
-180 -181 -182 0
180 -181 182 0
180 181 -182 0
181 -538 -544 0
-181 538 0
-181 544 0
-182 183 212 0
-182 -183 -212 0
182 -183 212 0
182 183 -212 0
-183 184 185 0
-183 -184 -185 0
183 -184 185 0
183 184 -185 0
184 -537 -545 0
-184 537 0
-184 545 0
-185 186 211 0
-185 -186 -211 0
185 -186 211 0
185 186 -211 0
-186 187 188 0
-186 -187 -188 0
186 -187 188 0
186 187 -188 0
187 -536 -546 0
-187 536 0
-187 546 0
-188 189 210 0
-188 -189 -210 0
188 -189 210 0
188 189 -210 0
-189 190 191 0
-189 -190 -191 0
189 -190 191 0
189 190 -191 0
190 -535 -547 0
-190 535 0
-190 547 0
-191 192 209 0
-191 -192 -209 0
191 -192 209 0
191 192 -209 0
-192 193 194 0
-192 -193 -194 0
192 -193 194 0
192 193 -194 0
193 -534 -548 0
-193 534 0
-193 548 0
-194 195 208 0
-194 -195 -208 0
194 -195 208 0
194 195 -208 0
-195 196 197 0
-195 -196 -197 0
195 -196 197 0
195 196 -197 0
196 -533 -549 0
-196 533 0
-196 549 0
-197 198 207 0
-197 -198 -207 0
197 -198 207 0
197 198 -207 0
-198 199 200 0
-198 -199 -200 0
198 -199 200 0
198 199 -200 0
199 -532 -550 0
-199 532 0
-199 550 0
-200 201 206 0
-200 -201 -206 0
200 -201 206 0
200 201 -206 0
-201 -202 -203 0
-201 202 203 0
201 202 -203 0
201 -202 203 0
202 -531 -551 0
-202 531 0
-202 551 0
203 -204 205 0
203 204 -205 0
-203 204 205 0
-203 -204 -205 0
204 -530 -552 0
-204 530 0
-204 552 0
-205 166 167 0
-205 164 166 0
-205 164 167 0
205 -164 -166 0
205 -166 -167 0
205 -164 -167 0
-206 161 163 0
-206 163 168 0
-206 161 168 0
206 -163 -168 0
206 -161 -163 0
206 -161 -168 0
-207 158 160 0
-207 160 169 0
-207 158 169 0
207 -160 -169 0
207 -158 -160 0
207 -158 -169 0
-208 155 157 0
-208 157 170 0
-208 155 170 0
208 -157 -170 0
208 -155 -157 0
208 -155 -170 0
-209 152 154 0
-209 154 171 0
-209 152 171 0
209 -154 -171 0
209 -152 -154 0
209 -152 -171 0
-210 149 151 0
-210 151 172 0
-210 149 172 0
210 -151 -172 0
210 -149 -151 0
210 -149 -172 0
-211 146 148 0
-211 148 173 0
-211 146 173 0
211 -148 -173 0
211 -146 -148 0
211 -146 -173 0
-212 142 145 0
-212 144 142 0
-212 144 145 0
212 -144 -142 0
212 -142 -145 0
212 -144 -145 0
213 214 -215 0
213 -214 215 0
-213 -214 -215 0
-213 214 215 0
214 -541 -542 0
-214 541 0
-214 542 0
215 216 -217 0
215 -216 217 0
-215 -216 -217 0
-215 216 217 0
216 -540 -543 0
-216 540 0
-216 543 0
217 218 -219 0
217 -218 219 0
-217 -218 -219 0
-217 218 219 0
218 -540 -542 -176 0
-218 540 0
-218 542 0
-218 176 0
219 -220 221 0
219 220 -221 0
-219 220 221 0
-219 -220 -221 0
220 -539 -544 0
-220 539 0
-220 544 0
-221 222 255 0
-221 -222 -255 0
221 -222 255 0
221 222 -255 0
-222 223 224 0
-222 -223 -224 0
222 -223 224 0
222 223 -224 0
223 -538 -545 0
-223 538 0
-223 545 0
-224 225 254 0
-224 -225 -254 0
224 -225 254 0
224 225 -254 0
-225 226 227 0
-225 -226 -227 0
225 -226 227 0
225 226 -227 0
226 -537 -546 0
-226 537 0
-226 546 0
-227 228 253 0
-227 -228 -253 0
227 -228 253 0
227 228 -253 0
-228 229 230 0
-228 -229 -230 0
228 -229 230 0
228 229 -230 0
229 -536 -547 0
-229 536 0
-229 547 0
-230 231 252 0
-230 -231 -252 0
230 -231 252 0
230 231 -252 0
-231 232 233 0
-231 -232 -233 0
231 -232 233 0
231 232 -233 0
232 -535 -548 0
-232 535 0
-232 548 0
-233 234 251 0
-233 -234 -251 0
233 -234 251 0
233 234 -251 0
-234 235 236 0
-234 -235 -236 0
234 -235 236 0
234 235 -236 0
235 -534 -549 0
-235 534 0
-235 549 0
-236 237 250 0
-236 -237 -250 0
236 -237 250 0
236 237 -250 0
-237 238 239 0
-237 -238 -239 0
237 -238 239 0
237 238 -239 0
238 -533 -550 0
-238 533 0
-238 550 0
-239 240 249 0
-239 -240 -249 0
239 -240 249 0
239 240 -249 0
-240 241 242 0
-240 -241 -242 0
240 -241 242 0
240 241 -242 0
241 -532 -551 0
-241 532 0
-241 551 0
-242 243 248 0
-242 -243 -248 0
242 -243 248 0
242 243 -248 0
-243 -244 -245 0
-243 244 245 0
243 244 -245 0
243 -244 245 0
244 -531 -552 0
-244 531 0
-244 552 0
245 -246 247 0
245 246 -247 0
-245 246 247 0
-245 -246 -247 0
246 -530 -553 0
-246 530 0
-246 553 0
-247 204 205 0
-247 202 204 0
-247 202 205 0
247 -202 -204 0
247 -204 -205 0
247 -202 -205 0
-248 199 201 0
-248 201 206 0
-248 199 206 0
248 -201 -206 0
248 -199 -201 0
248 -199 -206 0
-249 196 198 0
-249 198 207 0
-249 196 207 0
249 -198 -207 0
249 -196 -198 0
249 -196 -207 0
-250 193 195 0
-250 195 208 0
-250 193 208 0
250 -195 -208 0
250 -193 -195 0
250 -193 -208 0
-251 190 192 0
-251 192 209 0
-251 190 209 0
251 -192 -209 0
251 -190 -192 0
251 -190 -209 0
-252 187 189 0
-252 189 210 0
-252 187 210 0
252 -189 -210 0
252 -187 -189 0
252 -187 -210 0
-253 184 186 0
-253 186 211 0
-253 184 211 0
253 -186 -211 0
253 -184 -186 0
253 -184 -211 0
-254 181 183 0
-254 183 212 0
-254 181 212 0
254 -183 -212 0
254 -181 -183 0
254 -181 -212 0
-255 177 180 0
-255 179 177 0
-255 179 180 0
255 -179 -177 0
255 -177 -180 0
255 -179 -180 0
256 -257 258 0
256 257 -258 0
-256 257 258 0
-256 -257 -258 0
257 -541 -543 0
-257 541 0
-257 543 0
-258 259 260 0
-258 -259 -260 0
258 -259 260 0
258 259 -260 0
259 -540 -544 0
-259 540 0
-259 544 0
-260 261 262 0
-260 -261 -262 0
260 -261 262 0
260 261 -262 0
261 -541 -542 -215 0
-261 541 0
-261 542 0
-261 215 0
-262 263 264 0
-262 -263 -264 0
262 -263 264 0
262 263 -264 0
263 -539 -545 0
-263 539 0
-263 545 0
-264 265 298 0
-264 -265 -298 0
264 -265 298 0
264 265 -298 0
-265 266 267 0
-265 -266 -267 0
265 -266 267 0
265 266 -267 0
266 -538 -546 0
-266 538 0
-266 546 0
-267 268 297 0
-267 -268 -297 0
267 -268 297 0
267 268 -297 0
-268 269 270 0
-268 -269 -270 0
268 -269 270 0
268 269 -270 0
269 -537 -547 0
-269 537 0
-269 547 0
-270 271 296 0
-270 -271 -296 0
270 -271 296 0
270 271 -296 0
-271 272 273 0
-271 -272 -273 0
271 -272 273 0
271 272 -273 0
272 -536 -548 0
-272 536 0
-272 548 0
-273 274 295 0
-273 -274 -295 0
273 -274 295 0
273 274 -295 0
-274 275 276 0
-274 -275 -276 0
274 -275 276 0
274 275 -276 0
275 -535 -549 0
-275 535 0
-275 549 0
-276 277 294 0
-276 -277 -294 0
276 -277 294 0
276 277 -294 0
-277 278 279 0
-277 -278 -279 0
277 -278 279 0
277 278 -279 0
278 -534 -550 0
-278 534 0
-278 550 0
-279 280 293 0
-279 -280 -293 0
279 -280 293 0
279 280 -293 0
-280 281 282 0
-280 -281 -282 0
280 -281 282 0
280 281 -282 0
281 -533 -551 0
-281 533 0
-281 551 0
-282 283 292 0
-282 -283 -292 0
282 -283 292 0
282 283 -292 0
-283 284 285 0
-283 -284 -285 0
283 -284 285 0
283 284 -285 0
284 -532 -552 0
-284 532 0
-284 552 0
-285 286 291 0
-285 -286 -291 0
285 -286 291 0
285 286 -291 0
-286 287 288 0
-286 -287 -288 0
286 -287 288 0
286 287 -288 0
287 -531 -553 0
-287 531 0
-287 553 0
-288 289 290 0
-288 -289 -290 0
288 -289 290 0
288 289 -290 0
-289 246 247 0
-289 244 246 0
-289 244 247 0
289 -244 -246 0
289 -246 -247 0
289 -244 -247 0
-290 241 243 0
-290 243 248 0
-290 241 248 0
290 -243 -248 0
290 -241 -243 0
290 -241 -248 0
-291 238 240 0
-291 240 249 0
-291 238 249 0
291 -240 -249 0
291 -238 -240 0
291 -238 -249 0
-292 235 237 0
-292 237 250 0
-292 235 250 0
292 -237 -250 0
292 -235 -237 0
292 -235 -250 0
-293 232 234 0
-293 234 251 0
-293 232 251 0
293 -234 -251 0
293 -232 -234 0
293 -232 -251 0
-294 229 231 0
-294 231 252 0
-294 229 252 0
294 -231 -252 0
294 -229 -231 0
294 -229 -252 0
-295 226 228 0
-295 228 253 0
-295 226 253 0
295 -228 -253 0
295 -226 -228 0
295 -226 -253 0
-296 223 225 0
-296 225 254 0
-296 223 254 0
296 -225 -254 0
296 -223 -225 0
296 -223 -254 0
-297 220 222 0
-297 222 255 0
-297 220 255 0
297 -222 -255 0
297 -220 -222 0
297 -220 -255 0
-298 218 219 0
-298 216 219 0
-298 218 216 0
298 -218 -216 0
298 -216 -219 0
298 -218 -219 0
299 300 -301 0
299 -300 301 0
-299 -300 -301 0
-299 300 301 0
300 -541 -543 -258 0
-300 541 0
-300 543 0
-300 258 0
301 302 -303 0
301 -302 303 0
-301 -302 -303 0
-301 302 303 0
302 -541 -544 0
-302 541 0
-302 544 0
303 -304 305 0
303 304 -305 0
-303 304 305 0
-303 -304 -305 0
304 -540 -545 0
-304 540 0
-304 545 0
-305 306 339 0
-305 -306 -339 0
305 -306 339 0
305 306 -339 0
-306 307 308 0
-306 -307 -308 0
306 -307 308 0
306 307 -308 0
307 -539 -546 0
-307 539 0
-307 546 0
-308 309 338 0
-308 -309 -338 0
308 -309 338 0
308 309 -338 0
-309 310 311 0
-309 -310 -311 0
309 -310 311 0
309 310 -311 0
310 -538 -547 0
-310 538 0
-310 547 0
-311 312 337 0
-311 -312 -337 0
311 -312 337 0
311 312 -337 0
-312 313 314 0
-312 -313 -314 0
312 -313 314 0
312 313 -314 0
313 -537 -548 0
-313 537 0
-313 548 0
-314 315 336 0
-314 -315 -336 0
314 -315 336 0
314 315 -336 0
-315 316 317 0
-315 -316 -317 0
315 -316 317 0
315 316 -317 0
316 -536 -549 0
-316 536 0
-316 549 0
-317 318 335 0
-317 -318 -335 0
317 -318 335 0
317 318 -335 0
-318 319 320 0
-318 -319 -320 0
318 -319 320 0
318 319 -320 0
319 -535 -550 0
-319 535 0
-319 550 0
-320 321 334 0
-320 -321 -334 0
320 -321 334 0
320 321 -334 0
-321 322 323 0
-321 -322 -323 0
321 -322 323 0
321 322 -323 0
322 -534 -551 0
-322 534 0
-322 551 0
-323 324 333 0
-323 -324 -333 0
323 -324 333 0
323 324 -333 0
-324 325 326 0
-324 -325 -326 0
324 -325 326 0
324 325 -326 0
325 -533 -552 0
-325 533 0
-325 552 0
-326 327 332 0
-326 -327 -332 0
326 -327 332 0
326 327 -332 0
-327 328 329 0
-327 -328 -329 0
327 -328 329 0
327 328 -329 0
328 -532 -553 0
-328 532 0
-328 553 0
-329 330 331 0
-329 -330 -331 0
329 -330 331 0
329 330 -331 0
-330 287 289 0
-330 289 290 0
-330 287 290 0
330 -289 -290 0
330 -287 -289 0
330 -287 -290 0
-331 284 286 0
-331 286 291 0
-331 284 291 0
331 -286 -291 0
331 -284 -286 0
331 -284 -291 0
-332 281 283 0
-332 283 292 0
-332 281 292 0
332 -283 -292 0
332 -281 -283 0
332 -281 -292 0
-333 278 280 0
-333 280 293 0
-333 278 293 0
333 -280 -293 0
333 -278 -280 0
333 -278 -293 0
-334 275 277 0
-334 277 294 0
-334 275 294 0
334 -277 -294 0
334 -275 -277 0
334 -275 -294 0
-335 272 274 0
-335 274 295 0
-335 272 295 0
335 -274 -295 0
335 -272 -274 0
335 -272 -295 0
-336 269 271 0
-336 271 296 0
-336 269 296 0
336 -271 -296 0
336 -269 -271 0
336 -269 -296 0
-337 266 268 0
-337 268 297 0
-337 266 297 0
337 -268 -297 0
337 -266 -268 0
337 -266 -297 0
-338 263 265 0
-338 265 298 0
-338 263 298 0
338 -265 -298 0
338 -263 -265 0
338 -263 -298 0
-339 259 262 0
-339 261 259 0
-339 261 262 0
339 -261 -259 0
339 -259 -262 0
339 -261 -262 0
340 341 -342 0
340 -341 342 0
-340 -341 -342 0
-340 341 342 0
-341 300 303 0
-341 302 303 0
-341 300 302 0
341 -300 -302 0
341 -302 -303 0
341 -300 -303 0
342 343 -344 0
342 -343 344 0
-342 -343 -344 0
-342 343 344 0
343 -541 -545 0
-343 541 0
-343 545 0
344 -345 346 0
344 345 -346 0
-344 345 346 0
-344 -345 -346 0
345 -540 -546 0
-345 540 0
-345 546 0
-346 347 376 0
-346 -347 -376 0
346 -347 376 0
346 347 -376 0
-347 348 349 0
-347 -348 -349 0
347 -348 349 0
347 348 -349 0
348 -539 -547 0
-348 539 0
-348 547 0
-349 350 375 0
-349 -350 -375 0
349 -350 375 0
349 350 -375 0
-350 351 352 0
-350 -351 -352 0
350 -351 352 0
350 351 -352 0
351 -538 -548 0
-351 538 0
-351 548 0
-352 353 374 0
-352 -353 -374 0
352 -353 374 0
352 353 -374 0
-353 354 355 0
-353 -354 -355 0
353 -354 355 0
353 354 -355 0
354 -537 -549 0
-354 537 0
-354 549 0
-355 356 373 0
-355 -356 -373 0
355 -356 373 0
355 356 -373 0
-356 357 358 0
-356 -357 -358 0
356 -357 358 0
356 357 -358 0
357 -536 -550 0
-357 536 0
-357 550 0
-358 359 372 0
-358 -359 -372 0
358 -359 372 0
358 359 -372 0
-359 360 361 0
-359 -360 -361 0
359 -360 361 0
359 360 -361 0
360 -535 -551 0
-360 535 0
-360 551 0
-361 362 371 0
-361 -362 -371 0
361 -362 371 0
361 362 -371 0
-362 363 364 0
-362 -363 -364 0
362 -363 364 0
362 363 -364 0
363 -534 -552 0
-363 534 0
-363 552 0
-364 365 370 0
-364 -365 -370 0
364 -365 370 0
364 365 -370 0
-365 366 367 0
-365 -366 -367 0
365 -366 367 0
365 366 -367 0
366 -533 -553 0
-366 533 0
-366 553 0
-367 368 369 0
-367 -368 -369 0
367 -368 369 0
367 368 -369 0
-368 328 330 0
-368 330 331 0
-368 328 331 0
368 -330 -331 0
368 -328 -330 0
368 -328 -331 0
-369 325 327 0
-369 327 332 0
-369 325 332 0
369 -327 -332 0
369 -325 -327 0
369 -325 -332 0
-370 322 324 0
-370 324 333 0
-370 322 333 0
370 -324 -333 0
370 -322 -324 0
370 -322 -333 0
-371 319 321 0
-371 321 334 0
-371 319 334 0
371 -321 -334 0
371 -319 -321 0
371 -319 -334 0
-372 316 318 0
-372 318 335 0
-372 316 335 0
372 -318 -335 0
372 -316 -318 0
372 -316 -335 0
-373 313 315 0
-373 315 336 0
-373 313 336 0
373 -315 -336 0
373 -313 -315 0
373 -313 -336 0
-374 310 312 0
-374 312 337 0
-374 310 337 0
374 -312 -337 0
374 -310 -312 0
374 -310 -337 0
-375 307 309 0
-375 309 338 0
-375 307 338 0
375 -309 -338 0
375 -307 -309 0
375 -307 -338 0
-376 304 306 0
-376 306 339 0
-376 304 339 0
376 -306 -339 0
376 -304 -306 0
376 -304 -339 0
377 378 -379 0
377 -378 379 0
-377 -378 -379 0
-377 378 379 0
-378 343 344 0
-378 341 343 0
-378 341 344 0
378 -341 -343 0
378 -343 -344 0
378 -341 -344 0
379 380 -381 0
379 -380 381 0
-379 -380 -381 0
-379 380 381 0
380 -541 -546 0
-380 541 0
-380 546 0
381 -382 383 0
381 382 -383 0
-381 382 383 0
-381 -382 -383 0
382 -540 -547 0
-382 540 0
-382 547 0
-383 384 409 0
-383 -384 -409 0
383 -384 409 0
383 384 -409 0
-384 385 386 0
-384 -385 -386 0
384 -385 386 0
384 385 -386 0
385 -539 -548 0
-385 539 0
-385 548 0
-386 387 408 0
-386 -387 -408 0
386 -387 408 0
386 387 -408 0
-387 388 389 0
-387 -388 -389 0
387 -388 389 0
387 388 -389 0
388 -538 -549 0
-388 538 0
-388 549 0
-389 390 407 0
-389 -390 -407 0
389 -390 407 0
389 390 -407 0
-390 391 392 0
-390 -391 -392 0
390 -391 392 0
390 391 -392 0
391 -537 -550 0
-391 537 0
-391 550 0
-392 393 406 0
-392 -393 -406 0
392 -393 406 0
392 393 -406 0
-393 394 395 0
-393 -394 -395 0
393 -394 395 0
393 394 -395 0
394 -536 -551 0
-394 536 0
-394 551 0
-395 396 405 0
-395 -396 -405 0
395 -396 405 0
395 396 -405 0
-396 397 398 0
-396 -397 -398 0
396 -397 398 0
396 397 -398 0
397 -535 -552 0
-397 535 0
-397 552 0
-398 399 404 0
-398 -399 -404 0
398 -399 404 0
398 399 -404 0
-399 400 401 0
-399 -400 -401 0
399 -400 401 0
399 400 -401 0
400 -534 -553 0
-400 534 0
-400 553 0
-401 402 403 0
-401 -402 -403 0
401 -402 403 0
401 402 -403 0
-402 366 368 0
-402 368 369 0
-402 366 369 0
402 -368 -369 0
402 -366 -368 0
402 -366 -369 0
-403 363 365 0
-403 365 370 0
-403 363 370 0
403 -365 -370 0
403 -363 -365 0
403 -363 -370 0
-404 360 362 0
-404 362 371 0
-404 360 371 0
404 -362 -371 0
404 -360 -362 0
404 -360 -371 0
-405 357 359 0
-405 359 372 0
-405 357 372 0
405 -359 -372 0
405 -357 -359 0
405 -357 -372 0
-406 354 356 0
-406 356 373 0
-406 354 373 0
406 -356 -373 0
406 -354 -356 0
406 -354 -373 0
-407 351 353 0
-407 353 374 0
-407 351 374 0
407 -353 -374 0
407 -351 -353 0
407 -351 -374 0
-408 348 350 0
-408 350 375 0
-408 348 375 0
408 -350 -375 0
408 -348 -350 0
408 -348 -375 0
-409 345 347 0
-409 347 376 0
-409 345 376 0
409 -347 -376 0
409 -345 -347 0
409 -345 -376 0
410 411 -412 0
410 -411 412 0
-410 -411 -412 0
-410 411 412 0
-411 380 381 0
-411 378 380 0
-411 378 381 0
411 -378 -380 0
411 -380 -381 0
411 -378 -381 0
412 413 -414 0
412 -413 414 0
-412 -413 -414 0
-412 413 414 0
413 -541 -547 0
-413 541 0
-413 547 0
414 -415 416 0
414 415 -416 0
-414 415 416 0
-414 -415 -416 0
415 -540 -548 0
-415 540 0
-415 548 0
-416 417 438 0
-416 -417 -438 0
416 -417 438 0
416 417 -438 0
-417 418 419 0
-417 -418 -419 0
417 -418 419 0
417 418 -419 0
418 -539 -549 0
-418 539 0
-418 549 0
-419 420 437 0
-419 -420 -437 0
419 -420 437 0
419 420 -437 0
-420 421 422 0
-420 -421 -422 0
420 -421 422 0
420 421 -422 0
421 -538 -550 0
-421 538 0
-421 550 0
-422 423 436 0
-422 -423 -436 0
422 -423 436 0
422 423 -436 0
-423 424 425 0
-423 -424 -425 0
423 -424 425 0
423 424 -425 0
424 -537 -551 0
-424 537 0
-424 551 0
-425 426 435 0
-425 -426 -435 0
425 -426 435 0
425 426 -435 0
-426 427 428 0
-426 -427 -428 0
426 -427 428 0
426 427 -428 0
427 -536 -552 0
-427 536 0
-427 552 0
-428 429 434 0
-428 -429 -434 0
428 -429 434 0
428 429 -434 0
-429 430 431 0
-429 -430 -431 0
429 -430 431 0
429 430 -431 0
430 -535 -553 0
-430 535 0
-430 553 0
-431 432 433 0
-431 -432 -433 0
431 -432 433 0
431 432 -433 0
-432 400 402 0
-432 402 403 0
-432 400 403 0
432 -402 -403 0
432 -400 -402 0
432 -400 -403 0
-433 397 399 0
-433 399 404 0
-433 397 404 0
433 -399 -404 0
433 -397 -399 0
433 -397 -404 0
-434 394 396 0
-434 396 405 0
-434 394 405 0
434 -396 -405 0
434 -394 -396 0
434 -394 -405 0
-435 391 393 0
-435 393 406 0
-435 391 406 0
435 -393 -406 0
435 -391 -393 0
435 -391 -406 0
-436 388 390 0
-436 390 407 0
-436 388 407 0
436 -390 -407 0
436 -388 -390 0
436 -388 -407 0
-437 385 387 0
-437 387 408 0
-437 385 408 0
437 -387 -408 0
437 -385 -387 0
437 -385 -408 0
-438 382 384 0
-438 384 409 0
-438 382 409 0
438 -384 -409 0
438 -382 -384 0
438 -382 -409 0
439 440 -441 0
439 -440 441 0
-439 -440 -441 0
-439 440 441 0
-440 413 414 0
-440 411 413 0
-440 411 414 0
440 -411 -413 0
440 -413 -414 0
440 -411 -414 0
441 442 -443 0
441 -442 443 0
-441 -442 -443 0
-441 442 443 0
442 -541 -548 0
-442 541 0
-442 548 0
443 -444 445 0
443 444 -445 0
-443 444 445 0
-443 -444 -445 0
444 -540 -549 0
-444 540 0
-444 549 0
-445 446 463 0
-445 -446 -463 0
445 -446 463 0
445 446 -463 0
-446 447 448 0
-446 -447 -448 0
446 -447 448 0
446 447 -448 0
447 -539 -550 0
-447 539 0
-447 550 0
-448 449 462 0
-448 -449 -462 0
448 -449 462 0
448 449 -462 0
-449 450 451 0
-449 -450 -451 0
449 -450 451 0
449 450 -451 0
450 -538 -551 0
-450 538 0
-450 551 0
-451 452 461 0
-451 -452 -461 0
451 -452 461 0
451 452 -461 0
-452 453 454 0
-452 -453 -454 0
452 -453 454 0
452 453 -454 0
453 -537 -552 0
-453 537 0
-453 552 0
-454 455 460 0
-454 -455 -460 0
454 -455 460 0
454 455 -460 0
-455 456 457 0
-455 -456 -457 0
455 -456 457 0
455 456 -457 0
456 -536 -553 0
-456 536 0
-456 553 0
-457 458 459 0
-457 -458 -459 0
457 -458 459 0
457 458 -459 0
-458 430 432 0
-458 432 433 0
-458 430 433 0
458 -432 -433 0
458 -430 -432 0
458 -430 -433 0
-459 427 429 0
-459 429 434 0
-459 427 434 0
459 -429 -434 0
459 -427 -429 0
459 -427 -434 0
-460 424 426 0
-460 426 435 0
-460 424 435 0
460 -426 -435 0
460 -424 -426 0
460 -424 -435 0
-461 421 423 0
-461 423 436 0
-461 421 436 0
461 -423 -436 0
461 -421 -423 0
461 -421 -436 0
-462 418 420 0
-462 420 437 0
-462 418 437 0
462 -420 -437 0
462 -418 -420 0
462 -418 -437 0
-463 415 417 0
-463 417 438 0
-463 415 438 0
463 -417 -438 0
463 -415 -417 0
463 -415 -438 0
464 465 -466 0
464 -465 466 0
-464 -465 -466 0
-464 465 466 0
-465 442 443 0
-465 440 442 0
-465 440 443 0
465 -440 -442 0
465 -442 -443 0
465 -440 -443 0
466 467 -468 0
466 -467 468 0
-466 -467 -468 0
-466 467 468 0
467 -541 -549 0
-467 541 0
-467 549 0
468 -469 470 0
468 469 -470 0
-468 469 470 0
-468 -469 -470 0
469 -540 -550 0
-469 540 0
-469 550 0
-470 471 484 0
-470 -471 -484 0
470 -471 484 0
470 471 -484 0
-471 472 473 0
-471 -472 -473 0
471 -472 473 0
471 472 -473 0
472 -539 -551 0
-472 539 0
-472 551 0
-473 474 483 0
-473 -474 -483 0
473 -474 483 0
473 474 -483 0
-474 475 476 0
-474 -475 -476 0
474 -475 476 0
474 475 -476 0
475 -538 -552 0
-475 538 0
-475 552 0
-476 477 482 0
-476 -477 -482 0
476 -477 482 0
476 477 -482 0
-477 478 479 0
-477 -478 -479 0
477 -478 479 0
477 478 -479 0
478 -537 -553 0
-478 537 0
-478 553 0
-479 480 481 0
-479 -480 -481 0
479 -480 481 0
479 480 -481 0
-480 456 458 0
-480 458 459 0
-480 456 459 0
480 -458 -459 0
480 -456 -458 0
480 -456 -459 0
-481 453 455 0
-481 455 460 0
-481 453 460 0
481 -455 -460 0
481 -453 -455 0
481 -453 -460 0
-482 450 452 0
-482 452 461 0
-482 450 461 0
482 -452 -461 0
482 -450 -452 0
482 -450 -461 0
-483 447 449 0
-483 449 462 0
-483 447 462 0
483 -449 -462 0
483 -447 -449 0
483 -447 -462 0
-484 444 446 0
-484 446 463 0
-484 444 463 0
484 -446 -463 0
484 -444 -446 0
484 -444 -463 0
485 486 -487 0
485 -486 487 0
-485 -486 -487 0
-485 486 487 0
-486 467 468 0
-486 465 467 0
-486 465 468 0
486 -465 -467 0
486 -467 -468 0
486 -465 -468 0
487 488 -489 0
487 -488 489 0
-487 -488 -489 0
-487 488 489 0
488 -541 -550 0
-488 541 0
-488 550 0
489 -490 491 0
489 490 -491 0
-489 490 491 0
-489 -490 -491 0
490 -540 -551 0
-490 540 0
-490 551 0
-491 492 501 0
-491 -492 -501 0
491 -492 501 0
491 492 -501 0
-492 493 494 0
-492 -493 -494 0
492 -493 494 0
492 493 -494 0
493 -539 -552 0
-493 539 0
-493 552 0
-494 495 500 0
-494 -495 -500 0
494 -495 500 0
494 495 -500 0
-495 496 497 0
-495 -496 -497 0
495 -496 497 0
495 496 -497 0
496 -538 -553 0
-496 538 0
-496 553 0
-497 498 499 0
-497 -498 -499 0
497 -498 499 0
497 498 -499 0
-498 478 480 0
-498 480 481 0
-498 478 481 0
498 -480 -481 0
498 -478 -480 0
498 -478 -481 0
-499 475 477 0
-499 477 482 0
-499 475 482 0
499 -477 -482 0
499 -475 -477 0
499 -475 -482 0
-500 472 474 0
-500 474 483 0
-500 472 483 0
500 -474 -483 0
500 -472 -474 0
500 -472 -483 0
-501 469 471 0
-501 471 484 0
-501 469 484 0
501 -471 -484 0
501 -469 -471 0
501 -469 -484 0
502 503 -504 0
502 -503 504 0
-502 -503 -504 0
-502 503 504 0
-503 488 489 0
-503 486 488 0
-503 486 489 0
503 -486 -488 0
503 -488 -489 0
503 -486 -489 0
504 505 -506 0
504 -505 506 0
-504 -505 -506 0
-504 505 506 0
505 -541 -551 0
-505 541 0
-505 551 0
506 -507 508 0
506 507 -508 0
-506 507 508 0
-506 -507 -508 0
507 -540 -552 0
-507 540 0
-507 552 0
-508 509 514 0
-508 -509 -514 0
508 -509 514 0
508 509 -514 0
-509 510 511 0
-509 -510 -511 0
509 -510 511 0
509 510 -511 0
510 -539 -553 0
-510 539 0
-510 553 0
-511 512 513 0
-511 -512 -513 0
511 -512 513 0
511 512 -513 0
-512 496 498 0
-512 498 499 0
-512 496 499 0
512 -498 -499 0
512 -496 -498 0
512 -496 -499 0
-513 493 495 0
-513 495 500 0
-513 493 500 0
513 -495 -500 0
513 -493 -495 0
513 -493 -500 0
-514 490 492 0
-514 492 501 0
-514 490 501 0
514 -492 -501 0
514 -490 -492 0
514 -490 -501 0
515 516 -517 0
515 -516 517 0
-515 -516 -517 0
-515 516 517 0
-516 505 506 0
-516 503 505 0
-516 503 506 0
516 -503 -505 0
516 -505 -506 0
516 -503 -506 0
517 518 -519 0
517 -518 519 0
-517 -518 -519 0
-517 518 519 0
518 -541 -552 0
-518 541 0
-518 552 0
519 -520 521 0
519 520 -521 0
-519 520 521 0
-519 -520 -521 0
520 -540 -553 0
-520 540 0
-520 553 0
-521 522 523 0
-521 -522 -523 0
521 -522 523 0
521 522 -523 0
-522 510 512 0
-522 512 513 0
-522 510 513 0
522 -512 -513 0
522 -510 -512 0
522 -510 -513 0
-523 507 509 0
-523 509 514 0
-523 507 514 0
523 -509 -514 0
523 -507 -509 0
523 -507 -514 0
524 525 -526 0
524 -525 526 0
-524 -525 -526 0
-524 525 526 0
-525 518 519 0
-525 516 518 0
-525 516 519 0
525 -516 -518 0
525 -518 -519 0
525 -516 -519 0
526 -527 528 0
526 527 -528 0
-526 527 528 0
-526 -527 -528 0
527 -541 -553 0
-527 541 0
-527 553 0
-528 520 522 0
-528 522 523 0
-528 520 523 0
528 -522 -523 0
528 -520 -522 0
528 -520 -523 0
-529 525 528 0
-529 525 527 0
-529 527 528 0
529 -527 -528 0
529 -525 -528 0
529 -525 -527 0
-554 0
2 0
3 0
6 0
13 0
24 0
39 0
58 0
81 0
108 0
139 0
174 0
213 0
256 0
299 0
340 0
377 0
410 0
439 0
464 0
485 0
502 0
515 0
524 0
529 0

