c Result of efficient AIG-to-CNF conversion using package CNF
p cnf 270 1037
2 -254 -262 0
-2 254 0
-2 262 0
3 4 -5 0
3 -4 5 0
-3 -4 -5 0
-3 4 5 0
4 -255 -262 0
-4 255 0
-4 262 0
5 -254 -263 0
-5 254 0
-5 263 0
6 -7 8 0
6 7 -8 0
-6 7 8 0
-6 -7 -8 0
7 -254 -255 -262 -263 0
-7 263 0
-7 254 0
-7 262 0
-7 255 0
-8 -9 -10 0
-8 9 10 0
8 9 -10 0
8 -9 10 0
9 -256 -262 0
-9 256 0
-9 262 0
10 11 -12 0
10 -11 12 0
-10 -11 -12 0
-10 11 12 0
11 -255 -263 0
-11 255 0
-11 263 0
12 -254 -264 0
-12 254 0
-12 264 0
13 -14 15 0
13 14 -15 0
-13 14 15 0
-13 -14 -15 0
14 -7 -8 0
-14 7 0
-14 8 0
-15 16 21 0
-15 -16 -21 0
15 -16 21 0
15 16 -21 0
-16 -17 -18 0
-16 17 18 0
16 17 -18 0
16 -17 18 0
17 -256 -263 0
-17 256 0
-17 263 0
18 19 -20 0
18 -19 20 0
-18 -19 -20 0
-18 19 20 0
19 -255 -264 0
-19 255 0
-19 264 0
20 -254 -265 0
-20 254 0
-20 265 0
-21 -22 -23 0
-21 22 23 0
21 22 -23 0
21 -22 23 0
-22 9 12 0
-22 11 12 0
-22 9 11 0
22 -9 -11 0
22 -11 -12 0
22 -9 -12 0
23 -257 -262 0
-23 257 0
-23 262 0
24 -25 26 0
24 25 -26 0
-24 25 26 0
-24 -25 -26 0
25 -14 -15 0
-25 14 0
-25 15 0
-26 27 38 0
-26 -27 -38 0
26 -27 38 0
26 27 -38 0
-27 -28 -31 0
-27 28 31 0
27 28 -31 0
27 -28 31 0
-28 -29 -30 0
-28 29 30 0
28 29 -30 0
28 -29 30 0
29 -258 -262 0
-29 258 0
-29 262 0
30 -257 -263 0
-30 257 0
-30 263 0
31 -32 37 0
31 32 -37 0
-31 32 37 0
-31 -32 -37 0
32 -33 34 0
32 33 -34 0
-32 33 34 0
-32 -33 -34 0
33 -256 -264 0
-33 256 0
-33 264 0
-34 -35 -36 0
-34 35 36 0
34 35 -36 0
34 -35 36 0
35 -255 -265 0
-35 255 0
-35 265 0
36 -254 -266 0
-36 254 0
-36 266 0
-37 17 20 0
-37 19 20 0
-37 17 19 0
37 -17 -19 0
37 -19 -20 0
37 -17 -20 0
-38 16 22 0
-38 22 23 0
-38 16 23 0
38 -22 -23 0
38 -16 -22 0
38 -16 -23 0
39 -40 41 0
39 40 -41 0
-39 40 41 0
-39 -40 -41 0
40 -25 -26 0
-40 25 0
-40 26 0
-41 -42 -59 0
-41 42 59 0
41 42 -59 0
41 -42 59 0
-42 -43 -52 0
-42 43 52 0
42 43 -52 0
42 -43 52 0
-43 -44 -49 0
-43 44 49 0
43 44 -49 0
43 -44 49 0
-44 -45 -46 0
-44 45 46 0
44 45 -46 0
44 -45 46 0
45 -256 -265 0
-45 256 0
-45 265 0
46 47 -48 0
46 -47 48 0
-46 -47 -48 0
-46 47 48 0
47 -255 -266 0
-47 255 0
-47 266 0
48 -254 -267 0
-48 254 0
-48 267 0
49 -50 51 0
49 50 -51 0
-49 50 51 0
-49 -50 -51 0
50 -257 -258 -262 -263 0
-50 263 0
-50 257 0
-50 262 0
-50 258 0
-51 33 36 0
-51 35 36 0
-51 33 35 0
51 -33 -35 0
51 -35 -36 0
51 -33 -36 0
52 53 -54 0
52 -53 54 0
-52 -53 -54 0
-52 53 54 0
-53 28 37 0
-53 28 32 0
-53 32 37 0
53 -32 -37 0
53 -28 -37 0
53 -28 -32 0
54 55 -56 0
54 -55 56 0
-54 -55 -56 0
-54 55 56 0
55 -259 -262 0
-55 259 0
-55 262 0
56 57 -58 0
56 -57 58 0
-56 -57 -58 0
-56 57 58 0
57 -258 -263 0
-57 258 0
-57 263 0
58 -257 -264 0
-58 257 0
-58 264 0
59 -27 -38 0
-59 27 0
-59 38 0
60 -61 62 0
60 61 -62 0
-60 61 62 0
-60 -61 -62 0
61 -40 -41 0
-61 40 0
-61 41 0
-62 -63 -84 0
-62 63 84 0
62 63 -84 0
62 -63 84 0
-63 64 83 0
-63 -64 -83 0
63 -64 83 0
63 64 -83 0
-64 -65 -76 0
-64 65 76 0
64 65 -76 0
64 -65 76 0
-65 -66 -71 0
-65 66 71 0
65 66 -71 0
65 -66 71 0
-66 -67 -68 0
-66 67 68 0
66 67 -68 0
66 -67 68 0
67 -259 -263 0
-67 259 0
-67 263 0
68 69 -70 0
68 -69 70 0
-68 -69 -70 0
-68 69 70 0
69 -258 -264 0
-69 258 0
-69 264 0
70 -257 -265 0
-70 257 0
-70 265 0
71 72 -73 0
71 -72 73 0
-71 -72 -73 0
-71 72 73 0
72 -256 -266 0
-72 256 0
-72 266 0
73 74 -75 0
73 -74 75 0
-73 -74 -75 0
-73 74 75 0
74 -255 -267 0
-74 255 0
-74 267 0
75 -254 -268 0
-75 254 0
-75 268 0
76 -77 82 0
76 77 -82 0
-76 77 82 0
-76 -77 -82 0
-77 78 79 0
-77 -78 -79 0
77 -78 79 0
77 78 -79 0
-78 55 58 0
-78 57 58 0
-78 55 57 0
78 -55 -57 0
78 -57 -58 0
78 -55 -58 0
-79 -80 -81 0
-79 80 81 0
79 80 -81 0
79 -80 81 0
-80 45 48 0
-80 47 48 0
-80 45 47 0
80 -45 -47 0
80 -47 -48 0
80 -45 -48 0
81 -260 -262 0
-81 260 0
-81 262 0
-82 44 51 0
-82 44 50 0
-82 50 51 0
82 -50 -51 0
82 -44 -51 0
82 -44 -50 0
-83 43 53 0
-83 53 54 0
-83 43 54 0
83 -53 -54 0
83 -43 -53 0
83 -43 -54 0
84 -42 -59 0
-84 42 0
-84 59 0
85 -86 88 0
85 86 -88 0
-85 86 88 0
-85 -86 -88 0
-86 87 0
86 -87 0
-87 63 0
-87 61 84 0
87 -61 -63 0
87 -63 -84 0
-88 -89 -114 0
-88 89 114 0
88 89 -114 0
88 -89 114 0
-89 90 103 0
-89 -90 -103 0
89 -90 103 0
89 90 -103 0
-90 -91 -100 0
-90 91 100 0
90 91 -100 0
90 -91 100 0
-91 -92 -97 0
-91 92 97 0
91 92 -97 0
91 -92 97 0
-92 -93 -94 0
-92 93 94 0
92 93 -94 0
92 -93 94 0
93 -256 -267 0
-93 256 0
-93 267 0
94 95 -96 0
94 -95 96 0
-94 -95 -96 0
-94 95 96 0
95 -255 -268 0
-95 255 0
-95 268 0
96 -254 -269 0
-96 254 0
-96 269 0
97 -98 99 0
97 98 -99 0
-97 98 99 0
-97 -98 -99 0
-98 264 70 0
-98 258 67 0
-98 67 70 0
-98 264 67 0
-98 258 70 0
98 -67 -70 0
98 -258 -264 -70 0
98 -258 -264 -67 0
-99 72 75 0
-99 74 75 0
-99 72 74 0
99 -72 -74 0
99 -74 -75 0
99 -72 -75 0
100 -101 102 0
100 101 -102 0
-100 101 102 0
-100 -101 -102 0
101 -66 -71 0
-101 66 0
-101 71 0
-102 78 80 0
-102 80 81 0
-102 78 81 0
102 -80 -81 0
102 -78 -80 0
102 -78 -81 0
-103 -104 -105 0
-103 104 105 0
103 104 -105 0
103 -104 105 0
-104 65 77 0
-104 77 82 0
-104 65 82 0
104 -65 -82 0
104 -77 -82 0
104 -65 -77 0
105 -106 109 0
105 106 -109 0
-105 106 109 0
-105 -106 -109 0
106 107 -108 0
106 -107 108 0
-106 -107 -108 0
-106 107 108 0
107 -261 -262 0
-107 261 0
-107 262 0
108 -260 -263 0
-108 260 0
-108 263 0
-109 -110 -111 0
-109 110 111 0
109 110 -111 0
109 -110 111 0
110 -259 -264 0
-110 259 0
-110 264 0
111 112 -113 0
111 -112 113 0
-111 -112 -113 0
-111 112 113 0
112 -258 -265 0
-112 258 0
-112 265 0
113 -257 -266 0
-113 257 0
-113 266 0
114 -64 -83 0
-114 64 0
-114 83 0
115 -116 117 0
115 116 -117 0
-115 116 117 0
-115 -116 -117 0
-116 86 89 0
-116 89 114 0
-116 86 114 0
116 -89 -114 0
116 -86 -89 0
116 -86 -114 0
-117 118 143 0
-117 -118 -143 0
117 -118 143 0
117 118 -143 0
118 -119 128 0
118 119 -128 0
-118 119 128 0
-118 -119 -128 0
-119 -120 -125 0
-119 120 125 0
119 120 -125 0
119 -120 125 0
-120 -121 -122 0
-120 121 122 0
120 121 -122 0
120 -121 122 0
-121 110 113 0
-121 112 113 0
-121 110 112 0
121 -110 -112 0
121 -112 -113 0
121 -110 -113 0
122 123 -124 0
122 -123 124 0
-122 -123 -124 0
-122 123 124 0
-123 268 96 0
-123 255 93 0
-123 93 96 0
-123 268 93 0
-123 255 96 0
123 -93 -96 0
123 -255 -268 -96 0
123 -255 -268 -93 0
124 -261 -263 0
-124 261 0
-124 263 0
125 -126 127 0
125 126 -127 0
-125 126 127 0
-125 -126 -127 0
126 -106 -109 0
-126 106 0
-126 109 0
-127 92 98 0
-127 98 99 0
-127 92 99 0
127 -92 -99 0
127 -98 -99 0
127 -92 -98 0
-128 -129 -130 0
-128 129 130 0
128 129 -130 0
128 -129 130 0
-129 91 102 0
-129 91 101 0
-129 101 102 0
129 -101 -102 0
129 -91 -102 0
129 -91 -101 0
130 -131 136 0
130 131 -136 0
-130 131 136 0
-130 -131 -136 0
-131 -132 -133 0
-131 132 133 0
131 132 -133 0
131 -132 133 0
132 -260 -264 0
-132 260 0
-132 264 0
133 134 -135 0
133 -134 135 0
-133 -134 -135 0
-133 134 135 0
134 -259 -265 0
-134 259 0
-134 265 0
135 -258 -266 0
-135 258 0
-135 266 0
-136 137 138 0
-136 -137 -138 0
136 -137 138 0
136 137 -138 0
137 -260 -261 -262 -263 0
-137 263 0
-137 260 0
-137 262 0
-137 261 0
-138 -139 -140 0
-138 139 140 0
138 139 -140 0
138 -139 140 0
139 -257 -267 0
-139 257 0
-139 267 0
140 141 -142 0
140 -141 142 0
-140 -141 -142 0
-140 141 142 0
141 -256 -268 0
-141 256 0
-141 268 0
142 -255 -269 0
-142 255 0
-142 269 0
-143 90 104 0
-143 104 105 0
-143 90 105 0
143 -104 -105 0
143 -90 -104 0
143 -90 -105 0
144 -145 146 0
144 145 -146 0
-144 145 146 0
-144 -145 -146 0
-145 116 143 0
-145 116 118 0
-145 118 143 0
145 -118 -143 0
145 -116 -143 0
145 -116 -118 0
-146 147 168 0
-146 -147 -168 0
146 -147 168 0
146 147 -168 0
147 -148 157 0
147 148 -157 0
-147 148 157 0
-147 -148 -157 0
-148 -149 -150 0
-148 149 150 0
148 149 -150 0
148 -149 150 0
-149 137 131 0
-149 131 138 0
-149 137 138 0
149 -131 -138 0
149 -137 -131 0
149 -137 -138 0
150 -151 152 0
150 151 -152 0
-150 151 152 0
-150 -151 -152 0
-151 121 123 0
-151 123 124 0
-151 121 124 0
151 -123 -124 0
151 -121 -123 0
151 -121 -124 0
-152 -153 -154 0
-152 153 154 0
152 153 -154 0
152 -153 154 0
153 -261 -264 0
-153 261 0
-153 264 0
154 155 -156 0
154 -155 156 0
-154 -155 -156 0
-154 155 156 0
155 -260 -265 0
-155 260 0
-155 265 0
156 -259 -266 0
-156 259 0
-156 266 0
-157 -158 -159 0
-157 158 159 0
157 158 -159 0
157 -158 159 0
-158 126 120 0
-158 120 127 0
-158 126 127 0
158 -120 -127 0
158 -126 -120 0
158 -126 -127 0
159 -160 165 0
159 160 -165 0
-159 160 165 0
-159 -160 -165 0
-160 -161 -162 0
-160 161 162 0
160 161 -162 0
160 -161 162 0
161 -258 -267 0
-161 258 0
-161 267 0
162 163 -164 0
162 -163 164 0
-162 -163 -164 0
-162 163 164 0
163 -257 -268 0
-163 257 0
-163 268 0
164 -256 -269 0
-164 256 0
-164 269 0
-165 166 167 0
-165 -166 -167 0
165 -166 167 0
165 166 -167 0
-166 132 135 0
-166 134 135 0
-166 132 134 0
166 -132 -134 0
166 -134 -135 0
166 -132 -135 0
-167 139 142 0
-167 141 142 0
-167 139 141 0
167 -139 -141 0
167 -141 -142 0
167 -139 -142 0
-168 119 129 0
-168 129 130 0
-168 119 130 0
168 -129 -130 0
168 -119 -129 0
168 -119 -130 0
169 -170 171 0
169 170 -171 0
-169 170 171 0
-169 -170 -171 0
-170 145 168 0
-170 145 147 0
-170 147 168 0
170 -147 -168 0
170 -145 -168 0
170 -145 -147 0
-171 172 189 0
-171 -172 -189 0
171 -172 189 0
171 172 -189 0
172 -173 188 0
172 173 -188 0
-172 173 188 0
-172 -173 -188 0
-173 -174 -183 0
-173 174 183 0
173 174 -183 0
173 -174 183 0
-174 -175 -180 0
-174 175 180 0
174 175 -180 0
174 -175 180 0
-175 -176 -177 0
-175 176 177 0
175 176 -177 0
175 -176 177 0
176 -259 -267 0
-176 259 0
-176 267 0
177 178 -179 0
177 -178 179 0
-177 -178 -179 0
-177 178 179 0
178 -258 -268 0
-178 258 0
-178 268 0
179 -257 -269 0
-179 257 0
-179 269 0
180 -181 182 0
180 181 -182 0
-180 181 182 0
-180 -181 -182 0
-181 153 156 0
-181 155 156 0
-181 153 155 0
181 -153 -155 0
181 -155 -156 0
181 -153 -156 0
-182 161 164 0
-182 163 164 0
-182 161 163 0
182 -161 -163 0
182 -163 -164 0
182 -161 -164 0
183 184 -185 0
183 -184 185 0
-183 -184 -185 0
-183 184 185 0
-184 160 166 0
-184 166 167 0
-184 160 167 0
184 -160 -167 0
184 -166 -167 0
184 -160 -166 0
185 186 -187 0
185 -186 187 0
-185 -186 -187 0
-185 186 187 0
186 -261 -265 0
-186 261 0
-186 265 0
187 -260 -266 0
-187 260 0
-187 266 0
-188 149 151 0
-188 151 152 0
-188 149 152 0
188 -149 -152 0
188 -151 -152 0
188 -149 -151 0
-189 148 158 0
-189 158 159 0
-189 148 159 0
189 -158 -159 0
189 -148 -158 0
189 -148 -159 0
190 -191 192 0
190 191 -192 0
-190 191 192 0
-190 -191 -192 0
-191 170 189 0
-191 170 172 0
-191 172 189 0
191 -172 -189 0
191 -170 -189 0
191 -170 -172 0
-192 -193 -194 0
-192 193 194 0
192 193 -194 0
192 -193 194 0
193 -173 -188 0
-193 173 0
-193 188 0
194 -195 208 0
194 195 -208 0
-194 195 208 0
-194 -195 -208 0
-195 -196 -201 0
-195 196 201 0
195 196 -201 0
195 -196 201 0
-196 197 198 0
-196 -197 -198 0
196 -197 198 0
196 197 -198 0
197 -260 -261 -265 -266 0
-197 266 0
-197 260 0
-197 265 0
-197 261 0
-198 -199 -200 0
-198 199 200 0
198 199 -200 0
198 -199 200 0
-199 176 179 0
-199 178 179 0
-199 176 178 0
199 -176 -178 0
199 -178 -179 0
199 -176 -179 0
200 -261 -266 0
-200 261 0
-200 266 0
201 -202 203 0
201 202 -203 0
-201 202 203 0
-201 -202 -203 0
-202 175 181 0
-202 181 182 0
-202 175 182 0
202 -175 -182 0
202 -181 -182 0
202 -175 -181 0
-203 -204 -205 0
-203 204 205 0
203 204 -205 0
203 -204 205 0
204 -260 -267 0
-204 260 0
-204 267 0
205 206 -207 0
205 -206 207 0
-205 -206 -207 0
-205 206 207 0
206 -259 -268 0
-206 259 0
-206 268 0
207 -258 -269 0
-207 258 0
-207 269 0
-208 174 184 0
-208 184 185 0
-208 174 185 0
208 -184 -185 0
208 -174 -184 0
208 -174 -185 0
209 -210 211 0
209 210 -211 0
-209 210 211 0
-209 -210 -211 0
-210 191 194 0
-210 193 194 0
-210 193 191 0
210 -193 -194 0
210 -193 -191 0
210 -191 -194 0
-211 -212 -213 0
-211 212 213 0
211 212 -213 0
211 -212 213 0
212 -195 -208 0
-212 195 0
-212 208 0
213 -214 223 0
213 214 -223 0
-213 214 223 0
-213 -214 -223 0
-214 215 222 0
-214 -215 -222 0
214 -215 222 0
214 215 -222 0
-215 216 221 0
-215 -216 -221 0
215 -216 221 0
215 216 -221 0
-216 -217 -218 0
-216 217 218 0
216 217 -218 0
216 -217 218 0
217 -261 -267 0
-217 261 0
-217 267 0
218 219 -220 0
218 -219 220 0
-218 -219 -220 0
-218 219 220 0
219 -260 -268 0
-219 260 0
-219 268 0
220 -259 -269 0
-220 259 0
-220 269 0
-221 204 207 0
-221 206 207 0
-221 204 206 0
221 -204 -206 0
221 -206 -207 0
221 -204 -207 0
-222 199 200 0
-222 197 200 0
-222 197 199 0
222 -197 -200 0
222 -197 -199 0
222 -199 -200 0
-223 196 202 0
-223 202 203 0
-223 196 203 0
223 -196 -203 0
223 -202 -203 0
223 -196 -202 0
224 -225 226 0
224 225 -226 0
-224 225 226 0
-224 -225 -226 0
-225 210 213 0
-225 212 213 0
-225 212 210 0
225 -212 -213 0
225 -212 -210 0
225 -210 -213 0
-226 227 228 0
-226 -227 -228 0
226 -227 228 0
226 227 -228 0
227 -214 -223 0
-227 214 0
-227 223 0
-228 -229 -236 0
-228 229 236 0
228 229 -236 0
228 -229 236 0
-229 -230 -235 0
-229 230 235 0
229 230 -235 0
229 -230 235 0
-230 231 234 0
-230 -231 -234 0
230 -231 234 0
230 231 -234 0
231 232 -233 0
231 -232 233 0
-231 -232 -233 0
-231 232 233 0
232 -261 -268 0
-232 261 0
-232 268 0
233 -260 -269 0
-233 260 0
-233 269 0
-234 217 220 0
-234 219 220 0
-234 217 219 0
234 -217 -219 0
234 -219 -220 0
234 -217 -220 0
235 -216 -221 0
-235 216 0
-235 221 0
236 -215 -222 0
-236 215 0
-236 222 0
237 -238 239 0
237 238 -239 0
-237 238 239 0
-237 -238 -239 0
-238 227 225 0
-238 225 228 0
-238 227 228 0
238 -225 -228 0
238 -227 -225 0
238 -227 -228 0
-239 -240 -246 0
-239 240 246 0
239 240 -246 0
239 -240 246 0
-240 -241 -245 0
-240 241 245 0
240 241 -245 0
240 -241 245 0
-241 -242 -244 0
-241 242 244 0
241 242 -244 0
241 -242 244 0
-242 243 0
242 -243 0
243 260 -261 -269 0
243 -261 268 -269 0
-243 269 0
-243 261 0
-243 -260 -268 0
244 -231 -234 0
-244 231 0
-244 234 0
245 -230 -235 0
-245 230 0
-245 235 0
246 -229 -236 0
-246 229 0
-246 236 0
247 -248 249 0
247 248 -249 0
-247 248 249 0
-247 -248 -249 0
-248 238 240 0
-248 240 246 0
-248 238 246 0
248 -240 -246 0
248 -238 -240 0
248 -238 -246 0
-249 -250 -253 0
-249 250 253 0
249 250 -253 0
249 -250 253 0
-250 -251 -252 0
-250 251 252 0
250 251 -252 0
250 -251 252 0
251 -242 -244 0
-251 242 0
-251 244 0
252 -260 -261 -268 -269 0
-252 269 0
-252 260 0
-252 268 0
-252 261 0
253 -241 -245 0
-253 241 0
-253 245 0
-270 0
2 0
3 0
6 0
13 0
24 0
39 0
60 0
85 0
115 0
144 0
169 0
190 0
209 0
224 0
237 0
247 0

