c Result of efficient AIG-to-CNF conversion using package CNF
p cnf 242 961
2 -226 -234 0
-2 226 0
-2 234 0
3 4 -5 0
3 -4 5 0
-3 -4 -5 0
-3 4 5 0
4 -227 -234 0
-4 227 0
-4 234 0
5 -226 -235 0
-5 226 0
-5 235 0
6 -7 8 0
6 7 -8 0
-6 7 8 0
-6 -7 -8 0
7 -226 -227 -234 -235 0
-7 235 0
-7 226 0
-7 234 0
-7 227 0
-8 -9 -12 0
-8 9 12 0
8 9 -12 0
8 -9 12 0
-9 -10 -11 0
-9 10 11 0
9 10 -11 0
9 -10 11 0
10 -227 -235 0
-10 227 0
-10 235 0
11 -226 -236 0
-11 226 0
-11 236 0
12 -228 -234 0
-12 228 0
-12 234 0
13 -14 15 0
13 14 -15 0
-13 14 15 0
-13 -14 -15 0
-14 9 12 0
-14 7 12 0
-14 7 9 0
14 -7 -12 0
14 -7 -9 0
14 -9 -12 0
-15 -16 -23 0
-15 16 23 0
15 16 -23 0
15 -16 23 0
-16 -17 -20 0
-16 17 20 0
16 17 -20 0
16 -17 20 0
-17 -18 -19 0
-17 18 19 0
17 18 -19 0
17 -18 19 0
18 -227 -236 0
-18 227 0
-18 236 0
19 -226 -237 0
-19 226 0
-19 237 0
20 21 -22 0
20 -21 22 0
-20 -21 -22 0
-20 21 22 0
21 -229 -234 0
-21 229 0
-21 234 0
22 -228 -235 0
-22 228 0
-22 235 0
23 -226 -227 -235 -236 0
-23 236 0
-23 226 0
-23 235 0
-23 227 0
24 -25 26 0
24 25 -26 0
-24 25 26 0
-24 -25 -26 0
-25 14 16 0
-25 16 23 0
-25 14 23 0
25 -16 -23 0
25 -14 -16 0
25 -14 -23 0
-26 27 38 0
-26 -27 -38 0
26 -27 38 0
26 27 -38 0
-27 -28 -33 0
-27 28 33 0
27 28 -33 0
27 -28 33 0
-28 29 30 0
-28 -29 -30 0
28 -29 30 0
28 29 -30 0
29 -230 -234 0
-29 230 0
-29 234 0
-30 -31 -32 0
-30 31 32 0
30 31 -32 0
30 -31 32 0
31 -229 -235 0
-31 229 0
-31 235 0
32 -228 -236 0
-32 228 0
-32 236 0
33 34 -35 0
33 -34 35 0
-33 -34 -35 0
-33 34 35 0
34 -226 -227 -236 -237 0
-34 237 0
-34 226 0
-34 236 0
-34 227 0
35 36 -37 0
35 -36 37 0
-35 -36 -37 0
-35 36 37 0
36 -227 -237 0
-36 227 0
-36 237 0
37 -226 -238 0
-37 226 0
-37 238 0
-38 234 22 0
-38 229 17 0
-38 234 17 0
-38 17 22 0
-38 229 22 0
38 -17 -22 0
38 -229 -234 -22 0
38 -229 -234 -17 0
39 40 -41 0
39 -40 41 0
-39 -40 -41 0
-39 40 41 0
-40 25 27 0
-40 27 38 0
-40 25 38 0
40 -25 -38 0
40 -27 -38 0
40 -25 -27 0
41 -42 57 0
41 42 -57 0
-41 42 57 0
-41 -42 -57 0
42 -43 52 0
42 43 -52 0
-42 43 52 0
-42 -43 -52 0
-43 -44 -49 0
-43 44 49 0
43 44 -49 0
43 -44 49 0
-44 -45 -46 0
-44 45 46 0
44 45 -46 0
44 -45 46 0
45 -228 -237 0
-45 228 0
-45 237 0
46 47 -48 0
46 -47 48 0
-46 -47 -48 0
-46 47 48 0
47 -227 -238 0
-47 227 0
-47 238 0
48 -226 -239 0
-48 226 0
-48 239 0
49 50 -51 0
49 -50 51 0
-49 -50 -51 0
-49 50 51 0
50 -226 -227 -237 -238 0
-50 238 0
-50 226 0
-50 237 0
-50 227 0
51 -231 -234 0
-51 231 0
-51 234 0
-52 -53 -54 0
-52 53 54 0
52 53 -54 0
52 -53 54 0
-53 29 32 0
-53 31 32 0
-53 29 31 0
53 -29 -31 0
53 -31 -32 0
53 -29 -32 0
54 55 -56 0
54 -55 56 0
-54 -55 -56 0
-54 55 56 0
55 -230 -235 0
-55 230 0
-55 235 0
56 -229 -236 0
-56 229 0
-56 236 0
-57 34 35 0
-57 28 34 0
-57 28 35 0
57 -28 -34 0
57 -34 -35 0
57 -28 -35 0
58 -59 60 0
58 59 -60 0
-58 59 60 0
-58 -59 -60 0
-59 40 57 0
-59 40 42 0
-59 42 57 0
59 -42 -57 0
59 -40 -57 0
59 -40 -42 0
-60 61 80 0
-60 -61 -80 0
60 -61 80 0
60 61 -80 0
61 -62 71 0
61 62 -71 0
-61 62 71 0
-61 -62 -71 0
-62 -63 -68 0
-62 63 68 0
62 63 -68 0
62 -63 68 0
-63 -64 -65 0
-63 64 65 0
63 64 -65 0
63 -64 65 0
64 -230 -236 0
-64 230 0
-64 236 0
65 66 -67 0
65 -66 67 0
-65 -66 -67 0
-65 66 67 0
66 -229 -237 0
-66 229 0
-66 237 0
67 -228 -238 0
-67 228 0
-67 238 0
68 -69 70 0
68 69 -70 0
-68 69 70 0
-68 -69 -70 0
69 -229 -230 -235 -236 0
-69 236 0
-69 229 0
-69 235 0
-69 230 0
-70 45 48 0
-70 47 48 0
-70 45 47 0
70 -45 -47 0
70 -47 -48 0
70 -45 -48 0
-71 -72 -73 0
-71 72 73 0
71 72 -73 0
71 -72 73 0
-72 44 51 0
-72 50 51 0
-72 50 44 0
72 -50 -51 0
72 -50 -44 0
72 -44 -51 0
73 74 -77 0
73 -74 77 0
-73 -74 -77 0
-73 74 77 0
74 75 -76 0
74 -75 76 0
-74 -75 -76 0
-74 75 76 0
75 -227 -239 0
-75 227 0
-75 239 0
76 -226 -240 0
-76 226 0
-76 240 0
77 78 -79 0
77 -78 79 0
-77 -78 -79 0
-77 78 79 0
78 -232 -234 0
-78 232 0
-78 234 0
79 -231 -235 0
-79 231 0
-79 235 0
-80 43 53 0
-80 53 54 0
-80 43 54 0
80 -53 -54 0
80 -43 -53 0
80 -43 -54 0
81 82 -83 0
81 -82 83 0
-81 -82 -83 0
-81 82 83 0
-82 59 80 0
-82 59 61 0
-82 61 80 0
82 -61 -80 0
82 -59 -80 0
82 -59 -61 0
83 -84 107 0
83 84 -107 0
-83 84 107 0
-83 -84 -107 0
84 -85 94 0
84 85 -94 0
-84 85 94 0
-84 -85 -94 0
-85 -86 -91 0
-85 86 91 0
85 86 -91 0
85 -86 91 0
-86 -87 -88 0
-86 87 88 0
86 87 -88 0
86 -87 88 0
87 -233 -234 0
-87 233 0
-87 234 0
88 89 -90 0
88 -89 90 0
-88 -89 -90 0
-88 89 90 0
89 -232 -235 0
-89 232 0
-89 235 0
90 -231 -236 0
-90 231 0
-90 236 0
91 -92 93 0
91 92 -93 0
-91 92 93 0
-91 -92 -93 0
-92 235 78 0
-92 231 74 0
-92 74 78 0
-92 235 74 0
-92 231 78 0
92 -74 -78 0
92 -231 -235 -78 0
92 -231 -235 -74 0
-93 64 67 0
-93 66 67 0
-93 64 66 0
93 -64 -66 0
93 -66 -67 0
93 -64 -67 0
-94 -95 -96 0
-94 95 96 0
94 95 -96 0
94 -95 96 0
-95 69 63 0
-95 63 70 0
-95 69 70 0
95 -63 -70 0
95 -69 -63 0
95 -69 -70 0
96 -97 100 0
96 97 -100 0
-96 97 100 0
-96 -97 -100 0
97 98 -99 0
97 -98 99 0
-97 -98 -99 0
-97 98 99 0
98 -230 -237 0
-98 230 0
-98 237 0
99 -229 -238 0
-99 229 0
-99 238 0
-100 101 102 0
-100 -101 -102 0
100 -101 102 0
100 101 -102 0
101 -226 -227 -239 -240 0
-101 240 0
-101 226 0
-101 239 0
-101 227 0
-102 -103 -104 0
-102 103 104 0
102 103 -104 0
102 -103 104 0
103 -228 -239 0
-103 228 0
-103 239 0
104 105 -106 0
104 -105 106 0
-104 -105 -106 0
-104 105 106 0
105 -227 -240 0
-105 227 0
-105 240 0
106 -226 -241 0
-106 226 0
-106 241 0
-107 62 72 0
-107 72 73 0
-107 62 73 0
107 -72 -73 0
107 -62 -72 0
107 -62 -73 0
108 109 -110 0
108 -109 110 0
-108 -109 -110 0
-108 109 110 0
-109 82 107 0
-109 82 84 0
-109 84 107 0
109 -84 -107 0
109 -82 -107 0
109 -82 -84 0
110 -111 134 0
110 111 -134 0
-110 111 134 0
-110 -111 -134 0
111 -112 121 0
111 112 -121 0
-111 112 121 0
-111 -112 -121 0
-112 -113 -118 0
-112 113 118 0
112 113 -118 0
112 -113 118 0
-113 -114 -115 0
-113 114 115 0
113 114 -115 0
113 -114 115 0
-114 240 106 0
-114 227 103 0
-114 103 106 0
-114 240 103 0
-114 227 106 0
114 -103 -106 0
114 -227 -240 -106 0
114 -227 -240 -103 0
115 116 -117 0
115 -116 117 0
-115 -116 -117 0
-115 116 117 0
116 -233 -235 0
-116 233 0
-116 235 0
117 -232 -236 0
-117 232 0
-117 236 0
118 -119 120 0
118 119 -120 0
-118 119 120 0
-118 -119 -120 0
-119 97 102 0
-119 101 97 0
-119 101 102 0
119 -101 -97 0
119 -97 -102 0
119 -101 -102 0
-120 87 90 0
-120 89 90 0
-120 87 89 0
120 -87 -89 0
120 -89 -90 0
120 -87 -90 0
-121 -122 -123 0
-121 122 123 0
121 122 -123 0
121 -122 123 0
-122 86 92 0
-122 92 93 0
-122 86 93 0
122 -86 -93 0
122 -92 -93 0
122 -86 -92 0
123 -124 127 0
123 124 -127 0
-123 124 127 0
-123 -124 -127 0
124 125 -126 0
124 -125 126 0
-124 -125 -126 0
-124 125 126 0
125 -231 -237 0
-125 231 0
-125 237 0
126 -230 -238 0
-126 230 0
-126 238 0
-127 128 129 0
-127 -128 -129 0
127 -128 129 0
127 128 -129 0
128 -229 -230 -237 -238 0
-128 238 0
-128 229 0
-128 237 0
-128 230 0
-129 -130 -131 0
-129 130 131 0
129 130 -131 0
129 -130 131 0
130 -229 -239 0
-130 229 0
-130 239 0
131 132 -133 0
131 -132 133 0
-131 -132 -133 0
-131 132 133 0
132 -228 -240 0
-132 228 0
-132 240 0
133 -227 -241 0
-133 227 0
-133 241 0
-134 85 95 0
-134 95 96 0
-134 85 96 0
134 -95 -96 0
134 -85 -95 0
134 -85 -96 0
135 136 -137 0
135 -136 137 0
-135 -136 -137 0
-135 136 137 0
-136 109 134 0
-136 109 111 0
-136 111 134 0
136 -111 -134 0
136 -109 -134 0
136 -109 -111 0
137 -138 159 0
137 138 -159 0
-137 138 159 0
-137 -138 -159 0
138 -139 148 0
138 139 -148 0
-138 139 148 0
-138 -139 -148 0
-139 -140 -145 0
-139 140 145 0
139 140 -145 0
139 -140 145 0
-140 -141 -142 0
-140 141 142 0
140 141 -142 0
140 -141 142 0
141 -233 -236 0
-141 233 0
-141 236 0
142 143 -144 0
142 -143 144 0
-142 -143 -144 0
-142 143 144 0
143 -232 -237 0
-143 232 0
-143 237 0
144 -231 -238 0
-144 231 0
-144 238 0
145 -146 147 0
145 146 -147 0
-145 146 147 0
-145 -146 -147 0
-146 124 129 0
-146 128 124 0
-146 128 129 0
146 -128 -124 0
146 -124 -129 0
146 -128 -129 0
-147 116 117 0
-147 114 116 0
-147 114 117 0
147 -114 -116 0
147 -116 -117 0
147 -114 -117 0
-148 -149 -150 0
-148 149 150 0
148 149 -150 0
148 -149 150 0
-149 113 119 0
-149 119 120 0
-149 113 120 0
149 -113 -120 0
149 -119 -120 0
149 -113 -119 0
150 151 -156 0
150 -151 156 0
-150 -151 -156 0
-150 151 156 0
-151 -152 -153 0
-151 152 153 0
151 152 -153 0
151 -152 153 0
152 -230 -239 0
-152 230 0
-152 239 0
153 154 -155 0
153 -154 155 0
-153 -154 -155 0
-153 154 155 0
154 -229 -240 0
-154 229 0
-154 240 0
155 -228 -241 0
-155 228 0
-155 241 0
156 -157 158 0
156 157 -158 0
-156 157 158 0
-156 -157 -158 0
157 -230 -231 -237 -238 0
-157 238 0
-157 230 0
-157 237 0
-157 231 0
-158 130 133 0
-158 132 133 0
-158 130 132 0
158 -130 -132 0
158 -132 -133 0
158 -130 -133 0
-159 112 122 0
-159 122 123 0
-159 112 123 0
159 -122 -123 0
159 -112 -122 0
159 -112 -123 0
160 161 -162 0
160 -161 162 0
-160 -161 -162 0
-160 161 162 0
-161 136 159 0
-161 136 138 0
-161 138 159 0
161 -138 -159 0
161 -136 -159 0
161 -136 -138 0
162 -163 180 0
162 163 -180 0
-162 163 180 0
-162 -163 -180 0
163 -164 173 0
163 164 -173 0
-163 164 173 0
-163 -164 -173 0
-164 -165 -170 0
-164 165 170 0
164 165 -170 0
164 -165 170 0
-165 -166 -167 0
-165 166 167 0
165 166 -167 0
165 -166 167 0
166 -231 -239 0
-166 231 0
-166 239 0
167 168 -169 0
167 -168 169 0
-167 -168 -169 0
-167 168 169 0
168 -230 -240 0
-168 230 0
-168 240 0
169 -229 -241 0
-169 229 0
-169 241 0
170 -171 172 0
170 171 -172 0
-170 171 172 0
-170 -171 -172 0
-171 157 151 0
-171 151 158 0
-171 157 158 0
171 -151 -158 0
171 -157 -151 0
171 -157 -158 0
-172 141 144 0
-172 143 144 0
-172 141 143 0
172 -141 -143 0
172 -143 -144 0
172 -141 -144 0
-173 -174 -175 0
-173 174 175 0
173 174 -175 0
173 -174 175 0
-174 140 146 0
-174 146 147 0
-174 140 147 0
174 -140 -147 0
174 -146 -147 0
174 -140 -146 0
175 176 -177 0
175 -176 177 0
-175 -176 -177 0
-175 176 177 0
-176 152 155 0
-176 154 155 0
-176 152 154 0
176 -152 -154 0
176 -154 -155 0
176 -152 -155 0
177 178 -179 0
177 -178 179 0
-177 -178 -179 0
-177 178 179 0
178 -233 -237 0
-178 233 0
-178 237 0
179 -232 -238 0
-179 232 0
-179 238 0
-180 139 149 0
-180 149 150 0
-180 139 150 0
180 -149 -150 0
180 -139 -149 0
180 -139 -150 0
181 -182 183 0
181 182 -183 0
-181 182 183 0
-181 -182 -183 0
-182 161 180 0
-182 161 163 0
-182 163 180 0
182 -163 -180 0
182 -161 -180 0
182 -161 -163 0
-183 184 197 0
-183 -184 -197 0
183 -184 197 0
183 184 -197 0
184 -185 190 0
184 185 -190 0
-184 185 190 0
-184 -185 -190 0
-185 -186 -187 0
-185 186 187 0
185 186 -187 0
185 -186 187 0
-186 178 179 0
-186 176 178 0
-186 176 179 0
186 -176 -178 0
186 -178 -179 0
186 -176 -179 0
187 188 -189 0
187 -188 189 0
-187 -188 -189 0
-187 188 189 0
-188 166 169 0
-188 168 169 0
-188 166 168 0
188 -166 -168 0
188 -168 -169 0
188 -166 -169 0
189 -233 -238 0
-189 233 0
-189 238 0
-190 -191 -192 0
-190 191 192 0
190 191 -192 0
190 -191 192 0
-191 165 171 0
-191 171 172 0
-191 165 172 0
191 -165 -172 0
191 -171 -172 0
191 -165 -171 0
192 193 -194 0
192 -193 194 0
-192 -193 -194 0
-192 193 194 0
193 -232 -239 0
-193 232 0
-193 239 0
194 195 -196 0
194 -195 196 0
-194 -195 -196 0
-194 195 196 0
195 -231 -240 0
-195 231 0
-195 240 0
196 -230 -241 0
-196 230 0
-196 241 0
-197 164 174 0
-197 174 175 0
-197 164 175 0
197 -174 -175 0
197 -164 -174 0
197 -164 -175 0
198 -199 200 0
198 199 -200 0
-198 199 200 0
-198 -199 -200 0
-199 182 197 0
-199 182 184 0
-199 184 197 0
199 -184 -197 0
199 -182 -197 0
199 -182 -184 0
-200 201 210 0
-200 -201 -210 0
200 -201 210 0
200 201 -210 0
201 -202 207 0
201 202 -207 0
-201 202 207 0
-201 -202 -207 0
-202 -203 -204 0
-202 203 204 0
202 203 -204 0
202 -203 204 0
203 -233 -239 0
-203 233 0
-203 239 0
204 205 -206 0
204 -205 206 0
-204 -205 -206 0
-204 205 206 0
205 -232 -240 0
-205 232 0
-205 240 0
206 -231 -241 0
-206 231 0
-206 241 0
-207 208 209 0
-207 -208 -209 0
207 -208 209 0
207 208 -209 0
-208 186 188 0
-208 188 189 0
-208 186 189 0
208 -188 -189 0
208 -186 -188 0
208 -186 -189 0
-209 240 196 0
-209 231 193 0
-209 193 196 0
-209 240 193 0
-209 231 196 0
209 -193 -196 0
209 -231 -240 -196 0
209 -231 -240 -193 0
-210 185 191 0
-210 191 192 0
-210 185 192 0
210 -191 -192 0
210 -185 -191 0
210 -185 -192 0
211 -212 213 0
211 212 -213 0
-211 212 213 0
-211 -212 -213 0
-212 199 210 0
-212 199 201 0
-212 201 210 0
212 -201 -210 0
212 -199 -210 0
212 -199 -201 0
-213 214 219 0
-213 -214 -219 0
213 -214 219 0
213 214 -219 0
214 215 -216 0
214 -215 216 0
-214 -215 -216 0
-214 215 216 0
-215 203 206 0
-215 205 206 0
-215 203 205 0
215 -203 -205 0
215 -205 -206 0
215 -203 -206 0
216 217 -218 0
216 -217 218 0
-216 -217 -218 0
-216 217 218 0
217 -233 -240 0
-217 233 0
-217 240 0
218 -232 -241 0
-218 232 0
-218 241 0
-219 202 208 0
-219 208 209 0
-219 202 209 0
219 -202 -209 0
219 -208 -209 0
219 -202 -208 0
220 -221 222 0
220 221 -222 0
-220 221 222 0
-220 -221 -222 0
-221 212 219 0
-221 212 214 0
-221 214 219 0
221 -214 -219 0
221 -212 -219 0
221 -212 -214 0
-222 -223 -224 0
-222 223 224 0
222 223 -224 0
222 -223 224 0
-223 217 218 0
-223 215 217 0
-223 215 218 0
223 -215 -217 0
223 -217 -218 0
223 -215 -218 0
224 -233 -241 0
-224 233 0
-224 241 0
-225 221 223 0
-225 223 224 0
-225 221 224 0
225 -223 -224 0
225 -221 -223 0
225 -221 -224 0
-242 0
2 0
3 0
6 0
13 0
24 0
39 0
58 0
81 0
108 0
135 0
160 0
181 0
198 0
211 0
220 0
225 0

