c Result of efficient AIG-to-CNF conversion using package CNF
p cnf 382 1522
2 -362 -372 0
-2 362 0
-2 372 0
-3 -4 -5 0
-3 4 5 0
3 4 -5 0
3 -4 5 0
4 -363 -372 0
-4 363 0
-4 372 0
5 -362 -373 0
-5 362 0
-5 373 0
6 7 -8 0
6 -7 8 0
-6 -7 -8 0
-6 7 8 0
7 -364 -372 0
-7 364 0
-7 372 0
8 -9 10 0
8 9 -10 0
-8 9 10 0
-8 -9 -10 0
9 -363 -373 0
-9 363 0
-9 373 0
-10 -11 -12 0
-10 11 12 0
10 11 -12 0
10 -11 12 0
11 -362 -374 0
-11 362 0
-11 374 0
12 -362 -363 -372 -373 0
-12 373 0
-12 362 0
-12 372 0
-12 363 0
13 14 -15 0
13 -14 15 0
-13 -14 -15 0
-13 14 15 0
14 -365 -372 0
-14 365 0
-14 372 0
15 -16 17 0
15 16 -17 0
-15 16 17 0
-15 -16 -17 0
16 -364 -373 0
-16 364 0
-16 373 0
-17 -18 -19 0
-17 18 19 0
17 18 -19 0
17 -18 19 0
18 -364 -372 -8 0
-18 364 0
-18 372 0
-18 8 0
19 20 -21 0
19 -20 21 0
-19 -20 -21 0
-19 20 21 0
20 -363 -374 0
-20 363 0
-20 374 0
21 -22 23 0
21 22 -23 0
-21 22 23 0
-21 -22 -23 0
22 -362 -375 0
-22 362 0
-22 375 0
-23 9 12 0
-23 11 12 0
-23 9 11 0
23 -9 -11 0
23 -11 -12 0
23 -9 -12 0
24 25 -26 0
24 -25 26 0
-24 -25 -26 0
-24 25 26 0
25 -366 -372 0
-25 366 0
-25 372 0
26 -27 28 0
26 27 -28 0
-26 27 28 0
-26 -27 -28 0
27 -365 -373 0
-27 365 0
-27 373 0
-28 29 30 0
-28 -29 -30 0
28 -29 30 0
28 29 -30 0
29 -365 -372 -15 0
-29 365 0
-29 372 0
-29 15 0
-30 31 32 0
-30 -31 -32 0
30 -31 32 0
30 31 -32 0
31 -364 -374 0
-31 364 0
-31 374 0
-32 33 38 0
-32 -33 -38 0
32 -33 38 0
32 33 -38 0
-33 -34 -35 0
-33 34 35 0
33 34 -35 0
33 -34 35 0
34 -363 -375 0
-34 363 0
-34 375 0
35 -36 37 0
35 36 -37 0
-35 36 37 0
-35 -36 -37 0
36 -362 -376 0
-36 362 0
-36 376 0
-37 22 23 0
-37 20 22 0
-37 20 23 0
37 -20 -22 0
37 -22 -23 0
37 -20 -23 0
-38 18 19 0
-38 16 19 0
-38 18 16 0
38 -18 -16 0
38 -16 -19 0
38 -18 -19 0
39 40 -41 0
39 -40 41 0
-39 -40 -41 0
-39 40 41 0
40 -367 -372 0
-40 367 0
-40 372 0
41 -42 43 0
41 42 -43 0
-41 42 43 0
-41 -42 -43 0
42 -366 -373 0
-42 366 0
-42 373 0
-43 44 45 0
-43 -44 -45 0
43 -44 45 0
43 44 -45 0
44 -366 -372 -26 0
-44 366 0
-44 372 0
-44 26 0
-45 46 47 0
-45 -46 -47 0
45 -46 47 0
45 46 -47 0
46 -365 -374 0
-46 365 0
-46 374 0
-47 48 57 0
-47 -48 -57 0
47 -48 57 0
47 48 -57 0
-48 49 50 0
-48 -49 -50 0
48 -49 50 0
48 49 -50 0
49 -364 -375 0
-49 364 0
-49 375 0
-50 51 56 0
-50 -51 -56 0
50 -51 56 0
50 51 -56 0
-51 -52 -53 0
-51 52 53 0
51 52 -53 0
51 -52 53 0
52 -363 -376 0
-52 363 0
-52 376 0
53 -54 55 0
53 54 -55 0
-53 54 55 0
-53 -54 -55 0
54 -362 -377 0
-54 362 0
-54 377 0
-55 36 37 0
-55 34 36 0
-55 34 37 0
55 -34 -36 0
55 -36 -37 0
55 -34 -37 0
-56 31 33 0
-56 33 38 0
-56 31 38 0
56 -33 -38 0
56 -31 -33 0
56 -31 -38 0
-57 27 30 0
-57 29 27 0
-57 29 30 0
57 -29 -27 0
57 -27 -30 0
57 -29 -30 0
58 59 -60 0
58 -59 60 0
-58 -59 -60 0
-58 59 60 0
59 -368 -372 0
-59 368 0
-59 372 0
60 -61 62 0
60 61 -62 0
-60 61 62 0
-60 -61 -62 0
61 -367 -373 0
-61 367 0
-61 373 0
-62 63 64 0
-62 -63 -64 0
62 -63 64 0
62 63 -64 0
63 -367 -372 -41 0
-63 367 0
-63 372 0
-63 41 0
-64 65 66 0
-64 -65 -66 0
64 -65 66 0
64 65 -66 0
65 -366 -374 0
-65 366 0
-65 374 0
-66 67 80 0
-66 -67 -80 0
66 -67 80 0
66 67 -80 0
-67 68 69 0
-67 -68 -69 0
67 -68 69 0
67 68 -69 0
68 -365 -375 0
-68 365 0
-68 375 0
-69 70 79 0
-69 -70 -79 0
69 -70 79 0
69 70 -79 0
-70 71 72 0
-70 -71 -72 0
70 -71 72 0
70 71 -72 0
71 -364 -376 0
-71 364 0
-71 376 0
-72 73 78 0
-72 -73 -78 0
72 -73 78 0
72 73 -78 0
-73 -74 -75 0
-73 74 75 0
73 74 -75 0
73 -74 75 0
74 -363 -377 0
-74 363 0
-74 377 0
75 -76 77 0
75 76 -77 0
-75 76 77 0
-75 -76 -77 0
76 -362 -378 0
-76 362 0
-76 378 0
-77 54 55 0
-77 52 54 0
-77 52 55 0
77 -52 -54 0
77 -54 -55 0
77 -52 -55 0
-78 49 51 0
-78 51 56 0
-78 49 56 0
78 -51 -56 0
78 -49 -51 0
78 -49 -56 0
-79 46 48 0
-79 48 57 0
-79 46 57 0
79 -48 -57 0
79 -46 -48 0
79 -46 -57 0
-80 42 45 0
-80 44 42 0
-80 44 45 0
80 -44 -42 0
80 -42 -45 0
80 -44 -45 0
81 82 -83 0
81 -82 83 0
-81 -82 -83 0
-81 82 83 0
82 -369 -372 0
-82 369 0
-82 372 0
83 -84 85 0
83 84 -85 0
-83 84 85 0
-83 -84 -85 0
84 -368 -373 0
-84 368 0
-84 373 0
-85 86 87 0
-85 -86 -87 0
85 -86 87 0
85 86 -87 0
86 -368 -372 -60 0
-86 368 0
-86 372 0
-86 60 0
-87 88 89 0
-87 -88 -89 0
87 -88 89 0
87 88 -89 0
88 -367 -374 0
-88 367 0
-88 374 0
-89 90 107 0
-89 -90 -107 0
89 -90 107 0
89 90 -107 0
-90 91 92 0
-90 -91 -92 0
90 -91 92 0
90 91 -92 0
91 -366 -375 0
-91 366 0
-91 375 0
-92 93 106 0
-92 -93 -106 0
92 -93 106 0
92 93 -106 0
-93 94 95 0
-93 -94 -95 0
93 -94 95 0
93 94 -95 0
94 -365 -376 0
-94 365 0
-94 376 0
-95 96 105 0
-95 -96 -105 0
95 -96 105 0
95 96 -105 0
-96 97 98 0
-96 -97 -98 0
96 -97 98 0
96 97 -98 0
97 -364 -377 0
-97 364 0
-97 377 0
-98 99 104 0
-98 -99 -104 0
98 -99 104 0
98 99 -104 0
-99 -100 -101 0
-99 100 101 0
99 100 -101 0
99 -100 101 0
100 -363 -378 0
-100 363 0
-100 378 0
101 -102 103 0
101 102 -103 0
-101 102 103 0
-101 -102 -103 0
102 -362 -379 0
-102 362 0
-102 379 0
-103 76 77 0
-103 74 76 0
-103 74 77 0
103 -74 -76 0
103 -76 -77 0
103 -74 -77 0
-104 71 73 0
-104 73 78 0
-104 71 78 0
104 -73 -78 0
104 -71 -73 0
104 -71 -78 0
-105 68 70 0
-105 70 79 0
-105 68 79 0
105 -70 -79 0
105 -68 -70 0
105 -68 -79 0
-106 65 67 0
-106 67 80 0
-106 65 80 0
106 -67 -80 0
106 -65 -67 0
106 -65 -80 0
-107 61 64 0
-107 63 61 0
-107 63 64 0
107 -63 -61 0
107 -61 -64 0
107 -63 -64 0
108 109 -110 0
108 -109 110 0
-108 -109 -110 0
-108 109 110 0
109 -370 -372 0
-109 370 0
-109 372 0
110 -111 112 0
110 111 -112 0
-110 111 112 0
-110 -111 -112 0
111 -369 -373 0
-111 369 0
-111 373 0
-112 113 114 0
-112 -113 -114 0
112 -113 114 0
112 113 -114 0
113 -369 -372 -83 0
-113 369 0
-113 372 0
-113 83 0
-114 115 116 0
-114 -115 -116 0
114 -115 116 0
114 115 -116 0
115 -368 -374 0
-115 368 0
-115 374 0
-116 117 138 0
-116 -117 -138 0
116 -117 138 0
116 117 -138 0
-117 118 119 0
-117 -118 -119 0
117 -118 119 0
117 118 -119 0
118 -367 -375 0
-118 367 0
-118 375 0
-119 120 137 0
-119 -120 -137 0
119 -120 137 0
119 120 -137 0
-120 121 122 0
-120 -121 -122 0
120 -121 122 0
120 121 -122 0
121 -366 -376 0
-121 366 0
-121 376 0
-122 123 136 0
-122 -123 -136 0
122 -123 136 0
122 123 -136 0
-123 124 125 0
-123 -124 -125 0
123 -124 125 0
123 124 -125 0
124 -365 -377 0
-124 365 0
-124 377 0
-125 126 135 0
-125 -126 -135 0
125 -126 135 0
125 126 -135 0
-126 127 128 0
-126 -127 -128 0
126 -127 128 0
126 127 -128 0
127 -364 -378 0
-127 364 0
-127 378 0
-128 129 134 0
-128 -129 -134 0
128 -129 134 0
128 129 -134 0
-129 -130 -131 0
-129 130 131 0
129 130 -131 0
129 -130 131 0
130 -363 -379 0
-130 363 0
-130 379 0
131 -132 133 0
131 132 -133 0
-131 132 133 0
-131 -132 -133 0
132 -362 -380 0
-132 362 0
-132 380 0
-133 102 103 0
-133 100 102 0
-133 100 103 0
133 -100 -102 0
133 -102 -103 0
133 -100 -103 0
-134 97 99 0
-134 99 104 0
-134 97 104 0
134 -99 -104 0
134 -97 -99 0
134 -97 -104 0
-135 94 96 0
-135 96 105 0
-135 94 105 0
135 -96 -105 0
135 -94 -96 0
135 -94 -105 0
-136 91 93 0
-136 93 106 0
-136 91 106 0
136 -93 -106 0
136 -91 -93 0
136 -91 -106 0
-137 88 90 0
-137 90 107 0
-137 88 107 0
137 -90 -107 0
137 -88 -90 0
137 -88 -107 0
-138 84 87 0
-138 86 84 0
-138 86 87 0
138 -86 -84 0
138 -84 -87 0
138 -86 -87 0
139 140 -141 0
139 -140 141 0
-139 -140 -141 0
-139 140 141 0
140 -371 -372 0
-140 371 0
-140 372 0
141 142 -143 0
141 -142 143 0
-141 -142 -143 0
-141 142 143 0
142 -370 -373 0
-142 370 0
-142 373 0
143 144 -145 0
143 -144 145 0
-143 -144 -145 0
-143 144 145 0
144 -370 -372 -110 0
-144 370 0
-144 372 0
-144 110 0
145 -146 147 0
145 146 -147 0
-145 146 147 0
-145 -146 -147 0
146 -369 -374 0
-146 369 0
-146 374 0
-147 148 173 0
-147 -148 -173 0
147 -148 173 0
147 148 -173 0
-148 149 150 0
-148 -149 -150 0
148 -149 150 0
148 149 -150 0
149 -368 -375 0
-149 368 0
-149 375 0
-150 151 172 0
-150 -151 -172 0
150 -151 172 0
150 151 -172 0
-151 152 153 0
-151 -152 -153 0
151 -152 153 0
151 152 -153 0
152 -367 -376 0
-152 367 0
-152 376 0
-153 154 171 0
-153 -154 -171 0
153 -154 171 0
153 154 -171 0
-154 155 156 0
-154 -155 -156 0
154 -155 156 0
154 155 -156 0
155 -366 -377 0
-155 366 0
-155 377 0
-156 157 170 0
-156 -157 -170 0
156 -157 170 0
156 157 -170 0
-157 158 159 0
-157 -158 -159 0
157 -158 159 0
157 158 -159 0
158 -365 -378 0
-158 365 0
-158 378 0
-159 160 169 0
-159 -160 -169 0
159 -160 169 0
159 160 -169 0
-160 161 162 0
-160 -161 -162 0
160 -161 162 0
160 161 -162 0
161 -364 -379 0
-161 364 0
-161 379 0
-162 163 168 0
-162 -163 -168 0
162 -163 168 0
162 163 -168 0
-163 -164 -165 0
-163 164 165 0
163 164 -165 0
163 -164 165 0
164 -363 -380 0
-164 363 0
-164 380 0
165 -166 167 0
165 166 -167 0
-165 166 167 0
-165 -166 -167 0
166 -362 -381 0
-166 362 0
-166 381 0
-167 132 133 0
-167 130 132 0
-167 130 133 0
167 -130 -132 0
167 -132 -133 0
167 -130 -133 0
-168 127 129 0
-168 129 134 0
-168 127 134 0
168 -129 -134 0
168 -127 -129 0
168 -127 -134 0
-169 124 126 0
-169 126 135 0
-169 124 135 0
169 -126 -135 0
169 -124 -126 0
169 -124 -135 0
-170 121 123 0
-170 123 136 0
-170 121 136 0
170 -123 -136 0
170 -121 -123 0
170 -121 -136 0
-171 118 120 0
-171 120 137 0
-171 118 137 0
171 -120 -137 0
171 -118 -120 0
171 -118 -137 0
-172 115 117 0
-172 117 138 0
-172 115 138 0
172 -117 -138 0
172 -115 -117 0
172 -115 -138 0
-173 111 114 0
-173 113 111 0
-173 113 114 0
173 -113 -111 0
173 -111 -114 0
173 -113 -114 0
174 -175 176 0
174 175 -176 0
-174 175 176 0
-174 -175 -176 0
175 -371 -373 0
-175 371 0
-175 373 0
-176 177 178 0
-176 -177 -178 0
176 -177 178 0
176 177 -178 0
177 -370 -374 0
-177 370 0
-177 374 0
-178 179 180 0
-178 -179 -180 0
178 -179 180 0
178 179 -180 0
179 -371 -372 -141 0
-179 371 0
-179 372 0
-179 141 0
-180 181 182 0
-180 -181 -182 0
180 -181 182 0
180 181 -182 0
181 -369 -375 0
-181 369 0
-181 375 0
-182 183 208 0
-182 -183 -208 0
182 -183 208 0
182 183 -208 0
-183 184 185 0
-183 -184 -185 0
183 -184 185 0
183 184 -185 0
184 -368 -376 0
-184 368 0
-184 376 0
-185 186 207 0
-185 -186 -207 0
185 -186 207 0
185 186 -207 0
-186 187 188 0
-186 -187 -188 0
186 -187 188 0
186 187 -188 0
187 -367 -377 0
-187 367 0
-187 377 0
-188 189 206 0
-188 -189 -206 0
188 -189 206 0
188 189 -206 0
-189 190 191 0
-189 -190 -191 0
189 -190 191 0
189 190 -191 0
190 -366 -378 0
-190 366 0
-190 378 0
-191 192 205 0
-191 -192 -205 0
191 -192 205 0
191 192 -205 0
-192 193 194 0
-192 -193 -194 0
192 -193 194 0
192 193 -194 0
193 -365 -379 0
-193 365 0
-193 379 0
-194 195 204 0
-194 -195 -204 0
194 -195 204 0
194 195 -204 0
-195 196 197 0
-195 -196 -197 0
195 -196 197 0
195 196 -197 0
196 -364 -380 0
-196 364 0
-196 380 0
-197 198 203 0
-197 -198 -203 0
197 -198 203 0
197 198 -203 0
-198 199 200 0
-198 -199 -200 0
198 -199 200 0
198 199 -200 0
199 -363 -381 0
-199 363 0
-199 381 0
-200 201 202 0
-200 -201 -202 0
200 -201 202 0
200 201 -202 0
-201 166 167 0
-201 164 166 0
-201 164 167 0
201 -164 -166 0
201 -166 -167 0
201 -164 -167 0
-202 161 163 0
-202 163 168 0
-202 161 168 0
202 -163 -168 0
202 -161 -163 0
202 -161 -168 0
-203 158 160 0
-203 160 169 0
-203 158 169 0
203 -160 -169 0
203 -158 -160 0
203 -158 -169 0
-204 155 157 0
-204 157 170 0
-204 155 170 0
204 -157 -170 0
204 -155 -157 0
204 -155 -170 0
-205 152 154 0
-205 154 171 0
-205 152 171 0
205 -154 -171 0
205 -152 -154 0
205 -152 -171 0
-206 149 151 0
-206 151 172 0
-206 149 172 0
206 -151 -172 0
206 -149 -151 0
206 -149 -172 0
-207 146 148 0
-207 148 173 0
-207 146 173 0
207 -148 -173 0
207 -146 -148 0
207 -146 -173 0
-208 144 145 0
-208 142 145 0
-208 144 142 0
208 -144 -142 0
208 -142 -145 0
208 -144 -145 0
209 210 -211 0
209 -210 211 0
-209 -210 -211 0
-209 210 211 0
210 -371 -373 -176 0
-210 371 0
-210 373 0
-210 176 0
211 212 -213 0
211 -212 213 0
-211 -212 -213 0
-211 212 213 0
212 -371 -374 0
-212 371 0
-212 374 0
213 -214 215 0
213 214 -215 0
-213 214 215 0
-213 -214 -215 0
214 -370 -375 0
-214 370 0
-214 375 0
-215 216 241 0
-215 -216 -241 0
215 -216 241 0
215 216 -241 0
-216 217 218 0
-216 -217 -218 0
216 -217 218 0
216 217 -218 0
217 -369 -376 0
-217 369 0
-217 376 0
-218 219 240 0
-218 -219 -240 0
218 -219 240 0
218 219 -240 0
-219 220 221 0
-219 -220 -221 0
219 -220 221 0
219 220 -221 0
220 -368 -377 0
-220 368 0
-220 377 0
-221 222 239 0
-221 -222 -239 0
221 -222 239 0
221 222 -239 0
-222 223 224 0
-222 -223 -224 0
222 -223 224 0
222 223 -224 0
223 -367 -378 0
-223 367 0
-223 378 0
-224 225 238 0
-224 -225 -238 0
224 -225 238 0
224 225 -238 0
-225 226 227 0
-225 -226 -227 0
225 -226 227 0
225 226 -227 0
226 -366 -379 0
-226 366 0
-226 379 0
-227 228 237 0
-227 -228 -237 0
227 -228 237 0
227 228 -237 0
-228 229 230 0
-228 -229 -230 0
228 -229 230 0
228 229 -230 0
229 -365 -380 0
-229 365 0
-229 380 0
-230 231 236 0
-230 -231 -236 0
230 -231 236 0
230 231 -236 0
-231 232 233 0
-231 -232 -233 0
231 -232 233 0
231 232 -233 0
232 -364 -381 0
-232 364 0
-232 381 0
-233 234 235 0
-233 -234 -235 0
233 -234 235 0
233 234 -235 0
-234 199 201 0
-234 201 202 0
-234 199 202 0
234 -201 -202 0
234 -199 -201 0
234 -199 -202 0
-235 196 198 0
-235 198 203 0
-235 196 203 0
235 -198 -203 0
235 -196 -198 0
235 -196 -203 0
-236 193 195 0
-236 195 204 0
-236 193 204 0
236 -195 -204 0
236 -193 -195 0
236 -193 -204 0
-237 190 192 0
-237 192 205 0
-237 190 205 0
237 -192 -205 0
237 -190 -192 0
237 -190 -205 0
-238 187 189 0
-238 189 206 0
-238 187 206 0
238 -189 -206 0
238 -187 -189 0
238 -187 -206 0
-239 184 186 0
-239 186 207 0
-239 184 207 0
239 -186 -207 0
239 -184 -186 0
239 -184 -207 0
-240 181 183 0
-240 183 208 0
-240 181 208 0
240 -183 -208 0
240 -181 -183 0
240 -181 -208 0
-241 177 180 0
-241 179 177 0
-241 179 180 0
241 -179 -177 0
241 -177 -180 0
241 -179 -180 0
242 243 -244 0
242 -243 244 0
-242 -243 -244 0
-242 243 244 0
-243 210 213 0
-243 212 213 0
-243 210 212 0
243 -210 -212 0
243 -212 -213 0
243 -210 -213 0
244 245 -246 0
244 -245 246 0
-244 -245 -246 0
-244 245 246 0
245 -371 -375 0
-245 371 0
-245 375 0
246 -247 248 0
246 247 -248 0
-246 247 248 0
-246 -247 -248 0
247 -370 -376 0
-247 370 0
-247 376 0
-248 249 270 0
-248 -249 -270 0
248 -249 270 0
248 249 -270 0
-249 250 251 0
-249 -250 -251 0
249 -250 251 0
249 250 -251 0
250 -369 -377 0
-250 369 0
-250 377 0
-251 252 269 0
-251 -252 -269 0
251 -252 269 0
251 252 -269 0
-252 253 254 0
-252 -253 -254 0
252 -253 254 0
252 253 -254 0
253 -368 -378 0
-253 368 0
-253 378 0
-254 255 268 0
-254 -255 -268 0
254 -255 268 0
254 255 -268 0
-255 256 257 0
-255 -256 -257 0
255 -256 257 0
255 256 -257 0
256 -367 -379 0
-256 367 0
-256 379 0
-257 258 267 0
-257 -258 -267 0
257 -258 267 0
257 258 -267 0
-258 259 260 0
-258 -259 -260 0
258 -259 260 0
258 259 -260 0
259 -366 -380 0
-259 366 0
-259 380 0
-260 261 266 0
-260 -261 -266 0
260 -261 266 0
260 261 -266 0
-261 262 263 0
-261 -262 -263 0
261 -262 263 0
261 262 -263 0
262 -365 -381 0
-262 365 0
-262 381 0
-263 264 265 0
-263 -264 -265 0
263 -264 265 0
263 264 -265 0
-264 232 234 0
-264 234 235 0
-264 232 235 0
264 -234 -235 0
264 -232 -234 0
264 -232 -235 0
-265 229 231 0
-265 231 236 0
-265 229 236 0
265 -231 -236 0
265 -229 -231 0
265 -229 -236 0
-266 226 228 0
-266 228 237 0
-266 226 237 0
266 -228 -237 0
266 -226 -228 0
266 -226 -237 0
-267 223 225 0
-267 225 238 0
-267 223 238 0
267 -225 -238 0
267 -223 -225 0
267 -223 -238 0
-268 220 222 0
-268 222 239 0
-268 220 239 0
268 -222 -239 0
268 -220 -222 0
268 -220 -239 0
-269 217 219 0
-269 219 240 0
-269 217 240 0
269 -219 -240 0
269 -217 -219 0
269 -217 -240 0
-270 214 216 0
-270 216 241 0
-270 214 241 0
270 -216 -241 0
270 -214 -216 0
270 -214 -241 0
271 272 -273 0
271 -272 273 0
-271 -272 -273 0
-271 272 273 0
-272 245 246 0
-272 243 245 0
-272 243 246 0
272 -243 -245 0
272 -245 -246 0
272 -243 -246 0
273 274 -275 0
273 -274 275 0
-273 -274 -275 0
-273 274 275 0
274 -371 -376 0
-274 371 0
-274 376 0
275 -276 277 0
275 276 -277 0
-275 276 277 0
-275 -276 -277 0
276 -370 -377 0
-276 370 0
-276 377 0
-277 278 295 0
-277 -278 -295 0
277 -278 295 0
277 278 -295 0
-278 279 280 0
-278 -279 -280 0
278 -279 280 0
278 279 -280 0
279 -369 -378 0
-279 369 0
-279 378 0
-280 281 294 0
-280 -281 -294 0
280 -281 294 0
280 281 -294 0
-281 282 283 0
-281 -282 -283 0
281 -282 283 0
281 282 -283 0
282 -368 -379 0
-282 368 0
-282 379 0
-283 284 293 0
-283 -284 -293 0
283 -284 293 0
283 284 -293 0
-284 285 286 0
-284 -285 -286 0
284 -285 286 0
284 285 -286 0
285 -367 -380 0
-285 367 0
-285 380 0
-286 287 292 0
-286 -287 -292 0
286 -287 292 0
286 287 -292 0
-287 288 289 0
-287 -288 -289 0
287 -288 289 0
287 288 -289 0
288 -366 -381 0
-288 366 0
-288 381 0
-289 290 291 0
-289 -290 -291 0
289 -290 291 0
289 290 -291 0
-290 262 264 0
-290 264 265 0
-290 262 265 0
290 -264 -265 0
290 -262 -264 0
290 -262 -265 0
-291 259 261 0
-291 261 266 0
-291 259 266 0
291 -261 -266 0
291 -259 -261 0
291 -259 -266 0
-292 256 258 0
-292 258 267 0
-292 256 267 0
292 -258 -267 0
292 -256 -258 0
292 -256 -267 0
-293 253 255 0
-293 255 268 0
-293 253 268 0
293 -255 -268 0
293 -253 -255 0
293 -253 -268 0
-294 250 252 0
-294 252 269 0
-294 250 269 0
294 -252 -269 0
294 -250 -252 0
294 -250 -269 0
-295 247 249 0
-295 249 270 0
-295 247 270 0
295 -249 -270 0
295 -247 -249 0
295 -247 -270 0
296 297 -298 0
296 -297 298 0
-296 -297 -298 0
-296 297 298 0
-297 274 275 0
-297 272 274 0
-297 272 275 0
297 -272 -274 0
297 -274 -275 0
297 -272 -275 0
298 299 -300 0
298 -299 300 0
-298 -299 -300 0
-298 299 300 0
299 -371 -377 0
-299 371 0
-299 377 0
300 -301 302 0
300 301 -302 0
-300 301 302 0
-300 -301 -302 0
301 -370 -378 0
-301 370 0
-301 378 0
-302 303 316 0
-302 -303 -316 0
302 -303 316 0
302 303 -316 0
-303 304 305 0
-303 -304 -305 0
303 -304 305 0
303 304 -305 0
304 -369 -379 0
-304 369 0
-304 379 0
-305 306 315 0
-305 -306 -315 0
305 -306 315 0
305 306 -315 0
-306 307 308 0
-306 -307 -308 0
306 -307 308 0
306 307 -308 0
307 -368 -380 0
-307 368 0
-307 380 0
-308 309 314 0
-308 -309 -314 0
308 -309 314 0
308 309 -314 0
-309 310 311 0
-309 -310 -311 0
309 -310 311 0
309 310 -311 0
310 -367 -381 0
-310 367 0
-310 381 0
-311 312 313 0
-311 -312 -313 0
311 -312 313 0
311 312 -313 0
-312 288 290 0
-312 290 291 0
-312 288 291 0
312 -290 -291 0
312 -288 -290 0
312 -288 -291 0
-313 285 287 0
-313 287 292 0
-313 285 292 0
313 -287 -292 0
313 -285 -287 0
313 -285 -292 0
-314 282 284 0
-314 284 293 0
-314 282 293 0
314 -284 -293 0
314 -282 -284 0
314 -282 -293 0
-315 279 281 0
-315 281 294 0
-315 279 294 0
315 -281 -294 0
315 -279 -281 0
315 -279 -294 0
-316 276 278 0
-316 278 295 0
-316 276 295 0
316 -278 -295 0
316 -276 -278 0
316 -276 -295 0
317 318 -319 0
317 -318 319 0
-317 -318 -319 0
-317 318 319 0
-318 299 300 0
-318 297 299 0
-318 297 300 0
318 -297 -299 0
318 -299 -300 0
318 -297 -300 0
319 320 -321 0
319 -320 321 0
-319 -320 -321 0
-319 320 321 0
320 -371 -378 0
-320 371 0
-320 378 0
321 -322 323 0
321 322 -323 0
-321 322 323 0
-321 -322 -323 0
322 -370 -379 0
-322 370 0
-322 379 0
-323 324 333 0
-323 -324 -333 0
323 -324 333 0
323 324 -333 0
-324 325 326 0
-324 -325 -326 0
324 -325 326 0
324 325 -326 0
325 -369 -380 0
-325 369 0
-325 380 0
-326 327 332 0
-326 -327 -332 0
326 -327 332 0
326 327 -332 0
-327 328 329 0
-327 -328 -329 0
327 -328 329 0
327 328 -329 0
328 -368 -381 0
-328 368 0
-328 381 0
-329 330 331 0
-329 -330 -331 0
329 -330 331 0
329 330 -331 0
-330 310 312 0
-330 312 313 0
-330 310 313 0
330 -312 -313 0
330 -310 -312 0
330 -310 -313 0
-331 307 309 0
-331 309 314 0
-331 307 314 0
331 -309 -314 0
331 -307 -309 0
331 -307 -314 0
-332 304 306 0
-332 306 315 0
-332 304 315 0
332 -306 -315 0
332 -304 -306 0
332 -304 -315 0
-333 301 303 0
-333 303 316 0
-333 301 316 0
333 -303 -316 0
333 -301 -303 0
333 -301 -316 0
334 335 -336 0
334 -335 336 0
-334 -335 -336 0
-334 335 336 0
-335 320 321 0
-335 318 320 0
-335 318 321 0
335 -318 -320 0
335 -320 -321 0
335 -318 -321 0
336 337 -338 0
336 -337 338 0
-336 -337 -338 0
-336 337 338 0
337 -371 -379 0
-337 371 0
-337 379 0
338 -339 340 0
338 339 -340 0
-338 339 340 0
-338 -339 -340 0
339 -370 -380 0
-339 370 0
-339 380 0
-340 341 346 0
-340 -341 -346 0
340 -341 346 0
340 341 -346 0
-341 342 343 0
-341 -342 -343 0
341 -342 343 0
341 342 -343 0
342 -369 -381 0
-342 369 0
-342 381 0
-343 344 345 0
-343 -344 -345 0
343 -344 345 0
343 344 -345 0
-344 328 330 0
-344 330 331 0
-344 328 331 0
344 -330 -331 0
344 -328 -330 0
344 -328 -331 0
-345 325 327 0
-345 327 332 0
-345 325 332 0
345 -327 -332 0
345 -325 -327 0
345 -325 -332 0
-346 322 324 0
-346 324 333 0
-346 322 333 0
346 -324 -333 0
346 -322 -324 0
346 -322 -333 0
347 348 -349 0
347 -348 349 0
-347 -348 -349 0
-347 348 349 0
-348 337 338 0
-348 335 337 0
-348 335 338 0
348 -335 -337 0
348 -337 -338 0
348 -335 -338 0
349 350 -351 0
349 -350 351 0
-349 -350 -351 0
-349 350 351 0
350 -371 -380 0
-350 371 0
-350 380 0
351 -352 353 0
351 352 -353 0
-351 352 353 0
-351 -352 -353 0
352 -370 -381 0
-352 370 0
-352 381 0
-353 354 355 0
-353 -354 -355 0
353 -354 355 0
353 354 -355 0
-354 342 344 0
-354 344 345 0
-354 342 345 0
354 -344 -345 0
354 -342 -344 0
354 -342 -345 0
-355 339 341 0
-355 341 346 0
-355 339 346 0
355 -341 -346 0
355 -339 -341 0
355 -339 -346 0
356 357 -358 0
356 -357 358 0
-356 -357 -358 0
-356 357 358 0
-357 350 351 0
-357 348 350 0
-357 348 351 0
357 -348 -350 0
357 -350 -351 0
357 -348 -351 0
358 -359 360 0
358 359 -360 0
-358 359 360 0
-358 -359 -360 0
359 -371 -381 0
-359 371 0
-359 381 0
-360 352 354 0
-360 354 355 0
-360 352 355 0
360 -354 -355 0
360 -352 -354 0
360 -352 -355 0
-361 357 360 0
-361 357 359 0
-361 359 360 0
361 -359 -360 0
361 -357 -360 0
361 -357 -359 0
-382 0
2 0
3 0
6 0
13 0
24 0
39 0
58 0
81 0
108 0
139 0
174 0
209 0
242 0
271 0
296 0
317 0
334 0
347 0
356 0
361 0

