c Result of efficient AIG-to-CNF conversion using package CNF
p cnf 464 1893
2 -442 -453 0
-2 442 0
-2 453 0
3 4 -5 0
3 -4 5 0
-3 -4 -5 0
-3 4 5 0
4 -443 -453 0
-4 443 0
-4 453 0
5 -442 -454 0
-5 442 0
-5 454 0
6 -7 8 0
6 7 -8 0
-6 7 8 0
-6 -7 -8 0
7 -442 -443 -453 -454 0
-7 454 0
-7 442 0
-7 453 0
-7 443 0
-8 -9 -12 0
-8 9 12 0
8 9 -12 0
8 -9 12 0
-9 -10 -11 0
-9 10 11 0
9 10 -11 0
9 -10 11 0
10 -443 -454 0
-10 443 0
-10 454 0
11 -442 -455 0
-11 442 0
-11 455 0
12 -444 -453 0
-12 444 0
-12 453 0
13 -14 15 0
13 14 -15 0
-13 14 15 0
-13 -14 -15 0
-14 9 12 0
-14 7 12 0
-14 7 9 0
14 -7 -12 0
14 -7 -9 0
14 -9 -12 0
-15 -16 -23 0
-15 16 23 0
15 16 -23 0
15 -16 23 0
-16 -17 -20 0
-16 17 20 0
16 17 -20 0
16 -17 20 0
-17 -18 -19 0
-17 18 19 0
17 18 -19 0
17 -18 19 0
18 -443 -455 0
-18 443 0
-18 455 0
19 -442 -456 0
-19 442 0
-19 456 0
20 21 -22 0
20 -21 22 0
-20 -21 -22 0
-20 21 22 0
21 -445 -453 0
-21 445 0
-21 453 0
22 -444 -454 0
-22 444 0
-22 454 0
23 -442 -443 -454 -455 0
-23 455 0
-23 442 0
-23 454 0
-23 443 0
24 -25 26 0
24 25 -26 0
-24 25 26 0
-24 -25 -26 0
-25 14 16 0
-25 16 23 0
-25 14 23 0
25 -16 -23 0
25 -14 -16 0
25 -14 -23 0
-26 27 38 0
-26 -27 -38 0
26 -27 38 0
26 27 -38 0
-27 -28 -33 0
-27 28 33 0
27 28 -33 0
27 -28 33 0
-28 29 30 0
-28 -29 -30 0
28 -29 30 0
28 29 -30 0
29 -446 -453 0
-29 446 0
-29 453 0
-30 -31 -32 0
-30 31 32 0
30 31 -32 0
30 -31 32 0
31 -445 -454 0
-31 445 0
-31 454 0
32 -444 -455 0
-32 444 0
-32 455 0
33 34 -35 0
33 -34 35 0
-33 -34 -35 0
-33 34 35 0
34 -442 -443 -455 -456 0
-34 456 0
-34 442 0
-34 455 0
-34 443 0
35 36 -37 0
35 -36 37 0
-35 -36 -37 0
-35 36 37 0
36 -443 -456 0
-36 443 0
-36 456 0
37 -442 -457 0
-37 442 0
-37 457 0
-38 21 22 0
-38 17 21 0
-38 17 22 0
38 -17 -21 0
38 -21 -22 0
38 -17 -22 0
39 40 -41 0
39 -40 41 0
-39 -40 -41 0
-39 40 41 0
-40 25 27 0
-40 27 38 0
-40 25 38 0
40 -25 -38 0
40 -27 -38 0
40 -25 -27 0
41 -42 57 0
41 42 -57 0
-41 42 57 0
-41 -42 -57 0
42 -43 52 0
42 43 -52 0
-42 43 52 0
-42 -43 -52 0
-43 -44 -49 0
-43 44 49 0
43 44 -49 0
43 -44 49 0
-44 -45 -46 0
-44 45 46 0
44 45 -46 0
44 -45 46 0
45 -444 -456 0
-45 444 0
-45 456 0
46 47 -48 0
46 -47 48 0
-46 -47 -48 0
-46 47 48 0
47 -443 -457 0
-47 443 0
-47 457 0
48 -442 -458 0
-48 442 0
-48 458 0
49 50 -51 0
49 -50 51 0
-49 -50 -51 0
-49 50 51 0
50 -442 -443 -456 -457 0
-50 457 0
-50 442 0
-50 456 0
-50 443 0
51 -447 -453 0
-51 447 0
-51 453 0
-52 -53 -54 0
-52 53 54 0
52 53 -54 0
52 -53 54 0
-53 29 32 0
-53 31 32 0
-53 29 31 0
53 -29 -31 0
53 -31 -32 0
53 -29 -32 0
54 55 -56 0
54 -55 56 0
-54 -55 -56 0
-54 55 56 0
55 -446 -454 0
-55 446 0
-55 454 0
56 -445 -455 0
-56 445 0
-56 455 0
-57 34 35 0
-57 28 34 0
-57 28 35 0
57 -28 -34 0
57 -34 -35 0
57 -28 -35 0
58 -59 60 0
58 59 -60 0
-58 59 60 0
-58 -59 -60 0
-59 40 57 0
-59 40 42 0
-59 42 57 0
59 -42 -57 0
59 -40 -57 0
59 -40 -42 0
-60 61 80 0
-60 -61 -80 0
60 -61 80 0
60 61 -80 0
61 -62 71 0
61 62 -71 0
-61 62 71 0
-61 -62 -71 0
-62 -63 -68 0
-62 63 68 0
62 63 -68 0
62 -63 68 0
-63 -64 -65 0
-63 64 65 0
63 64 -65 0
63 -64 65 0
64 -446 -455 0
-64 446 0
-64 455 0
65 66 -67 0
65 -66 67 0
-65 -66 -67 0
-65 66 67 0
66 -445 -456 0
-66 445 0
-66 456 0
67 -444 -457 0
-67 444 0
-67 457 0
68 -69 70 0
68 69 -70 0
-68 69 70 0
-68 -69 -70 0
69 -445 -446 -454 -455 0
-69 455 0
-69 445 0
-69 454 0
-69 446 0
-70 457 48 0
-70 443 45 0
-70 45 48 0
-70 457 45 0
-70 443 48 0
70 -45 -48 0
70 -443 -457 -48 0
70 -443 -457 -45 0
-71 -72 -73 0
-71 72 73 0
71 72 -73 0
71 -72 73 0
-72 44 51 0
-72 50 51 0
-72 50 44 0
72 -50 -51 0
72 -50 -44 0
72 -44 -51 0
73 74 -77 0
73 -74 77 0
-73 -74 -77 0
-73 74 77 0
74 75 -76 0
74 -75 76 0
-74 -75 -76 0
-74 75 76 0
75 -443 -458 0
-75 443 0
-75 458 0
76 -442 -459 0
-76 442 0
-76 459 0
77 78 -79 0
77 -78 79 0
-77 -78 -79 0
-77 78 79 0
78 -448 -453 0
-78 448 0
-78 453 0
79 -447 -454 0
-79 447 0
-79 454 0
-80 43 53 0
-80 53 54 0
-80 43 54 0
80 -53 -54 0
80 -43 -53 0
80 -43 -54 0
81 82 -83 0
81 -82 83 0
-81 -82 -83 0
-81 82 83 0
-82 59 80 0
-82 59 61 0
-82 61 80 0
82 -61 -80 0
82 -59 -80 0
82 -59 -61 0
83 -84 107 0
83 84 -107 0
-83 84 107 0
-83 -84 -107 0
84 -85 94 0
84 85 -94 0
-84 85 94 0
-84 -85 -94 0
-85 -86 -91 0
-85 86 91 0
85 86 -91 0
85 -86 91 0
-86 -87 -88 0
-86 87 88 0
86 87 -88 0
86 -87 88 0
87 -449 -453 0
-87 449 0
-87 453 0
88 89 -90 0
88 -89 90 0
-88 -89 -90 0
-88 89 90 0
89 -448 -454 0
-89 448 0
-89 454 0
90 -447 -455 0
-90 447 0
-90 455 0
91 -92 93 0
91 92 -93 0
-91 92 93 0
-91 -92 -93 0
-92 454 78 0
-92 447 74 0
-92 74 78 0
-92 454 74 0
-92 447 78 0
92 -74 -78 0
92 -447 -454 -78 0
92 -447 -454 -74 0
-93 64 67 0
-93 66 67 0
-93 64 66 0
93 -64 -66 0
93 -66 -67 0
93 -64 -67 0
-94 -95 -96 0
-94 95 96 0
94 95 -96 0
94 -95 96 0
-95 69 63 0
-95 63 70 0
-95 69 70 0
95 -63 -70 0
95 -69 -63 0
95 -69 -70 0
96 -97 100 0
96 97 -100 0
-96 97 100 0
-96 -97 -100 0
97 98 -99 0
97 -98 99 0
-97 -98 -99 0
-97 98 99 0
98 -446 -456 0
-98 446 0
-98 456 0
99 -445 -457 0
-99 445 0
-99 457 0
-100 101 102 0
-100 -101 -102 0
100 -101 102 0
100 101 -102 0
101 -442 -443 -458 -459 0
-101 459 0
-101 442 0
-101 458 0
-101 443 0
-102 -103 -104 0
-102 103 104 0
102 103 -104 0
102 -103 104 0
103 -444 -458 0
-103 444 0
-103 458 0
104 105 -106 0
104 -105 106 0
-104 -105 -106 0
-104 105 106 0
105 -443 -459 0
-105 443 0
-105 459 0
106 -442 -460 0
-106 442 0
-106 460 0
-107 62 72 0
-107 72 73 0
-107 62 73 0
107 -72 -73 0
107 -62 -72 0
107 -62 -73 0
108 109 -110 0
108 -109 110 0
-108 -109 -110 0
-108 109 110 0
-109 82 107 0
-109 82 84 0
-109 84 107 0
109 -84 -107 0
109 -82 -107 0
109 -82 -84 0
110 -111 138 0
110 111 -138 0
-110 111 138 0
-110 -111 -138 0
111 -112 121 0
111 112 -121 0
-111 112 121 0
-111 -112 -121 0
-112 -113 -118 0
-112 113 118 0
112 113 -118 0
112 -113 118 0
-113 114 115 0
-113 -114 -115 0
113 -114 115 0
113 114 -115 0
114 -445 -446 -456 -457 0
-114 457 0
-114 445 0
-114 456 0
-114 446 0
-115 -116 -117 0
-115 116 117 0
115 116 -117 0
115 -116 117 0
-116 459 106 0
-116 443 103 0
-116 103 106 0
-116 459 103 0
-116 443 106 0
116 -103 -106 0
116 -443 -459 -106 0
116 -443 -459 -103 0
117 -450 -453 0
-117 450 0
-117 453 0
118 -119 120 0
118 119 -120 0
-118 119 120 0
-118 -119 -120 0
-119 97 102 0
-119 101 97 0
-119 101 102 0
119 -101 -97 0
119 -97 -102 0
119 -101 -102 0
-120 454 90 0
-120 448 87 0
-120 87 90 0
-120 454 87 0
-120 448 90 0
120 -87 -90 0
120 -448 -454 -90 0
120 -448 -454 -87 0
-121 -122 -123 0
-121 122 123 0
121 122 -123 0
121 -122 123 0
-122 86 92 0
-122 92 93 0
-122 86 93 0
122 -86 -93 0
122 -92 -93 0
122 -86 -92 0
123 124 -127 0
123 -124 127 0
-123 -124 -127 0
-123 124 127 0
124 125 -126 0
124 -125 126 0
-124 -125 -126 0
-124 125 126 0
125 -449 -454 0
-125 449 0
-125 454 0
126 -448 -455 0
-126 448 0
-126 455 0
127 -128 133 0
127 128 -133 0
-127 128 133 0
-127 -128 -133 0
-128 -129 -130 0
-128 129 130 0
128 129 -130 0
128 -129 130 0
129 -447 -456 0
-129 447 0
-129 456 0
130 131 -132 0
130 -131 132 0
-130 -131 -132 0
-130 131 132 0
131 -446 -457 0
-131 446 0
-131 457 0
132 -445 -458 0
-132 445 0
-132 458 0
-133 -134 -135 0
-133 134 135 0
133 134 -135 0
133 -134 135 0
134 -444 -459 0
-134 444 0
-134 459 0
135 136 -137 0
135 -136 137 0
-135 -136 -137 0
-135 136 137 0
136 -443 -460 0
-136 443 0
-136 460 0
137 -442 -461 0
-137 442 0
-137 461 0
-138 85 95 0
-138 95 96 0
-138 85 96 0
138 -95 -96 0
138 -85 -95 0
138 -85 -96 0
139 140 -141 0
139 -140 141 0
-139 -140 -141 0
-139 140 141 0
-140 109 138 0
-140 109 111 0
-140 111 138 0
140 -111 -138 0
140 -109 -138 0
140 -109 -111 0
141 -142 173 0
141 142 -173 0
-141 142 173 0
-141 -142 -173 0
142 -143 152 0
142 143 -152 0
-142 143 152 0
-142 -143 -152 0
-143 -144 -149 0
-143 144 149 0
143 144 -149 0
143 -144 149 0
-144 145 146 0
-144 -145 -146 0
144 -145 146 0
144 145 -146 0
145 -448 -449 -454 -455 0
-145 455 0
-145 448 0
-145 454 0
-145 449 0
-146 147 148 0
-146 -147 -148 0
146 -147 148 0
146 147 -148 0
-147 129 132 0
-147 131 132 0
-147 129 131 0
147 -129 -131 0
147 -131 -132 0
147 -129 -132 0
-148 134 137 0
-148 136 137 0
-148 134 136 0
148 -134 -136 0
148 -136 -137 0
148 -134 -137 0
149 -150 151 0
149 150 -151 0
-149 150 151 0
-149 -150 -151 0
-150 124 128 0
-150 128 133 0
-150 124 133 0
150 -128 -133 0
150 -124 -128 0
150 -124 -133 0
-151 116 117 0
-151 114 117 0
-151 114 116 0
151 -114 -117 0
151 -114 -116 0
151 -116 -117 0
-152 -153 -154 0
-152 153 154 0
152 153 -154 0
152 -153 154 0
-153 113 119 0
-153 119 120 0
-153 113 120 0
153 -113 -120 0
153 -119 -120 0
153 -113 -119 0
154 155 -162 0
154 -155 162 0
-154 -155 -162 0
-154 155 162 0
-155 -156 -159 0
-155 156 159 0
155 156 -159 0
155 -156 159 0
156 157 -158 0
156 -157 158 0
-156 -157 -158 0
-156 157 158 0
157 -443 -461 0
-157 443 0
-157 461 0
158 -442 -462 0
-158 442 0
-158 462 0
159 160 -161 0
159 -160 161 0
-159 -160 -161 0
-159 160 161 0
160 -451 -453 0
-160 451 0
-160 453 0
161 -450 -454 0
-161 450 0
-161 454 0
162 -163 168 0
162 163 -168 0
-162 163 168 0
-162 -163 -168 0
-163 -164 -165 0
-163 164 165 0
163 164 -165 0
163 -164 165 0
164 -449 -455 0
-164 449 0
-164 455 0
165 166 -167 0
165 -166 167 0
-165 -166 -167 0
-165 166 167 0
166 -448 -456 0
-166 448 0
-166 456 0
167 -447 -457 0
-167 447 0
-167 457 0
-168 -169 -170 0
-168 169 170 0
168 169 -170 0
168 -169 170 0
169 -446 -458 0
-169 446 0
-169 458 0
170 171 -172 0
170 -171 172 0
-170 -171 -172 0
-170 171 172 0
171 -445 -459 0
-171 445 0
-171 459 0
172 -444 -460 0
-172 444 0
-172 460 0
-173 112 122 0
-173 122 123 0
-173 112 123 0
173 -122 -123 0
173 -112 -122 0
173 -112 -123 0
174 175 -176 0
174 -175 176 0
-174 -175 -176 0
-174 175 176 0
-175 140 173 0
-175 140 142 0
-175 142 173 0
175 -142 -173 0
175 -140 -173 0
175 -140 -142 0
176 -177 212 0
176 177 -212 0
-176 177 212 0
-176 -177 -212 0
177 -178 187 0
177 178 -187 0
-177 178 187 0
-177 -178 -187 0
-178 -179 -184 0
-178 179 184 0
178 179 -184 0
178 -179 184 0
-179 -180 -181 0
-179 180 181 0
179 180 -181 0
179 -180 181 0
-180 454 160 0
-180 450 156 0
-180 156 160 0
-180 454 156 0
-180 450 160 0
180 -156 -160 0
180 -450 -454 -160 0
180 -450 -454 -156 0
181 -182 183 0
181 182 -183 0
-181 182 183 0
-181 -182 -183 0
-182 456 167 0
-182 448 164 0
-182 164 167 0
-182 456 164 0
-182 448 167 0
182 -164 -167 0
182 -448 -456 -167 0
182 -448 -456 -164 0
-183 169 172 0
-183 171 172 0
-183 169 171 0
183 -169 -171 0
183 -171 -172 0
183 -169 -172 0
184 -185 186 0
184 185 -186 0
-184 185 186 0
-184 -185 -186 0
-185 155 163 0
-185 163 168 0
-185 155 168 0
185 -155 -168 0
185 -163 -168 0
185 -155 -163 0
-186 145 147 0
-186 147 148 0
-186 145 148 0
186 -147 -148 0
186 -145 -147 0
186 -145 -148 0
-187 -188 -189 0
-187 188 189 0
187 188 -189 0
187 -188 189 0
-188 144 150 0
-188 150 151 0
-188 144 151 0
188 -144 -151 0
188 -150 -151 0
188 -144 -150 0
189 190 -201 0
189 -190 201 0
-189 -190 -201 0
-189 190 201 0
-190 -191 -194 0
-190 191 194 0
190 191 -194 0
190 -191 194 0
191 192 -193 0
191 -192 193 0
-191 -192 -193 0
-191 192 193 0
192 -446 -459 0
-192 446 0
-192 459 0
193 -445 -460 0
-193 445 0
-193 460 0
194 -195 196 0
194 195 -196 0
-194 195 196 0
-194 -195 -196 0
195 -442 -443 -461 -462 0
-195 462 0
-195 442 0
-195 461 0
-195 443 0
-196 -197 -198 0
-196 197 198 0
196 197 -198 0
196 -197 198 0
197 -444 -461 0
-197 444 0
-197 461 0
198 199 -200 0
198 -199 200 0
-198 -199 -200 0
-198 199 200 0
199 -443 -462 0
-199 443 0
-199 462 0
200 -442 -463 0
-200 442 0
-200 463 0
201 -202 207 0
201 202 -207 0
-201 202 207 0
-201 -202 -207 0
-202 -203 -204 0
-202 203 204 0
202 203 -204 0
202 -203 204 0
203 -452 -453 0
-203 452 0
-203 453 0
204 205 -206 0
204 -205 206 0
-204 -205 -206 0
-204 205 206 0
205 -451 -454 0
-205 451 0
-205 454 0
206 -450 -455 0
-206 450 0
-206 455 0
-207 -208 -209 0
-207 208 209 0
207 208 -209 0
207 -208 209 0
208 -449 -456 0
-208 449 0
-208 456 0
209 210 -211 0
209 -210 211 0
-209 -210 -211 0
-209 210 211 0
210 -448 -457 0
-210 448 0
-210 457 0
211 -447 -458 0
-211 447 0
-211 458 0
-212 143 153 0
-212 153 154 0
-212 143 154 0
212 -153 -154 0
212 -143 -153 0
212 -143 -154 0
213 -214 215 0
213 214 -215 0
-213 214 215 0
-213 -214 -215 0
-214 175 212 0
-214 175 177 0
-214 177 212 0
214 -177 -212 0
214 -175 -212 0
214 -175 -177 0
-215 216 251 0
-215 -216 -251 0
215 -216 251 0
215 216 -251 0
216 -217 226 0
216 217 -226 0
-216 217 226 0
-216 -217 -226 0
-217 -218 -223 0
-217 218 223 0
217 218 -223 0
217 -218 223 0
-218 -219 -220 0
-218 219 220 0
218 219 -220 0
218 -219 220 0
-219 191 196 0
-219 195 191 0
-219 195 196 0
219 -195 -191 0
219 -191 -196 0
219 -195 -196 0
220 -221 222 0
220 221 -222 0
-220 221 222 0
-220 -221 -222 0
-221 203 206 0
-221 205 206 0
-221 203 205 0
221 -203 -205 0
221 -205 -206 0
221 -203 -206 0
-222 457 211 0
-222 448 208 0
-222 208 211 0
-222 457 208 0
-222 448 211 0
222 -208 -211 0
222 -448 -457 -211 0
222 -448 -457 -208 0
223 -224 225 0
223 224 -225 0
-223 224 225 0
-223 -224 -225 0
-224 190 202 0
-224 202 207 0
-224 190 207 0
224 -190 -207 0
224 -202 -207 0
224 -190 -202 0
-225 180 182 0
-225 182 183 0
-225 180 183 0
225 -180 -183 0
225 -182 -183 0
225 -180 -182 0
-226 -227 -228 0
-226 227 228 0
226 227 -228 0
226 -227 228 0
-227 179 185 0
-227 185 186 0
-227 179 186 0
227 -179 -186 0
227 -185 -186 0
227 -179 -185 0
228 -229 240 0
228 229 -240 0
-228 229 240 0
-228 -229 -240 0
-229 -230 -233 0
-229 230 233 0
229 230 -233 0
229 -230 233 0
230 231 -232 0
230 -231 232 0
-230 -231 -232 0
-230 231 232 0
231 -447 -459 0
-231 447 0
-231 459 0
232 -446 -460 0
-232 446 0
-232 460 0
233 -234 235 0
233 234 -235 0
-233 234 235 0
-233 -234 -235 0
234 -445 -446 -459 -460 0
-234 460 0
-234 445 0
-234 459 0
-234 446 0
-235 -236 -237 0
-235 236 237 0
235 236 -237 0
235 -236 237 0
236 -445 -461 0
-236 445 0
-236 461 0
237 238 -239 0
237 -238 239 0
-237 -238 -239 0
-237 238 239 0
238 -444 -462 0
-238 444 0
-238 462 0
239 -443 -463 0
-239 443 0
-239 463 0
-240 241 246 0
-240 -241 -246 0
240 -241 246 0
240 241 -246 0
241 242 -243 0
241 -242 243 0
-241 -242 -243 0
-241 242 243 0
-242 197 200 0
-242 199 200 0
-242 197 199 0
242 -197 -199 0
242 -199 -200 0
242 -197 -200 0
243 244 -245 0
243 -244 245 0
-243 -244 -245 0
-243 244 245 0
244 -452 -454 0
-244 452 0
-244 454 0
245 -451 -455 0
-245 451 0
-245 455 0
-246 -247 -248 0
-246 247 248 0
246 247 -248 0
246 -247 248 0
247 -450 -456 0
-247 450 0
-247 456 0
248 249 -250 0
248 -249 250 0
-248 -249 -250 0
-248 249 250 0
249 -449 -457 0
-249 449 0
-249 457 0
250 -448 -458 0
-250 448 0
-250 458 0
-251 178 188 0
-251 188 189 0
-251 178 189 0
251 -188 -189 0
251 -178 -188 0
251 -178 -189 0
252 253 -254 0
252 -253 254 0
-252 -253 -254 0
-252 253 254 0
-253 214 251 0
-253 214 216 0
-253 216 251 0
253 -216 -251 0
253 -214 -251 0
253 -214 -216 0
254 -255 288 0
254 255 -288 0
-254 255 288 0
-254 -255 -288 0
255 -256 265 0
255 256 -265 0
-255 256 265 0
-255 -256 -265 0
-256 -257 -262 0
-256 257 262 0
256 257 -262 0
256 -257 262 0
-257 -258 -259 0
-257 258 259 0
257 258 -259 0
257 -258 259 0
-258 230 235 0
-258 234 230 0
-258 234 235 0
258 -234 -230 0
258 -230 -235 0
258 -234 -235 0
259 -260 261 0
259 260 -261 0
-259 260 261 0
-259 -260 -261 0
-260 244 245 0
-260 242 244 0
-260 242 245 0
260 -242 -244 0
260 -244 -245 0
260 -242 -245 0
-261 247 250 0
-261 249 250 0
-261 247 249 0
261 -247 -249 0
261 -249 -250 0
261 -247 -250 0
262 -263 264 0
262 263 -264 0
-262 263 264 0
-262 -263 -264 0
-263 229 246 0
-263 229 241 0
-263 241 246 0
263 -241 -246 0
263 -229 -246 0
263 -229 -241 0
-264 219 221 0
-264 221 222 0
-264 219 222 0
264 -219 -222 0
264 -221 -222 0
264 -219 -221 0
-265 -266 -267 0
-265 266 267 0
265 266 -267 0
265 -266 267 0
-266 218 224 0
-266 224 225 0
-266 218 225 0
266 -218 -225 0
266 -224 -225 0
266 -218 -224 0
267 268 -277 0
267 -268 277 0
-267 -268 -277 0
-267 268 277 0
-268 -269 -274 0
-268 269 274 0
268 269 -274 0
268 -269 274 0
-269 -270 -271 0
-269 270 271 0
269 270 -271 0
269 -270 271 0
270 -446 -461 0
-270 446 0
-270 461 0
271 272 -273 0
271 -272 273 0
-271 -272 -273 0
-271 272 273 0
272 -445 -462 0
-272 445 0
-272 462 0
273 -444 -463 0
-273 444 0
-273 463 0
274 -275 276 0
274 275 -276 0
-274 275 276 0
-274 -275 -276 0
275 -446 -447 -459 -460 0
-275 460 0
-275 446 0
-275 459 0
-275 447 0
-276 236 239 0
-276 238 239 0
-276 236 238 0
276 -236 -238 0
276 -238 -239 0
276 -236 -239 0
277 -278 283 0
277 278 -283 0
-277 278 283 0
-277 -278 -283 0
-278 -279 -280 0
-278 279 280 0
278 279 -280 0
278 -279 280 0
279 -452 -455 0
-279 452 0
-279 455 0
280 281 -282 0
280 -281 282 0
-280 -281 -282 0
-280 281 282 0
281 -451 -456 0
-281 451 0
-281 456 0
282 -450 -457 0
-282 450 0
-282 457 0
-283 -284 -285 0
-283 284 285 0
283 284 -285 0
283 -284 285 0
284 -449 -458 0
-284 449 0
-284 458 0
285 286 -287 0
285 -286 287 0
-285 -286 -287 0
-285 286 287 0
286 -448 -459 0
-286 448 0
-286 459 0
287 -447 -460 0
-287 447 0
-287 460 0
-288 217 227 0
-288 227 228 0
-288 217 228 0
288 -227 -228 0
288 -217 -227 0
288 -217 -228 0
289 290 -291 0
289 -290 291 0
-289 -290 -291 0
-289 290 291 0
-290 253 288 0
-290 253 255 0
-290 255 288 0
290 -255 -288 0
290 -253 -288 0
290 -253 -255 0
291 -292 321 0
291 292 -321 0
-291 292 321 0
-291 -292 -321 0
292 -293 302 0
292 293 -302 0
-292 293 302 0
-292 -293 -302 0
-293 -294 -299 0
-293 294 299 0
293 294 -299 0
293 -294 299 0
-294 -295 -296 0
-294 295 296 0
294 295 -296 0
294 -295 296 0
-295 275 269 0
-295 269 276 0
-295 275 276 0
295 -269 -276 0
295 -275 -269 0
295 -275 -276 0
296 -297 298 0
296 297 -298 0
-296 297 298 0
-296 -297 -298 0
-297 456 282 0
-297 451 279 0
-297 279 282 0
-297 456 279 0
-297 451 282 0
297 -279 -282 0
297 -451 -456 -282 0
297 -451 -456 -279 0
-298 459 287 0
-298 448 284 0
-298 284 287 0
-298 459 284 0
-298 448 287 0
298 -284 -287 0
298 -448 -459 -287 0
298 -448 -459 -284 0
299 -300 301 0
299 300 -301 0
-299 300 301 0
-299 -300 -301 0
-300 268 278 0
-300 278 283 0
-300 268 283 0
300 -268 -283 0
300 -278 -283 0
300 -268 -278 0
-301 258 260 0
-301 260 261 0
-301 258 261 0
301 -258 -261 0
301 -260 -261 0
301 -258 -260 0
-302 -303 -304 0
-302 303 304 0
302 303 -304 0
302 -303 304 0
-303 257 263 0
-303 263 264 0
-303 257 264 0
303 -257 -264 0
303 -263 -264 0
303 -257 -263 0
304 305 -310 0
304 -305 310 0
-304 -305 -310 0
-304 305 310 0
-305 -306 -307 0
-305 306 307 0
305 306 -307 0
305 -306 307 0
-306 462 273 0
-306 445 270 0
-306 270 273 0
-306 462 270 0
-306 445 273 0
306 -270 -273 0
306 -445 -462 -273 0
306 -445 -462 -270 0
307 308 -309 0
307 -308 309 0
-307 -308 -309 0
-307 308 309 0
308 -452 -456 0
-308 452 0
-308 456 0
309 -451 -457 0
-309 451 0
-309 457 0
310 -311 316 0
310 311 -316 0
-310 311 316 0
-310 -311 -316 0
-311 -312 -313 0
-311 312 313 0
311 312 -313 0
311 -312 313 0
312 -450 -458 0
-312 450 0
-312 458 0
313 314 -315 0
313 -314 315 0
-313 -314 -315 0
-313 314 315 0
314 -449 -459 0
-314 449 0
-314 459 0
315 -448 -460 0
-315 448 0
-315 460 0
-316 -317 -318 0
-316 317 318 0
316 317 -318 0
316 -317 318 0
317 -447 -461 0
-317 447 0
-317 461 0
318 319 -320 0
318 -319 320 0
-318 -319 -320 0
-318 319 320 0
319 -446 -462 0
-319 446 0
-319 462 0
320 -445 -463 0
-320 445 0
-320 463 0
-321 256 266 0
-321 266 267 0
-321 256 267 0
321 -266 -267 0
321 -256 -266 0
321 -256 -267 0
322 323 -324 0
322 -323 324 0
-322 -323 -324 0
-322 323 324 0
-323 290 321 0
-323 290 292 0
-323 292 321 0
323 -292 -321 0
323 -290 -321 0
323 -290 -292 0
324 -325 350 0
324 325 -350 0
-324 325 350 0
-324 -325 -350 0
325 -326 335 0
325 326 -335 0
-325 326 335 0
-325 -326 -335 0
-326 -327 -332 0
-326 327 332 0
326 327 -332 0
326 -327 332 0
-327 328 329 0
-327 -328 -329 0
327 -328 329 0
327 328 -329 0
-328 459 315 0
-328 449 312 0
-328 312 315 0
-328 459 312 0
-328 449 315 0
328 -312 -315 0
328 -449 -459 -315 0
328 -449 -459 -312 0
-329 -330 -331 0
-329 330 331 0
329 330 -331 0
329 -330 331 0
-330 317 320 0
-330 319 320 0
-330 317 319 0
330 -317 -319 0
330 -319 -320 0
330 -317 -320 0
331 -452 -457 0
-331 452 0
-331 457 0
332 -333 334 0
332 333 -334 0
-332 333 334 0
-332 -333 -334 0
-333 305 311 0
-333 311 316 0
-333 305 316 0
333 -305 -316 0
333 -311 -316 0
333 -305 -311 0
-334 295 297 0
-334 297 298 0
-334 295 298 0
334 -295 -298 0
334 -297 -298 0
334 -295 -297 0
-335 -336 -337 0
-335 336 337 0
335 336 -337 0
335 -336 337 0
-336 294 300 0
-336 300 301 0
-336 294 301 0
336 -294 -301 0
336 -300 -301 0
336 -294 -300 0
337 -338 343 0
337 338 -343 0
-337 338 343 0
-337 -338 -343 0
-338 -339 -340 0
-338 339 340 0
338 339 -340 0
338 -339 340 0
339 -451 -458 0
-339 451 0
-339 458 0
340 341 -342 0
340 -341 342 0
-340 -341 -342 0
-340 341 342 0
341 -450 -459 0
-341 450 0
-341 459 0
342 -449 -460 0
-342 449 0
-342 460 0
-343 344 349 0
-343 -344 -349 0
343 -344 349 0
343 344 -349 0
-344 -345 -346 0
-344 345 346 0
344 345 -346 0
344 -345 346 0
345 -448 -461 0
-345 448 0
-345 461 0
346 347 -348 0
346 -347 348 0
-346 -347 -348 0
-346 347 348 0
347 -447 -462 0
-347 447 0
-347 462 0
348 -446 -463 0
-348 446 0
-348 463 0
-349 308 309 0
-349 306 308 0
-349 306 309 0
349 -306 -308 0
349 -308 -309 0
349 -306 -309 0
-350 293 303 0
-350 303 304 0
-350 293 304 0
350 -303 -304 0
350 -293 -303 0
350 -293 -304 0
351 -352 353 0
351 352 -353 0
-351 352 353 0
-351 -352 -353 0
-352 323 350 0
-352 323 325 0
-352 325 350 0
352 -325 -350 0
352 -323 -350 0
352 -323 -325 0
-353 354 375 0
-353 -354 -375 0
353 -354 375 0
353 354 -375 0
354 -355 364 0
354 355 -364 0
-354 355 364 0
-354 -355 -364 0
-355 -356 -361 0
-355 356 361 0
355 356 -361 0
355 -356 361 0
-356 -357 -358 0
-356 357 358 0
356 357 -358 0
356 -357 358 0
357 -452 -458 0
-357 452 0
-357 458 0
358 359 -360 0
358 -359 360 0
-358 -359 -360 0
-358 359 360 0
359 -451 -459 0
-359 451 0
-359 459 0
360 -450 -460 0
-360 450 0
-360 460 0
361 -362 363 0
361 362 -363 0
-361 362 363 0
-361 -362 -363 0
-362 338 344 0
-362 344 349 0
-362 338 349 0
362 -338 -349 0
362 -344 -349 0
362 -338 -344 0
-363 328 330 0
-363 330 331 0
-363 328 331 0
363 -330 -331 0
363 -328 -330 0
363 -328 -331 0
-364 -365 -366 0
-364 365 366 0
364 365 -366 0
364 -365 366 0
-365 327 333 0
-365 333 334 0
-365 327 334 0
365 -327 -334 0
365 -333 -334 0
365 -327 -333 0
366 -367 372 0
366 367 -372 0
-366 367 372 0
-366 -367 -372 0
-367 -368 -369 0
-367 368 369 0
367 368 -369 0
367 -368 369 0
368 -449 -461 0
-368 449 0
-368 461 0
369 370 -371 0
369 -370 371 0
-369 -370 -371 0
-369 370 371 0
370 -448 -462 0
-370 448 0
-370 462 0
371 -447 -463 0
-371 447 0
-371 463 0
-372 373 374 0
-372 -373 -374 0
372 -373 374 0
372 373 -374 0
-373 339 342 0
-373 341 342 0
-373 339 341 0
373 -339 -341 0
373 -341 -342 0
373 -339 -342 0
-374 345 348 0
-374 347 348 0
-374 345 347 0
374 -345 -347 0
374 -347 -348 0
374 -345 -348 0
-375 326 336 0
-375 336 337 0
-375 326 337 0
375 -336 -337 0
375 -326 -336 0
375 -326 -337 0
376 -377 378 0
376 377 -378 0
-376 377 378 0
-376 -377 -378 0
-377 352 375 0
-377 352 354 0
-377 354 375 0
377 -354 -375 0
377 -352 -375 0
377 -352 -354 0
-378 379 396 0
-378 -379 -396 0
378 -379 396 0
378 379 -396 0
379 -380 389 0
379 380 -389 0
-379 380 389 0
-379 -380 -389 0
-380 -381 -386 0
-380 381 386 0
380 381 -386 0
380 -381 386 0
-381 -382 -383 0
-381 382 383 0
381 382 -383 0
381 -382 383 0
382 -450 -461 0
-382 450 0
-382 461 0
383 384 -385 0
383 -384 385 0
-383 -384 -385 0
-383 384 385 0
384 -449 -462 0
-384 449 0
-384 462 0
385 -448 -463 0
-385 448 0
-385 463 0
386 -387 388 0
386 387 -388 0
-386 387 388 0
-386 -387 -388 0
-387 367 373 0
-387 373 374 0
-387 367 374 0
387 -367 -374 0
387 -373 -374 0
387 -367 -373 0
-388 357 360 0
-388 359 360 0
-388 357 359 0
388 -357 -359 0
388 -359 -360 0
388 -357 -360 0
-389 -390 -391 0
-389 390 391 0
389 390 -391 0
389 -390 391 0
-390 356 362 0
-390 362 363 0
-390 356 363 0
390 -356 -363 0
390 -362 -363 0
390 -356 -362 0
391 392 -393 0
391 -392 393 0
-391 -392 -393 0
-391 392 393 0
-392 368 371 0
-392 370 371 0
-392 368 370 0
392 -368 -370 0
392 -370 -371 0
392 -368 -371 0
393 394 -395 0
393 -394 395 0
-393 -394 -395 0
-393 394 395 0
394 -452 -459 0
-394 452 0
-394 459 0
395 -451 -460 0
-395 451 0
-395 460 0
-396 355 365 0
-396 365 366 0
-396 355 366 0
396 -365 -366 0
396 -355 -365 0
396 -355 -366 0
397 -398 399 0
397 398 -399 0
-397 398 399 0
-397 -398 -399 0
-398 377 396 0
-398 377 379 0
-398 379 396 0
398 -379 -396 0
398 -377 -396 0
398 -377 -379 0
-399 400 413 0
-399 -400 -413 0
399 -400 413 0
399 400 -413 0
400 -401 406 0
400 401 -406 0
-400 401 406 0
-400 -401 -406 0
-401 -402 -403 0
-401 402 403 0
401 402 -403 0
401 -402 403 0
-402 394 395 0
-402 392 394 0
-402 392 395 0
402 -392 -394 0
402 -394 -395 0
402 -392 -395 0
403 404 -405 0
403 -404 405 0
-403 -404 -405 0
-403 404 405 0
-404 382 385 0
-404 384 385 0
-404 382 384 0
404 -382 -384 0
404 -384 -385 0
404 -382 -385 0
405 -452 -460 0
-405 452 0
-405 460 0
-406 -407 -408 0
-406 407 408 0
406 407 -408 0
406 -407 408 0
-407 381 387 0
-407 387 388 0
-407 381 388 0
407 -381 -388 0
407 -387 -388 0
407 -381 -387 0
408 409 -410 0
408 -409 410 0
-408 -409 -410 0
-408 409 410 0
409 -451 -461 0
-409 451 0
-409 461 0
410 411 -412 0
410 -411 412 0
-410 -411 -412 0
-410 411 412 0
411 -450 -462 0
-411 450 0
-411 462 0
412 -449 -463 0
-412 449 0
-412 463 0
-413 380 390 0
-413 390 391 0
-413 380 391 0
413 -390 -391 0
413 -380 -390 0
413 -380 -391 0
414 -415 416 0
414 415 -416 0
-414 415 416 0
-414 -415 -416 0
-415 398 413 0
-415 398 400 0
-415 400 413 0
415 -400 -413 0
415 -398 -413 0
415 -398 -400 0
-416 417 426 0
-416 -417 -426 0
416 -417 426 0
416 417 -426 0
417 -418 423 0
417 418 -423 0
-417 418 423 0
-417 -418 -423 0
-418 -419 -420 0
-418 419 420 0
418 419 -420 0
418 -419 420 0
419 -452 -461 0
-419 452 0
-419 461 0
420 421 -422 0
420 -421 422 0
-420 -421 -422 0
-420 421 422 0
421 -451 -462 0
-421 451 0
-421 462 0
422 -450 -463 0
-422 450 0
-422 463 0
-423 424 425 0
-423 -424 -425 0
423 -424 425 0
423 424 -425 0
-424 402 404 0
-424 404 405 0
-424 402 405 0
424 -404 -405 0
424 -402 -404 0
424 -402 -405 0
-425 409 412 0
-425 411 412 0
-425 409 411 0
425 -409 -411 0
425 -411 -412 0
425 -409 -412 0
-426 401 407 0
-426 407 408 0
-426 401 408 0
426 -407 -408 0
426 -401 -407 0
426 -401 -408 0
427 -428 429 0
427 428 -429 0
-427 428 429 0
-427 -428 -429 0
-428 415 426 0
-428 415 417 0
-428 417 426 0
428 -417 -426 0
428 -415 -426 0
428 -415 -417 0
-429 430 435 0
-429 -430 -435 0
429 -430 435 0
429 430 -435 0
430 431 -432 0
430 -431 432 0
-430 -431 -432 0
-430 431 432 0
-431 419 422 0
-431 421 422 0
-431 419 421 0
431 -419 -421 0
431 -421 -422 0
431 -419 -422 0
432 433 -434 0
432 -433 434 0
-432 -433 -434 0
-432 433 434 0
433 -452 -462 0
-433 452 0
-433 462 0
434 -451 -463 0
-434 451 0
-434 463 0
-435 418 424 0
-435 424 425 0
-435 418 425 0
435 -418 -425 0
435 -424 -425 0
435 -418 -424 0
436 -437 438 0
436 437 -438 0
-436 437 438 0
-436 -437 -438 0
-437 428 435 0
-437 428 430 0
-437 430 435 0
437 -430 -435 0
437 -428 -435 0
437 -428 -430 0
-438 -439 -440 0
-438 439 440 0
438 439 -440 0
438 -439 440 0
-439 433 434 0
-439 431 433 0
-439 431 434 0
439 -431 -433 0
439 -433 -434 0
439 -431 -434 0
440 -452 -463 0
-440 452 0
-440 463 0
-441 437 439 0
-441 439 440 0
-441 437 440 0
441 -439 -440 0
441 -437 -439 0
441 -437 -440 0
-464 0
2 0
3 0
6 0
13 0
24 0
39 0
58 0
81 0
108 0
139 0
174 0
213 0
252 0
289 0
322 0
351 0
376 0
397 0
414 0
427 0
436 0
441 0

