c Result of efficient AIG-to-CNF conversion using package CNF
p cnf 308 1235
2 -290 -299 0
-2 290 0
-2 299 0
3 4 -5 0
3 -4 5 0
-3 -4 -5 0
-3 4 5 0
4 -291 -299 0
-4 291 0
-4 299 0
5 -290 -300 0
-5 290 0
-5 300 0
6 -7 8 0
6 7 -8 0
-6 7 8 0
-6 -7 -8 0
7 -290 -291 -299 -300 0
-7 300 0
-7 290 0
-7 299 0
-7 291 0
-8 -9 -12 0
-8 9 12 0
8 9 -12 0
8 -9 12 0
-9 -10 -11 0
-9 10 11 0
9 10 -11 0
9 -10 11 0
10 -291 -300 0
-10 291 0
-10 300 0
11 -290 -301 0
-11 290 0
-11 301 0
12 -292 -299 0
-12 292 0
-12 299 0
13 -14 15 0
13 14 -15 0
-13 14 15 0
-13 -14 -15 0
-14 9 12 0
-14 7 12 0
-14 7 9 0
14 -7 -12 0
14 -7 -9 0
14 -9 -12 0
-15 -16 -23 0
-15 16 23 0
15 16 -23 0
15 -16 23 0
-16 -17 -20 0
-16 17 20 0
16 17 -20 0
16 -17 20 0
-17 -18 -19 0
-17 18 19 0
17 18 -19 0
17 -18 19 0
18 -291 -301 0
-18 291 0
-18 301 0
19 -290 -302 0
-19 290 0
-19 302 0
20 21 -22 0
20 -21 22 0
-20 -21 -22 0
-20 21 22 0
21 -293 -299 0
-21 293 0
-21 299 0
22 -292 -300 0
-22 292 0
-22 300 0
23 -290 -291 -300 -301 0
-23 301 0
-23 290 0
-23 300 0
-23 291 0
24 -25 26 0
24 25 -26 0
-24 25 26 0
-24 -25 -26 0
-25 14 16 0
-25 16 23 0
-25 14 23 0
25 -16 -23 0
25 -14 -16 0
25 -14 -23 0
-26 27 38 0
-26 -27 -38 0
26 -27 38 0
26 27 -38 0
-27 -28 -33 0
-27 28 33 0
27 28 -33 0
27 -28 33 0
-28 29 30 0
-28 -29 -30 0
28 -29 30 0
28 29 -30 0
29 -294 -299 0
-29 294 0
-29 299 0
-30 -31 -32 0
-30 31 32 0
30 31 -32 0
30 -31 32 0
31 -293 -300 0
-31 293 0
-31 300 0
32 -292 -301 0
-32 292 0
-32 301 0
33 34 -35 0
33 -34 35 0
-33 -34 -35 0
-33 34 35 0
34 -290 -291 -301 -302 0
-34 302 0
-34 290 0
-34 301 0
-34 291 0
35 36 -37 0
35 -36 37 0
-35 -36 -37 0
-35 36 37 0
36 -291 -302 0
-36 291 0
-36 302 0
37 -290 -303 0
-37 290 0
-37 303 0
-38 299 22 0
-38 293 17 0
-38 299 17 0
-38 17 22 0
-38 293 22 0
38 -17 -22 0
38 -293 -299 -22 0
38 -293 -299 -17 0
39 40 -41 0
39 -40 41 0
-39 -40 -41 0
-39 40 41 0
-40 25 27 0
-40 27 38 0
-40 25 38 0
40 -25 -38 0
40 -27 -38 0
40 -25 -27 0
41 -42 57 0
41 42 -57 0
-41 42 57 0
-41 -42 -57 0
42 -43 52 0
42 43 -52 0
-42 43 52 0
-42 -43 -52 0
-43 -44 -49 0
-43 44 49 0
43 44 -49 0
43 -44 49 0
-44 -45 -46 0
-44 45 46 0
44 45 -46 0
44 -45 46 0
45 -292 -302 0
-45 292 0
-45 302 0
46 47 -48 0
46 -47 48 0
-46 -47 -48 0
-46 47 48 0
47 -291 -303 0
-47 291 0
-47 303 0
48 -290 -304 0
-48 290 0
-48 304 0
49 50 -51 0
49 -50 51 0
-49 -50 -51 0
-49 50 51 0
50 -290 -291 -302 -303 0
-50 303 0
-50 290 0
-50 302 0
-50 291 0
51 -295 -299 0
-51 295 0
-51 299 0
-52 -53 -54 0
-52 53 54 0
52 53 -54 0
52 -53 54 0
-53 300 32 0
-53 293 29 0
-53 29 32 0
-53 300 29 0
-53 293 32 0
53 -29 -32 0
53 -293 -300 -32 0
53 -293 -300 -29 0
54 55 -56 0
54 -55 56 0
-54 -55 -56 0
-54 55 56 0
55 -294 -300 0
-55 294 0
-55 300 0
56 -293 -301 0
-56 293 0
-56 301 0
-57 34 35 0
-57 28 34 0
-57 28 35 0
57 -28 -34 0
57 -34 -35 0
57 -28 -35 0
58 -59 60 0
58 59 -60 0
-58 59 60 0
-58 -59 -60 0
-59 40 57 0
-59 40 42 0
-59 42 57 0
59 -42 -57 0
59 -40 -57 0
59 -40 -42 0
-60 61 80 0
-60 -61 -80 0
60 -61 80 0
60 61 -80 0
61 -62 71 0
61 62 -71 0
-61 62 71 0
-61 -62 -71 0
-62 -63 -68 0
-62 63 68 0
62 63 -68 0
62 -63 68 0
-63 -64 -65 0
-63 64 65 0
63 64 -65 0
63 -64 65 0
64 -294 -301 0
-64 294 0
-64 301 0
65 66 -67 0
65 -66 67 0
-65 -66 -67 0
-65 66 67 0
66 -293 -302 0
-66 293 0
-66 302 0
67 -292 -303 0
-67 292 0
-67 303 0
68 -69 70 0
68 69 -70 0
-68 69 70 0
-68 -69 -70 0
69 -293 -294 -300 -301 0
-69 301 0
-69 293 0
-69 300 0
-69 294 0
-70 45 48 0
-70 47 48 0
-70 45 47 0
70 -45 -47 0
70 -47 -48 0
70 -45 -48 0
-71 -72 -73 0
-71 72 73 0
71 72 -73 0
71 -72 73 0
-72 44 51 0
-72 50 51 0
-72 50 44 0
72 -50 -51 0
72 -50 -44 0
72 -44 -51 0
73 74 -77 0
73 -74 77 0
-73 -74 -77 0
-73 74 77 0
74 75 -76 0
74 -75 76 0
-74 -75 -76 0
-74 75 76 0
75 -291 -304 0
-75 291 0
-75 304 0
76 -290 -305 0
-76 290 0
-76 305 0
77 78 -79 0
77 -78 79 0
-77 -78 -79 0
-77 78 79 0
78 -296 -299 0
-78 296 0
-78 299 0
79 -295 -300 0
-79 295 0
-79 300 0
-80 43 53 0
-80 53 54 0
-80 43 54 0
80 -53 -54 0
80 -43 -53 0
80 -43 -54 0
81 82 -83 0
81 -82 83 0
-81 -82 -83 0
-81 82 83 0
-82 59 80 0
-82 59 61 0
-82 61 80 0
82 -61 -80 0
82 -59 -80 0
82 -59 -61 0
83 -84 107 0
83 84 -107 0
-83 84 107 0
-83 -84 -107 0
84 -85 94 0
84 85 -94 0
-84 85 94 0
-84 -85 -94 0
-85 -86 -91 0
-85 86 91 0
85 86 -91 0
85 -86 91 0
-86 -87 -88 0
-86 87 88 0
86 87 -88 0
86 -87 88 0
87 -297 -299 0
-87 297 0
-87 299 0
88 89 -90 0
88 -89 90 0
-88 -89 -90 0
-88 89 90 0
89 -296 -300 0
-89 296 0
-89 300 0
90 -295 -301 0
-90 295 0
-90 301 0
91 -92 93 0
91 92 -93 0
-91 92 93 0
-91 -92 -93 0
-92 300 78 0
-92 295 74 0
-92 74 78 0
-92 300 74 0
-92 295 78 0
92 -74 -78 0
92 -295 -300 -78 0
92 -295 -300 -74 0
-93 64 67 0
-93 66 67 0
-93 64 66 0
93 -64 -66 0
93 -66 -67 0
93 -64 -67 0
-94 -95 -96 0
-94 95 96 0
94 95 -96 0
94 -95 96 0
-95 69 63 0
-95 63 70 0
-95 69 70 0
95 -63 -70 0
95 -69 -63 0
95 -69 -70 0
96 -97 100 0
96 97 -100 0
-96 97 100 0
-96 -97 -100 0
97 98 -99 0
97 -98 99 0
-97 -98 -99 0
-97 98 99 0
98 -294 -302 0
-98 294 0
-98 302 0
99 -293 -303 0
-99 293 0
-99 303 0
-100 101 102 0
-100 -101 -102 0
100 -101 102 0
100 101 -102 0
101 -290 -291 -304 -305 0
-101 305 0
-101 290 0
-101 304 0
-101 291 0
-102 -103 -104 0
-102 103 104 0
102 103 -104 0
102 -103 104 0
103 -292 -304 0
-103 292 0
-103 304 0
104 105 -106 0
104 -105 106 0
-104 -105 -106 0
-104 105 106 0
105 -291 -305 0
-105 291 0
-105 305 0
106 -290 -306 0
-106 290 0
-106 306 0
-107 62 72 0
-107 72 73 0
-107 62 73 0
107 -72 -73 0
107 -62 -72 0
107 -62 -73 0
108 109 -110 0
108 -109 110 0
-108 -109 -110 0
-108 109 110 0
-109 82 107 0
-109 82 84 0
-109 84 107 0
109 -84 -107 0
109 -82 -107 0
109 -82 -84 0
110 -111 138 0
110 111 -138 0
-110 111 138 0
-110 -111 -138 0
111 -112 121 0
111 112 -121 0
-111 112 121 0
-111 -112 -121 0
-112 -113 -118 0
-112 113 118 0
112 113 -118 0
112 -113 118 0
-113 114 115 0
-113 -114 -115 0
113 -114 115 0
113 114 -115 0
114 -293 -294 -302 -303 0
-114 303 0
-114 293 0
-114 302 0
-114 294 0
-115 -116 -117 0
-115 116 117 0
115 116 -117 0
115 -116 117 0
-116 103 106 0
-116 105 106 0
-116 103 105 0
116 -103 -105 0
116 -105 -106 0
116 -103 -106 0
117 -298 -299 0
-117 298 0
-117 299 0
118 -119 120 0
118 119 -120 0
-118 119 120 0
-118 -119 -120 0
-119 97 102 0
-119 101 97 0
-119 101 102 0
119 -101 -97 0
119 -97 -102 0
119 -101 -102 0
-120 87 90 0
-120 89 90 0
-120 87 89 0
120 -87 -89 0
120 -89 -90 0
120 -87 -90 0
-121 -122 -123 0
-121 122 123 0
121 122 -123 0
121 -122 123 0
-122 86 92 0
-122 92 93 0
-122 86 93 0
122 -86 -93 0
122 -92 -93 0
122 -86 -92 0
123 124 -127 0
123 -124 127 0
-123 -124 -127 0
-123 124 127 0
124 125 -126 0
124 -125 126 0
-124 -125 -126 0
-124 125 126 0
125 -297 -300 0
-125 297 0
-125 300 0
126 -296 -301 0
-126 296 0
-126 301 0
127 -128 133 0
127 128 -133 0
-127 128 133 0
-127 -128 -133 0
-128 -129 -130 0
-128 129 130 0
128 129 -130 0
128 -129 130 0
129 -295 -302 0
-129 295 0
-129 302 0
130 131 -132 0
130 -131 132 0
-130 -131 -132 0
-130 131 132 0
131 -294 -303 0
-131 294 0
-131 303 0
132 -293 -304 0
-132 293 0
-132 304 0
-133 -134 -135 0
-133 134 135 0
133 134 -135 0
133 -134 135 0
134 -292 -305 0
-134 292 0
-134 305 0
135 136 -137 0
135 -136 137 0
-135 -136 -137 0
-135 136 137 0
136 -291 -306 0
-136 291 0
-136 306 0
137 -290 -307 0
-137 290 0
-137 307 0
-138 85 95 0
-138 95 96 0
-138 85 96 0
138 -95 -96 0
138 -85 -95 0
138 -85 -96 0
139 140 -141 0
139 -140 141 0
-139 -140 -141 0
-139 140 141 0
-140 109 138 0
-140 109 111 0
-140 111 138 0
140 -111 -138 0
140 -109 -138 0
140 -109 -111 0
141 -142 169 0
141 142 -169 0
-141 142 169 0
-141 -142 -169 0
142 -143 152 0
142 143 -152 0
-142 143 152 0
-142 -143 -152 0
-143 -144 -149 0
-143 144 149 0
143 144 -149 0
143 -144 149 0
-144 145 146 0
-144 -145 -146 0
144 -145 146 0
144 145 -146 0
145 -296 -297 -300 -301 0
-145 301 0
-145 296 0
-145 300 0
-145 297 0
-146 147 148 0
-146 -147 -148 0
146 -147 148 0
146 147 -148 0
-147 129 132 0
-147 131 132 0
-147 129 131 0
147 -129 -131 0
147 -131 -132 0
147 -129 -132 0
-148 134 137 0
-148 136 137 0
-148 134 136 0
148 -134 -136 0
148 -136 -137 0
148 -134 -137 0
149 -150 151 0
149 150 -151 0
-149 150 151 0
-149 -150 -151 0
-150 124 128 0
-150 128 133 0
-150 124 133 0
150 -128 -133 0
150 -124 -128 0
150 -124 -133 0
-151 116 117 0
-151 114 117 0
-151 114 116 0
151 -114 -117 0
151 -114 -116 0
151 -116 -117 0
-152 -153 -154 0
-152 153 154 0
152 153 -154 0
152 -153 154 0
-153 113 119 0
-153 119 120 0
-153 113 120 0
153 -113 -120 0
153 -119 -120 0
153 -113 -119 0
154 155 -158 0
154 -155 158 0
-154 -155 -158 0
-154 155 158 0
155 156 -157 0
155 -156 157 0
-155 -156 -157 0
-155 156 157 0
156 -298 -300 0
-156 298 0
-156 300 0
157 -297 -301 0
-157 297 0
-157 301 0
158 -159 164 0
158 159 -164 0
-158 159 164 0
-158 -159 -164 0
-159 -160 -161 0
-159 160 161 0
159 160 -161 0
159 -160 161 0
160 -296 -302 0
-160 296 0
-160 302 0
161 162 -163 0
161 -162 163 0
-161 -162 -163 0
-161 162 163 0
162 -295 -303 0
-162 295 0
-162 303 0
163 -294 -304 0
-163 294 0
-163 304 0
-164 -165 -166 0
-164 165 166 0
164 165 -166 0
164 -165 166 0
165 -293 -305 0
-165 293 0
-165 305 0
166 167 -168 0
166 -167 168 0
-166 -167 -168 0
-166 167 168 0
167 -292 -306 0
-167 292 0
-167 306 0
168 -291 -307 0
-168 291 0
-168 307 0
-169 112 122 0
-169 122 123 0
-169 112 123 0
169 -122 -123 0
169 -112 -122 0
169 -112 -123 0
170 171 -172 0
170 -171 172 0
-170 -171 -172 0
-170 171 172 0
-171 140 169 0
-171 140 142 0
-171 142 169 0
171 -142 -169 0
171 -140 -169 0
171 -140 -142 0
172 -173 198 0
172 173 -198 0
-172 173 198 0
-172 -173 -198 0
173 -174 183 0
173 174 -183 0
-173 174 183 0
-173 -174 -183 0
-174 -175 -180 0
-174 175 180 0
174 175 -180 0
174 -175 180 0
-175 176 177 0
-175 -176 -177 0
175 -176 177 0
175 176 -177 0
-176 160 163 0
-176 162 163 0
-176 160 162 0
176 -160 -162 0
176 -162 -163 0
176 -160 -163 0
-177 -178 -179 0
-177 178 179 0
177 178 -179 0
177 -178 179 0
-178 306 168 0
-178 292 165 0
-178 165 168 0
-178 306 165 0
-178 292 168 0
178 -165 -168 0
178 -292 -306 -168 0
178 -292 -306 -165 0
179 -298 -301 0
-179 298 0
-179 301 0
180 -181 182 0
180 181 -182 0
-180 181 182 0
-180 -181 -182 0
-181 155 159 0
-181 159 164 0
-181 155 164 0
181 -159 -164 0
181 -155 -159 0
181 -155 -164 0
-182 145 147 0
-182 147 148 0
-182 145 148 0
182 -147 -148 0
182 -145 -147 0
182 -145 -148 0
-183 -184 -185 0
-183 184 185 0
183 184 -185 0
183 -184 185 0
-184 144 150 0
-184 150 151 0
-184 144 151 0
184 -144 -151 0
184 -150 -151 0
184 -144 -150 0
185 -186 191 0
185 186 -191 0
-185 186 191 0
-185 -186 -191 0
-186 -187 -188 0
-186 187 188 0
186 187 -188 0
186 -187 188 0
187 -297 -302 0
-187 297 0
-187 302 0
188 189 -190 0
188 -189 190 0
-188 -189 -190 0
-188 189 190 0
189 -296 -303 0
-189 296 0
-189 303 0
190 -295 -304 0
-190 295 0
-190 304 0
-191 192 193 0
-191 -192 -193 0
191 -192 193 0
191 192 -193 0
192 -297 -298 -300 -301 0
-192 301 0
-192 297 0
-192 300 0
-192 298 0
-193 -194 -195 0
-193 194 195 0
193 194 -195 0
193 -194 195 0
194 -294 -305 0
-194 294 0
-194 305 0
195 196 -197 0
195 -196 197 0
-195 -196 -197 0
-195 196 197 0
196 -293 -306 0
-196 293 0
-196 306 0
197 -292 -307 0
-197 292 0
-197 307 0
-198 143 153 0
-198 153 154 0
-198 143 154 0
198 -153 -154 0
198 -143 -153 0
198 -143 -154 0
199 -200 201 0
199 200 -201 0
-199 200 201 0
-199 -200 -201 0
-200 171 198 0
-200 171 173 0
-200 173 198 0
200 -173 -198 0
200 -171 -198 0
200 -171 -173 0
-201 202 223 0
-201 -202 -223 0
201 -202 223 0
201 202 -223 0
202 -203 212 0
202 203 -212 0
-202 203 212 0
-202 -203 -212 0
-203 -204 -209 0
-203 204 209 0
203 204 -209 0
203 -204 209 0
-204 -205 -206 0
-204 205 206 0
204 205 -206 0
204 -205 206 0
205 -298 -302 0
-205 298 0
-205 302 0
206 207 -208 0
206 -207 208 0
-206 -207 -208 0
-206 207 208 0
207 -297 -303 0
-207 297 0
-207 303 0
208 -296 -304 0
-208 296 0
-208 304 0
209 -210 211 0
209 210 -211 0
-209 210 211 0
-209 -210 -211 0
-210 192 186 0
-210 186 193 0
-210 192 193 0
210 -186 -193 0
210 -192 -186 0
210 -192 -193 0
-211 176 178 0
-211 178 179 0
-211 176 179 0
211 -178 -179 0
211 -176 -178 0
211 -176 -179 0
-212 -213 -214 0
-212 213 214 0
212 213 -214 0
212 -213 214 0
-213 175 181 0
-213 181 182 0
-213 175 182 0
213 -175 -182 0
213 -181 -182 0
213 -175 -181 0
214 -215 220 0
214 215 -220 0
-214 215 220 0
-214 -215 -220 0
-215 -216 -217 0
-215 216 217 0
215 216 -217 0
215 -216 217 0
216 -295 -305 0
-216 295 0
-216 305 0
217 218 -219 0
217 -218 219 0
-217 -218 -219 0
-217 218 219 0
218 -294 -306 0
-218 294 0
-218 306 0
219 -293 -307 0
-219 293 0
-219 307 0
-220 221 222 0
-220 -221 -222 0
220 -221 222 0
220 221 -222 0
-221 187 190 0
-221 189 190 0
-221 187 189 0
221 -187 -189 0
221 -189 -190 0
221 -187 -190 0
-222 194 197 0
-222 196 197 0
-222 194 196 0
222 -194 -196 0
222 -196 -197 0
222 -194 -197 0
-223 174 184 0
-223 184 185 0
-223 174 185 0
223 -184 -185 0
223 -174 -184 0
223 -174 -185 0
224 -225 226 0
224 225 -226 0
-224 225 226 0
-224 -225 -226 0
-225 200 223 0
-225 200 202 0
-225 202 223 0
225 -202 -223 0
225 -200 -223 0
225 -200 -202 0
-226 227 244 0
-226 -227 -244 0
226 -227 244 0
226 227 -244 0
227 -228 237 0
227 228 -237 0
-227 228 237 0
-227 -228 -237 0
-228 -229 -234 0
-228 229 234 0
228 229 -234 0
228 -229 234 0
-229 -230 -231 0
-229 230 231 0
229 230 -231 0
229 -230 231 0
230 -296 -305 0
-230 296 0
-230 305 0
231 232 -233 0
231 -232 233 0
-231 -232 -233 0
-231 232 233 0
232 -295 -306 0
-232 295 0
-232 306 0
233 -294 -307 0
-233 294 0
-233 307 0
234 -235 236 0
234 235 -236 0
-234 235 236 0
-234 -235 -236 0
-235 215 221 0
-235 221 222 0
-235 215 222 0
235 -215 -222 0
235 -221 -222 0
235 -215 -221 0
-236 205 208 0
-236 207 208 0
-236 205 207 0
236 -205 -207 0
236 -207 -208 0
236 -205 -208 0
-237 -238 -239 0
-237 238 239 0
237 238 -239 0
237 -238 239 0
-238 204 210 0
-238 210 211 0
-238 204 211 0
238 -204 -211 0
238 -210 -211 0
238 -204 -210 0
239 240 -241 0
239 -240 241 0
-239 -240 -241 0
-239 240 241 0
-240 216 219 0
-240 218 219 0
-240 216 218 0
240 -216 -218 0
240 -218 -219 0
240 -216 -219 0
241 242 -243 0
241 -242 243 0
-241 -242 -243 0
-241 242 243 0
242 -298 -303 0
-242 298 0
-242 303 0
243 -297 -304 0
-243 297 0
-243 304 0
-244 203 213 0
-244 213 214 0
-244 203 214 0
244 -213 -214 0
244 -203 -213 0
244 -203 -214 0
245 -246 247 0
245 246 -247 0
-245 246 247 0
-245 -246 -247 0
-246 225 244 0
-246 225 227 0
-246 227 244 0
246 -227 -244 0
246 -225 -244 0
246 -225 -227 0
-247 248 261 0
-247 -248 -261 0
247 -248 261 0
247 248 -261 0
248 -249 254 0
248 249 -254 0
-248 249 254 0
-248 -249 -254 0
-249 -250 -251 0
-249 250 251 0
249 250 -251 0
249 -250 251 0
-250 242 243 0
-250 240 242 0
-250 240 243 0
250 -240 -242 0
250 -242 -243 0
250 -240 -243 0
251 252 -253 0
251 -252 253 0
-251 -252 -253 0
-251 252 253 0
-252 306 233 0
-252 295 230 0
-252 230 233 0
-252 306 230 0
-252 295 233 0
252 -230 -233 0
252 -295 -306 -233 0
252 -295 -306 -230 0
253 -298 -304 0
-253 298 0
-253 304 0
-254 -255 -256 0
-254 255 256 0
254 255 -256 0
254 -255 256 0
-255 229 235 0
-255 235 236 0
-255 229 236 0
255 -229 -236 0
255 -235 -236 0
255 -229 -235 0
256 257 -258 0
256 -257 258 0
-256 -257 -258 0
-256 257 258 0
257 -297 -305 0
-257 297 0
-257 305 0
258 259 -260 0
258 -259 260 0
-258 -259 -260 0
-258 259 260 0
259 -296 -306 0
-259 296 0
-259 306 0
260 -295 -307 0
-260 295 0
-260 307 0
-261 228 238 0
-261 238 239 0
-261 228 239 0
261 -238 -239 0
261 -228 -238 0
261 -228 -239 0
262 -263 264 0
262 263 -264 0
-262 263 264 0
-262 -263 -264 0
-263 246 261 0
-263 246 248 0
-263 248 261 0
263 -248 -261 0
263 -246 -261 0
263 -246 -248 0
-264 265 274 0
-264 -265 -274 0
264 -265 274 0
264 265 -274 0
265 -266 271 0
265 266 -271 0
-265 266 271 0
-265 -266 -271 0
-266 -267 -268 0
-266 267 268 0
266 267 -268 0
266 -267 268 0
267 -298 -305 0
-267 298 0
-267 305 0
268 269 -270 0
268 -269 270 0
-268 -269 -270 0
-268 269 270 0
269 -297 -306 0
-269 297 0
-269 306 0
270 -296 -307 0
-270 296 0
-270 307 0
-271 272 273 0
-271 -272 -273 0
271 -272 273 0
271 272 -273 0
-272 250 252 0
-272 252 253 0
-272 250 253 0
272 -252 -253 0
272 -250 -252 0
272 -250 -253 0
-273 257 260 0
-273 259 260 0
-273 257 259 0
273 -257 -259 0
273 -259 -260 0
273 -257 -260 0
-274 249 255 0
-274 255 256 0
-274 249 256 0
274 -255 -256 0
274 -249 -255 0
274 -249 -256 0
275 -276 277 0
275 276 -277 0
-275 276 277 0
-275 -276 -277 0
-276 263 274 0
-276 263 265 0
-276 265 274 0
276 -265 -274 0
276 -263 -274 0
276 -263 -265 0
-277 278 283 0
-277 -278 -283 0
277 -278 283 0
277 278 -283 0
278 279 -280 0
278 -279 280 0
-278 -279 -280 0
-278 279 280 0
-279 267 270 0
-279 269 270 0
-279 267 269 0
279 -267 -269 0
279 -269 -270 0
279 -267 -270 0
280 281 -282 0
280 -281 282 0
-280 -281 -282 0
-280 281 282 0
281 -298 -306 0
-281 298 0
-281 306 0
282 -297 -307 0
-282 297 0
-282 307 0
-283 266 272 0
-283 272 273 0
-283 266 273 0
283 -266 -273 0
283 -272 -273 0
283 -266 -272 0
284 -285 286 0
284 285 -286 0
-284 285 286 0
-284 -285 -286 0
-285 276 283 0
-285 276 278 0
-285 278 283 0
285 -278 -283 0
285 -276 -283 0
285 -276 -278 0
-286 -287 -288 0
-286 287 288 0
286 287 -288 0
286 -287 288 0
-287 281 282 0
-287 279 281 0
-287 279 282 0
287 -279 -281 0
287 -281 -282 0
287 -279 -282 0
288 -298 -307 0
-288 298 0
-288 307 0
-289 285 287 0
-289 287 288 0
-289 285 288 0
289 -287 -288 0
289 -285 -287 0
289 -285 -288 0
-308 0
2 0
3 0
6 0
13 0
24 0
39 0
58 0
81 0
108 0
139 0
170 0
199 0
224 0
245 0
262 0
275 0
284 0
289 0

