c Result of efficient AIG-to-CNF conversion using package CNF
p cnf 616 2445
2 -592 -604 0
-2 592 0
-2 604 0
3 4 -5 0
3 -4 5 0
-3 -4 -5 0
-3 4 5 0
4 -593 -604 0
-4 593 0
-4 604 0
5 -592 -605 0
-5 592 0
-5 605 0
-6 7 8 0
-6 -7 -8 0
6 -7 8 0
6 7 -8 0
7 -592 -593 -604 -605 0
-7 605 0
-7 592 0
-7 604 0
-7 593 0
-8 -9 -10 0
-8 9 10 0
8 9 -10 0
8 -9 10 0
9 -594 -604 0
-9 594 0
-9 604 0
10 11 -12 0
10 -11 12 0
-10 -11 -12 0
-10 11 12 0
11 -593 -605 0
-11 593 0
-11 605 0
12 -592 -606 0
-12 592 0
-12 606 0
13 14 -23 0
13 -14 23 0
-13 -14 -23 0
-13 14 23 0
-14 15 20 0
-14 -15 -20 0
14 -15 20 0
14 15 -20 0
-15 -16 -17 0
-15 16 17 0
15 16 -17 0
15 -16 17 0
16 -594 -605 0
-16 594 0
-16 605 0
17 18 -19 0
17 -18 19 0
-17 -18 -19 0
-17 18 19 0
18 -593 -606 0
-18 593 0
-18 606 0
19 -592 -607 0
-19 592 0
-19 607 0
-20 -21 -22 0
-20 21 22 0
20 21 -22 0
20 -21 22 0
-21 9 12 0
-21 11 12 0
-21 9 11 0
21 -9 -11 0
21 -11 -12 0
21 -9 -12 0
22 -595 -604 0
-22 595 0
-22 604 0
23 -7 -8 0
-23 7 0
-23 8 0
24 -25 26 0
24 25 -26 0
-24 25 26 0
-24 -25 -26 0
25 -14 -23 0
-25 14 0
-25 23 0
-26 27 38 0
-26 -27 -38 0
26 -27 38 0
26 27 -38 0
-27 -28 -31 0
-27 28 31 0
27 28 -31 0
27 -28 31 0
-28 -29 -30 0
-28 29 30 0
28 29 -30 0
28 -29 30 0
29 -596 -604 0
-29 596 0
-29 604 0
30 -595 -605 0
-30 595 0
-30 605 0
31 -32 37 0
31 32 -37 0
-31 32 37 0
-31 -32 -37 0
32 -33 34 0
32 33 -34 0
-32 33 34 0
-32 -33 -34 0
33 -594 -606 0
-33 594 0
-33 606 0
-34 -35 -36 0
-34 35 36 0
34 35 -36 0
34 -35 36 0
35 -593 -607 0
-35 593 0
-35 607 0
36 -592 -608 0
-36 592 0
-36 608 0
-37 16 19 0
-37 18 19 0
-37 16 18 0
37 -16 -18 0
37 -18 -19 0
37 -16 -19 0
-38 15 21 0
-38 21 22 0
-38 15 22 0
38 -21 -22 0
38 -15 -21 0
38 -15 -22 0
39 -40 41 0
39 40 -41 0
-39 40 41 0
-39 -40 -41 0
40 -25 -26 0
-40 25 0
-40 26 0
-41 -42 -59 0
-41 42 59 0
41 42 -59 0
41 -42 59 0
-42 43 52 0
-42 -43 -52 0
42 -43 52 0
42 43 -52 0
-43 -44 -49 0
-43 44 49 0
43 44 -49 0
43 -44 49 0
-44 -45 -46 0
-44 45 46 0
44 45 -46 0
44 -45 46 0
45 -594 -607 0
-45 594 0
-45 607 0
46 47 -48 0
46 -47 48 0
-46 -47 -48 0
-46 47 48 0
47 -593 -608 0
-47 593 0
-47 608 0
48 -592 -609 0
-48 592 0
-48 609 0
49 -50 51 0
49 50 -51 0
-49 50 51 0
-49 -50 -51 0
50 -595 -596 -604 -605 0
-50 605 0
-50 595 0
-50 604 0
-50 596 0
-51 607 36 0
-51 593 33 0
-51 33 36 0
-51 607 33 0
-51 593 36 0
51 -33 -36 0
51 -593 -607 -36 0
51 -593 -607 -33 0
-52 53 54 0
-52 -53 -54 0
52 -53 54 0
52 53 -54 0
-53 28 37 0
-53 28 32 0
-53 32 37 0
53 -32 -37 0
53 -28 -37 0
53 -28 -32 0
-54 -55 -56 0
-54 55 56 0
54 55 -56 0
54 -55 56 0
55 -597 -604 0
-55 597 0
-55 604 0
56 57 -58 0
56 -57 58 0
-56 -57 -58 0
-56 57 58 0
57 -596 -605 0
-57 596 0
-57 605 0
58 -595 -606 0
-58 595 0
-58 606 0
59 -27 -38 0
-59 27 0
-59 38 0
60 -61 62 0
60 61 -62 0
-60 61 62 0
-60 -61 -62 0
61 -40 -41 0
-61 40 0
-61 41 0
-62 -63 -84 0
-62 63 84 0
62 63 -84 0
62 -63 84 0
-63 64 83 0
-63 -64 -83 0
63 -64 83 0
63 64 -83 0
-64 -65 -76 0
-64 65 76 0
64 65 -76 0
64 -65 76 0
-65 -66 -71 0
-65 66 71 0
65 66 -71 0
65 -66 71 0
-66 -67 -68 0
-66 67 68 0
66 67 -68 0
66 -67 68 0
67 -597 -605 0
-67 597 0
-67 605 0
68 69 -70 0
68 -69 70 0
-68 -69 -70 0
-68 69 70 0
69 -596 -606 0
-69 596 0
-69 606 0
70 -595 -607 0
-70 595 0
-70 607 0
71 -72 73 0
71 72 -73 0
-71 72 73 0
-71 -72 -73 0
72 -594 -608 0
-72 594 0
-72 608 0
-73 -74 -75 0
-73 74 75 0
73 74 -75 0
73 -74 75 0
74 -593 -609 0
-74 593 0
-74 609 0
75 -592 -610 0
-75 592 0
-75 610 0
76 -77 82 0
76 77 -82 0
-76 77 82 0
-76 -77 -82 0
-77 78 79 0
-77 -78 -79 0
77 -78 79 0
77 78 -79 0
-78 55 58 0
-78 57 58 0
-78 55 57 0
78 -55 -57 0
78 -57 -58 0
78 -55 -58 0
-79 -80 -81 0
-79 80 81 0
79 80 -81 0
79 -80 81 0
-80 45 48 0
-80 47 48 0
-80 45 47 0
80 -45 -47 0
80 -47 -48 0
80 -45 -48 0
81 -598 -604 0
-81 598 0
-81 604 0
-82 44 51 0
-82 44 50 0
-82 50 51 0
82 -50 -51 0
82 -44 -51 0
82 -44 -50 0
-83 43 53 0
-83 53 54 0
-83 43 54 0
83 -43 -54 0
83 -53 -54 0
83 -43 -53 0
84 -42 -59 0
-84 42 0
-84 59 0
85 -86 87 0
85 86 -87 0
-85 86 87 0
-85 -86 -87 0
86 -61 -62 0
-86 61 0
-86 62 0
-87 -88 -115 0
-87 88 115 0
87 88 -115 0
87 -88 115 0
-88 -89 -114 0
-88 89 114 0
88 89 -114 0
88 -89 114 0
-89 -90 -103 0
-89 90 103 0
89 90 -103 0
89 -90 103 0
-90 -91 -100 0
-90 91 100 0
90 91 -100 0
90 -91 100 0
-91 -92 -97 0
-91 92 97 0
91 92 -97 0
91 -92 97 0
-92 -93 -94 0
-92 93 94 0
92 93 -94 0
92 -93 94 0
93 -594 -609 0
-93 594 0
-93 609 0
94 95 -96 0
94 -95 96 0
-94 -95 -96 0
-94 95 96 0
95 -593 -610 0
-95 593 0
-95 610 0
96 -592 -611 0
-96 592 0
-96 611 0
97 -98 99 0
97 98 -99 0
-97 98 99 0
-97 -98 -99 0
-98 67 70 0
-98 69 70 0
-98 67 69 0
98 -67 -69 0
98 -69 -70 0
98 -67 -70 0
-99 72 75 0
-99 74 75 0
-99 72 74 0
99 -72 -74 0
99 -74 -75 0
99 -72 -75 0
100 -101 102 0
100 101 -102 0
-100 101 102 0
-100 -101 -102 0
101 -66 -71 0
-101 66 0
-101 71 0
-102 78 80 0
-102 80 81 0
-102 78 81 0
102 -80 -81 0
102 -78 -80 0
102 -78 -81 0
103 104 -105 0
103 -104 105 0
-103 -104 -105 0
-103 104 105 0
-104 65 77 0
-104 77 82 0
-104 65 82 0
104 -65 -82 0
104 -77 -82 0
104 -65 -77 0
105 -106 109 0
105 106 -109 0
-105 106 109 0
-105 -106 -109 0
106 107 -108 0
106 -107 108 0
-106 -107 -108 0
-106 107 108 0
107 -599 -604 0
-107 599 0
-107 604 0
108 -598 -605 0
-108 598 0
-108 605 0
-109 -110 -111 0
-109 110 111 0
109 110 -111 0
109 -110 111 0
110 -597 -606 0
-110 597 0
-110 606 0
111 112 -113 0
111 -112 113 0
-111 -112 -113 0
-111 112 113 0
112 -596 -607 0
-112 596 0
-112 607 0
113 -595 -608 0
-113 595 0
-113 608 0
114 -64 -83 0
-114 64 0
-114 83 0
115 -63 -84 0
-115 63 0
-115 84 0
116 -117 119 0
116 117 -119 0
-116 117 119 0
-116 -117 -119 0
-117 118 0
117 -118 0
-118 88 0
-118 86 115 0
118 -86 -88 0
118 -88 -115 0
-119 -120 -151 0
-119 120 151 0
119 120 -151 0
119 -120 151 0
-120 121 150 0
-120 -121 -150 0
120 -121 150 0
120 121 -150 0
-121 -122 -131 0
-121 122 131 0
121 122 -131 0
121 -122 131 0
-122 -123 -128 0
-122 123 128 0
122 123 -128 0
122 -123 128 0
-123 124 125 0
-123 -124 -125 0
123 -124 125 0
123 124 -125 0
124 -598 -599 -604 -605 0
-124 605 0
-124 598 0
-124 604 0
-124 599 0
-125 126 127 0
-125 -126 -127 0
125 -126 127 0
125 126 -127 0
-126 110 113 0
-126 112 113 0
-126 110 112 0
126 -110 -112 0
126 -112 -113 0
126 -110 -113 0
-127 93 96 0
-127 95 96 0
-127 93 95 0
127 -93 -95 0
127 -95 -96 0
127 -93 -96 0
128 -129 130 0
128 129 -130 0
-128 129 130 0
-128 -129 -130 0
129 -106 -109 0
-129 106 0
-129 109 0
-130 92 98 0
-130 98 99 0
-130 92 99 0
130 -92 -99 0
130 -98 -99 0
130 -92 -98 0
131 132 -133 0
131 -132 133 0
-131 -132 -133 0
-131 132 133 0
-132 91 102 0
-132 91 101 0
-132 101 102 0
132 -101 -102 0
132 -91 -102 0
132 -91 -101 0
133 134 -139 0
133 -134 139 0
-133 -134 -139 0
-133 134 139 0
-134 -135 -136 0
-134 135 136 0
134 135 -136 0
134 -135 136 0
135 -600 -604 0
-135 600 0
-135 604 0
136 137 -138 0
136 -137 138 0
-136 -137 -138 0
-136 137 138 0
137 -599 -605 0
-137 599 0
-137 605 0
138 -598 -606 0
-138 598 0
-138 606 0
139 -140 145 0
139 140 -145 0
-139 140 145 0
-139 -140 -145 0
-140 -141 -142 0
-140 141 142 0
140 141 -142 0
140 -141 142 0
141 -597 -607 0
-141 597 0
-141 607 0
142 143 -144 0
142 -143 144 0
-142 -143 -144 0
-142 143 144 0
143 -596 -608 0
-143 596 0
-143 608 0
144 -595 -609 0
-144 595 0
-144 609 0
-145 -146 -147 0
-145 146 147 0
145 146 -147 0
145 -146 147 0
146 -594 -610 0
-146 594 0
-146 610 0
147 148 -149 0
147 -148 149 0
-147 -148 -149 0
-147 148 149 0
148 -593 -611 0
-148 593 0
-148 611 0
149 -592 -612 0
-149 592 0
-149 612 0
-150 90 104 0
-150 104 105 0
-150 90 105 0
150 -104 -105 0
150 -90 -104 0
150 -90 -105 0
151 -89 -114 0
-151 89 0
-151 114 0
152 -153 154 0
152 153 -154 0
-152 153 154 0
-152 -153 -154 0
-153 117 120 0
-153 120 151 0
-153 117 151 0
153 -120 -151 0
153 -117 -120 0
153 -117 -151 0
-154 -155 -188 0
-154 155 188 0
154 155 -188 0
154 -155 188 0
155 -156 187 0
155 156 -187 0
-155 156 187 0
-155 -156 -187 0
-156 -157 -176 0
-156 157 176 0
156 157 -176 0
156 -157 176 0
-157 -158 -171 0
-157 158 171 0
157 158 -171 0
157 -158 171 0
-158 -159 -164 0
-158 159 164 0
158 159 -164 0
158 -159 164 0
-159 -160 -161 0
-159 160 161 0
159 160 -161 0
159 -160 161 0
160 -597 -608 0
-160 597 0
-160 608 0
161 162 -163 0
161 -162 163 0
-161 -162 -163 0
-161 162 163 0
162 -596 -609 0
-162 596 0
-162 609 0
163 -595 -610 0
-163 595 0
-163 610 0
164 -165 170 0
164 165 -170 0
-164 165 170 0
-164 -165 -170 0
-165 -166 -167 0
-165 166 167 0
165 166 -167 0
165 -166 167 0
166 -594 -611 0
-166 594 0
-166 611 0
167 168 -169 0
167 -168 169 0
-167 -168 -169 0
-167 168 169 0
168 -593 -612 0
-168 593 0
-168 612 0
169 -592 -613 0
-169 592 0
-169 613 0
-170 135 138 0
-170 137 138 0
-170 135 137 0
170 -135 -137 0
170 -137 -138 0
170 -135 -138 0
171 -172 173 0
171 172 -173 0
-171 172 173 0
-171 -172 -173 0
-172 141 144 0
-172 143 144 0
-172 141 143 0
172 -141 -143 0
172 -143 -144 0
172 -141 -144 0
-173 -174 -175 0
-173 174 175 0
173 174 -175 0
173 -174 175 0
-174 146 149 0
-174 148 149 0
-174 146 148 0
174 -146 -148 0
174 -148 -149 0
174 -146 -149 0
175 -601 -604 0
-175 601 0
-175 604 0
176 -177 186 0
176 177 -186 0
-176 177 186 0
-176 -177 -186 0
177 -178 179 0
177 178 -179 0
-177 178 179 0
-177 -178 -179 0
-178 134 140 0
-178 140 145 0
-178 134 145 0
178 -134 -145 0
178 -140 -145 0
178 -134 -140 0
-179 -180 -181 0
-179 180 181 0
179 180 -181 0
179 -180 181 0
-180 124 126 0
-180 126 127 0
-180 124 127 0
180 -126 -127 0
180 -124 -126 0
180 -124 -127 0
181 182 -183 0
181 -182 183 0
-181 -182 -183 0
-181 182 183 0
182 -600 -605 0
-182 600 0
-182 605 0
183 184 -185 0
183 -184 185 0
-183 -184 -185 0
-183 184 185 0
184 -599 -606 0
-184 599 0
-184 606 0
185 -598 -607 0
-185 598 0
-185 607 0
-186 129 123 0
-186 123 130 0
-186 129 130 0
186 -123 -130 0
186 -129 -123 0
186 -129 -130 0
-187 122 132 0
-187 132 133 0
-187 122 133 0
187 -132 -133 0
187 -122 -132 0
187 -122 -133 0
188 -121 -150 0
-188 121 0
-188 150 0
189 -190 191 0
189 190 -191 0
-189 190 191 0
-189 -190 -191 0
-190 155 188 0
-190 153 155 0
-190 153 188 0
190 -153 -155 0
190 -155 -188 0
190 -153 -188 0
-191 -192 -193 0
-191 192 193 0
191 192 -193 0
191 -192 193 0
192 -156 -187 0
-192 156 0
-192 187 0
193 -194 205 0
193 194 -205 0
-193 194 205 0
-193 -194 -205 0
-194 -195 -202 0
-194 195 202 0
194 195 -202 0
194 -195 202 0
-195 -196 -197 0
-195 196 197 0
195 196 -197 0
195 -196 197 0
-196 159 165 0
-196 165 170 0
-196 159 170 0
196 -159 -170 0
196 -165 -170 0
196 -159 -165 0
197 198 -199 0
197 -198 199 0
-197 -198 -199 0
-197 198 199 0
-198 172 174 0
-198 174 175 0
-198 172 175 0
198 -174 -175 0
198 -172 -174 0
198 -172 -175 0
199 200 -201 0
199 -200 201 0
-199 -200 -201 0
-199 200 201 0
200 -602 -604 0
-200 602 0
-200 604 0
201 -601 -605 0
-201 601 0
-201 605 0
202 -203 204 0
202 203 -204 0
-202 203 204 0
-202 -203 -204 0
203 -158 -171 0
-203 158 0
-203 171 0
-204 178 180 0
-204 180 181 0
-204 178 181 0
204 -180 -181 0
204 -178 -180 0
204 -178 -181 0
-205 -206 -207 0
-205 206 207 0
205 206 -207 0
205 -206 207 0
-206 157 186 0
-206 157 177 0
-206 177 186 0
206 -177 -186 0
206 -157 -186 0
206 -157 -177 0
207 208 -225 0
207 -208 225 0
-207 -208 -225 0
-207 208 225 0
-208 -209 -214 0
-208 209 214 0
208 209 -214 0
208 -209 214 0
-209 -210 -211 0
-209 210 211 0
209 210 -211 0
209 -210 211 0
210 -600 -606 0
-210 600 0
-210 606 0
211 212 -213 0
211 -212 213 0
-211 -212 -213 0
-211 212 213 0
212 -599 -607 0
-212 599 0
-212 607 0
213 -598 -608 0
-213 598 0
-213 608 0
214 -215 220 0
214 215 -220 0
-214 215 220 0
-214 -215 -220 0
-215 -216 -217 0
-215 216 217 0
215 216 -217 0
215 -216 217 0
216 -597 -609 0
-216 597 0
-216 609 0
217 218 -219 0
217 -218 219 0
-217 -218 -219 0
-217 218 219 0
218 -596 -610 0
-218 596 0
-218 610 0
219 -595 -611 0
-219 595 0
-219 611 0
-220 -221 -222 0
-220 221 222 0
220 221 -222 0
220 -221 222 0
221 -594 -612 0
-221 594 0
-221 612 0
222 223 -224 0
222 -223 224 0
-222 -223 -224 0
-222 223 224 0
223 -593 -613 0
-223 593 0
-223 613 0
224 -592 -614 0
-224 592 0
-224 614 0
225 -226 227 0
225 226 -227 0
-225 226 227 0
-225 -226 -227 0
-226 182 185 0
-226 184 185 0
-226 182 184 0
226 -182 -184 0
226 -184 -185 0
226 -182 -185 0
-227 228 229 0
-227 -228 -229 0
227 -228 229 0
227 228 -229 0
-228 160 163 0
-228 162 163 0
-228 160 162 0
228 -160 -162 0
228 -162 -163 0
228 -160 -163 0
-229 612 169 0
-229 593 166 0
-229 166 169 0
-229 612 166 0
-229 593 169 0
229 -166 -169 0
229 -593 -612 -169 0
229 -593 -612 -166 0
230 -231 232 0
230 231 -232 0
-230 231 232 0
-230 -231 -232 0
-231 190 193 0
-231 192 193 0
-231 192 190 0
231 -192 -193 0
231 -192 -190 0
231 -190 -193 0
-232 233 274 0
-232 -233 -274 0
232 -233 274 0
232 233 -274 0
233 -234 247 0
233 234 -247 0
-233 234 247 0
-233 -234 -247 0
-234 -235 -244 0
-234 235 244 0
234 235 -244 0
234 -235 244 0
-235 -236 -241 0
-235 236 241 0
235 236 -241 0
235 -236 241 0
-236 -237 -238 0
-236 237 238 0
236 237 -238 0
236 -237 238 0
-237 210 213 0
-237 212 213 0
-237 210 212 0
237 -210 -212 0
237 -212 -213 0
237 -210 -213 0
238 -239 240 0
238 239 -240 0
-238 239 240 0
-238 -239 -240 0
-239 216 219 0
-239 218 219 0
-239 216 218 0
239 -216 -218 0
239 -218 -219 0
239 -216 -219 0
-240 221 224 0
-240 223 224 0
-240 221 223 0
240 -221 -223 0
240 -223 -224 0
240 -221 -224 0
241 -242 243 0
241 242 -243 0
-241 242 243 0
-241 -242 -243 0
-242 209 215 0
-242 215 220 0
-242 209 220 0
242 -209 -220 0
242 -215 -220 0
242 -209 -215 0
-243 226 228 0
-243 228 229 0
-243 226 229 0
243 -226 -229 0
243 -228 -229 0
243 -226 -228 0
244 -245 246 0
244 245 -246 0
-244 245 246 0
-244 -245 -246 0
245 -208 -225 0
-245 208 0
-245 225 0
-246 196 198 0
-246 198 199 0
-246 196 199 0
246 -198 -199 0
246 -196 -198 0
246 -196 -199 0
-247 -248 -249 0
-247 248 249 0
247 248 -249 0
247 -248 249 0
-248 195 204 0
-248 195 203 0
-248 203 204 0
248 -203 -204 0
248 -195 -204 0
248 -195 -203 0
249 250 -261 0
249 -250 261 0
-249 -250 -261 0
-249 250 261 0
250 -251 256 0
250 251 -256 0
-250 251 256 0
-250 -251 -256 0
-251 -252 -253 0
-251 252 253 0
251 252 -253 0
251 -252 253 0
252 -603 -604 0
-252 603 0
-252 604 0
253 254 -255 0
253 -254 255 0
-253 -254 -255 0
-253 254 255 0
254 -602 -605 0
-254 602 0
-254 605 0
255 -601 -606 0
-255 601 0
-255 606 0
-256 -257 -258 0
-256 257 258 0
256 257 -258 0
256 -257 258 0
257 -600 -607 0
-257 600 0
-257 607 0
258 259 -260 0
258 -259 260 0
-258 -259 -260 0
-258 259 260 0
259 -599 -608 0
-259 599 0
-259 608 0
260 -598 -609 0
-260 598 0
-260 609 0
261 -262 267 0
261 262 -267 0
-261 262 267 0
-261 -262 -267 0
-262 -263 -264 0
-262 263 264 0
262 263 -264 0
262 -263 264 0
263 -597 -610 0
-263 597 0
-263 610 0
264 265 -266 0
264 -265 266 0
-264 -265 -266 0
-264 265 266 0
265 -596 -611 0
-265 596 0
-265 611 0
266 -595 -612 0
-266 595 0
-266 612 0
-267 268 269 0
-267 -268 -269 0
267 -268 269 0
267 268 -269 0
268 -601 -602 -604 -605 0
-268 605 0
-268 601 0
-268 604 0
-268 602 0
-269 -270 -271 0
-269 270 271 0
269 270 -271 0
269 -270 271 0
270 -594 -613 0
-270 594 0
-270 613 0
271 272 -273 0
271 -272 273 0
-271 -272 -273 0
-271 272 273 0
272 -593 -614 0
-272 593 0
-272 614 0
273 -592 -615 0
-273 592 0
-273 615 0
-274 194 206 0
-274 206 207 0
-274 194 207 0
274 -206 -207 0
274 -194 -206 0
274 -194 -207 0
275 -276 277 0
275 276 -277 0
-275 276 277 0
-275 -276 -277 0
-276 231 274 0
-276 231 233 0
-276 233 274 0
276 -233 -274 0
276 -231 -274 0
276 -231 -233 0
-277 278 319 0
-277 -278 -319 0
277 -278 319 0
277 278 -319 0
278 -279 288 0
278 279 -288 0
-278 279 288 0
-278 -279 -288 0
-279 -280 -285 0
-279 280 285 0
279 280 -285 0
279 -280 285 0
-280 281 282 0
-280 -281 -282 0
280 -281 282 0
280 281 -282 0
281 -251 -256 0
-281 251 0
-281 256 0
-282 283 284 0
-282 -283 -284 0
282 -283 284 0
282 283 -284 0
-283 268 262 0
-283 262 269 0
-283 268 269 0
283 -262 -269 0
283 -268 -262 0
283 -268 -269 0
-284 237 239 0
-284 239 240 0
-284 237 240 0
284 -237 -240 0
284 -239 -240 0
284 -237 -239 0
285 -286 287 0
285 286 -287 0
-285 286 287 0
-285 -286 -287 0
286 -250 -261 0
-286 250 0
-286 261 0
-287 236 242 0
-287 242 243 0
-287 236 243 0
287 -236 -243 0
287 -242 -243 0
287 -236 -242 0
-288 -289 -290 0
-288 289 290 0
288 289 -290 0
288 -289 290 0
-289 245 235 0
-289 235 246 0
-289 245 246 0
289 -235 -246 0
289 -245 -235 0
289 -245 -246 0
290 291 -300 0
290 -291 300 0
-290 -291 -300 0
-290 291 300 0
291 -292 295 0
291 292 -295 0
-291 292 295 0
-291 -292 -295 0
292 293 -294 0
292 -293 294 0
-292 -293 -294 0
-292 293 294 0
293 -603 -605 0
-293 603 0
-293 605 0
294 -602 -606 0
-294 602 0
-294 606 0
-295 -296 -297 0
-295 296 297 0
295 296 -297 0
295 -296 297 0
296 -601 -607 0
-296 601 0
-296 607 0
297 298 -299 0
297 -298 299 0
-297 -298 -299 0
-297 298 299 0
298 -600 -608 0
-298 600 0
-298 608 0
299 -599 -609 0
-299 599 0
-299 609 0
300 301 -314 0
300 -301 314 0
-300 -301 -314 0
-300 301 314 0
301 -302 307 0
301 302 -307 0
-301 302 307 0
-301 -302 -307 0
-302 -303 -304 0
-302 303 304 0
302 303 -304 0
302 -303 304 0
303 -598 -610 0
-303 598 0
-303 610 0
304 305 -306 0
304 -305 306 0
-304 -305 -306 0
-304 305 306 0
305 -597 -611 0
-305 597 0
-305 611 0
306 -596 -612 0
-306 596 0
-306 612 0
-307 308 313 0
-307 -308 -313 0
307 -308 313 0
307 308 -313 0
-308 -309 -310 0
-308 309 310 0
308 309 -310 0
308 -309 310 0
309 -595 -613 0
-309 595 0
-309 613 0
310 311 -312 0
310 -311 312 0
-310 -311 -312 0
-310 311 312 0
311 -594 -614 0
-311 594 0
-311 614 0
312 -593 -615 0
-312 593 0
-312 615 0
-313 252 255 0
-313 254 255 0
-313 252 254 0
313 -252 -254 0
313 -254 -255 0
313 -252 -255 0
314 -315 316 0
314 315 -316 0
-314 315 316 0
-314 -315 -316 0
-315 257 260 0
-315 259 260 0
-315 257 259 0
315 -257 -259 0
315 -259 -260 0
315 -257 -260 0
-316 317 318 0
-316 -317 -318 0
316 -317 318 0
316 317 -318 0
-317 263 266 0
-317 265 266 0
-317 263 265 0
317 -263 -265 0
317 -265 -266 0
317 -263 -266 0
-318 270 273 0
-318 272 273 0
-318 270 272 0
318 -270 -272 0
318 -272 -273 0
318 -270 -273 0
-319 234 248 0
-319 248 249 0
-319 234 249 0
319 -248 -249 0
319 -234 -248 0
319 -234 -249 0
320 -321 322 0
320 321 -322 0
-320 321 322 0
-320 -321 -322 0
-321 276 319 0
-321 276 278 0
-321 278 319 0
321 -278 -319 0
321 -276 -319 0
321 -276 -278 0
-322 323 362 0
-322 -323 -362 0
322 -323 362 0
322 323 -362 0
323 -324 333 0
323 324 -333 0
-323 324 333 0
-323 -324 -333 0
-324 -325 -330 0
-324 325 330 0
324 325 -330 0
324 -325 330 0
-325 326 327 0
-325 -326 -327 0
325 -326 327 0
325 326 -327 0
326 -292 -295 0
-326 292 0
-326 295 0
-327 328 329 0
-327 -328 -329 0
327 -328 329 0
327 328 -329 0
-328 302 308 0
-328 308 313 0
-328 302 313 0
328 -302 -313 0
328 -308 -313 0
328 -302 -308 0
-329 315 317 0
-329 317 318 0
-329 315 318 0
329 -315 -318 0
329 -317 -318 0
329 -315 -317 0
330 -331 332 0
330 331 -332 0
-330 331 332 0
-330 -331 -332 0
-331 291 314 0
-331 301 314 0
-331 291 301 0
331 -291 -301 0
331 -301 -314 0
331 -291 -314 0
-332 281 283 0
-332 283 284 0
-332 281 284 0
332 -283 -284 0
332 -281 -283 0
332 -281 -284 0
-333 -334 -335 0
-333 334 335 0
333 334 -335 0
333 -334 335 0
-334 286 280 0
-334 280 287 0
-334 286 287 0
334 -280 -287 0
334 -286 -280 0
334 -286 -287 0
335 336 -347 0
335 -336 347 0
-335 -336 -347 0
-335 336 347 0
336 -337 342 0
336 337 -342 0
-336 337 342 0
-336 -337 -342 0
-337 -338 -339 0
-337 338 339 0
337 338 -339 0
337 -338 339 0
338 -602 -607 0
-338 602 0
-338 607 0
339 340 -341 0
339 -340 341 0
-339 -340 -341 0
-339 340 341 0
340 -601 -608 0
-340 601 0
-340 608 0
341 -600 -609 0
-341 600 0
-341 609 0
-342 -343 -344 0
-342 343 344 0
342 343 -344 0
342 -343 344 0
343 -599 -610 0
-343 599 0
-343 610 0
344 345 -346 0
344 -345 346 0
-344 -345 -346 0
-344 345 346 0
345 -598 -611 0
-345 598 0
-345 611 0
346 -597 -612 0
-346 597 0
-346 612 0
347 348 -357 0
347 -348 357 0
-347 -348 -357 0
-347 348 357 0
348 349 -354 0
348 -349 354 0
-348 -349 -354 0
-348 349 354 0
-349 -350 -351 0
-349 350 351 0
349 350 -351 0
349 -350 351 0
350 -596 -613 0
-350 596 0
-350 613 0
351 352 -353 0
351 -352 353 0
-351 -352 -353 0
-351 352 353 0
352 -595 -614 0
-352 595 0
-352 614 0
353 -594 -615 0
-353 594 0
-353 615 0
354 -355 356 0
354 355 -356 0
-354 355 356 0
-354 -355 -356 0
355 -602 -603 -605 -606 0
-355 606 0
-355 602 0
-355 605 0
-355 603 0
-356 296 299 0
-356 298 299 0
-356 296 298 0
356 -296 -298 0
356 -298 -299 0
356 -296 -299 0
357 -358 359 0
357 358 -359 0
-357 358 359 0
-357 -358 -359 0
-358 303 306 0
-358 305 306 0
-358 303 305 0
358 -303 -305 0
358 -305 -306 0
358 -303 -306 0
-359 -360 -361 0
-359 360 361 0
359 360 -361 0
359 -360 361 0
-360 309 312 0
-360 311 312 0
-360 309 311 0
360 -309 -311 0
360 -311 -312 0
360 -309 -312 0
361 -603 -606 0
-361 603 0
-361 606 0
-362 279 289 0
-362 289 290 0
-362 279 290 0
362 -289 -290 0
362 -279 -289 0
362 -279 -290 0
363 -364 365 0
363 364 -365 0
-363 364 365 0
-363 -364 -365 0
-364 321 362 0
-364 321 323 0
-364 323 362 0
364 -323 -362 0
364 -321 -362 0
364 -321 -323 0
-365 366 401 0
-365 -366 -401 0
365 -366 401 0
365 366 -401 0
366 -367 376 0
366 367 -376 0
-366 367 376 0
-366 -367 -376 0
-367 -368 -373 0
-367 368 373 0
367 368 -373 0
367 -368 373 0
-368 369 370 0
-368 -369 -370 0
368 -369 370 0
368 369 -370 0
369 -337 -342 0
-369 337 0
-369 342 0
-370 371 372 0
-370 -371 -372 0
370 -371 372 0
370 371 -372 0
-371 355 349 0
-371 349 356 0
-371 355 356 0
371 -349 -356 0
371 -355 -349 0
371 -355 -356 0
-372 358 360 0
-372 360 361 0
-372 358 361 0
372 -360 -361 0
372 -358 -360 0
372 -358 -361 0
373 -374 375 0
373 374 -375 0
-373 374 375 0
-373 -374 -375 0
-374 336 357 0
-374 348 357 0
-374 336 348 0
374 -336 -348 0
374 -348 -357 0
374 -336 -357 0
-375 326 328 0
-375 328 329 0
-375 326 329 0
375 -328 -329 0
375 -326 -328 0
375 -326 -329 0
-376 -377 -378 0
-376 377 378 0
376 377 -378 0
376 -377 378 0
-377 325 331 0
-377 331 332 0
-377 325 332 0
377 -325 -332 0
377 -331 -332 0
377 -325 -331 0
378 379 -396 0
378 -379 396 0
-378 -379 -396 0
-378 379 396 0
-379 -380 -385 0
-379 380 385 0
379 380 -385 0
379 -380 385 0
-380 -381 -382 0
-380 381 382 0
380 381 -382 0
380 -381 382 0
381 -603 -607 0
-381 603 0
-381 607 0
382 383 -384 0
382 -383 384 0
-382 -383 -384 0
-382 383 384 0
383 -602 -608 0
-383 602 0
-383 608 0
384 -601 -609 0
-384 601 0
-384 609 0
385 -386 391 0
385 386 -391 0
-385 386 391 0
-385 -386 -391 0
-386 -387 -388 0
-386 387 388 0
386 387 -388 0
386 -387 388 0
387 -600 -610 0
-387 600 0
-387 610 0
388 389 -390 0
388 -389 390 0
-388 -389 -390 0
-388 389 390 0
389 -599 -611 0
-389 599 0
-389 611 0
390 -598 -612 0
-390 598 0
-390 612 0
-391 -392 -393 0
-391 392 393 0
391 392 -393 0
391 -392 393 0
392 -597 -613 0
-392 597 0
-392 613 0
393 394 -395 0
393 -394 395 0
-393 -394 -395 0
-393 394 395 0
394 -596 -614 0
-394 596 0
-394 614 0
395 -595 -615 0
-395 595 0
-395 615 0
396 -397 398 0
396 397 -398 0
-396 397 398 0
-396 -397 -398 0
-397 338 341 0
-397 340 341 0
-397 338 340 0
397 -338 -340 0
397 -340 -341 0
397 -338 -341 0
-398 399 400 0
-398 -399 -400 0
398 -399 400 0
398 399 -400 0
-399 343 346 0
-399 345 346 0
-399 343 345 0
399 -343 -345 0
399 -345 -346 0
399 -343 -346 0
-400 350 353 0
-400 352 353 0
-400 350 352 0
400 -350 -352 0
400 -352 -353 0
400 -350 -353 0
-401 324 334 0
-401 334 335 0
-401 324 335 0
401 -334 -335 0
401 -324 -334 0
401 -324 -335 0
402 -403 404 0
402 403 -404 0
-402 403 404 0
-402 -403 -404 0
-403 364 401 0
-403 364 366 0
-403 366 401 0
403 -366 -401 0
403 -364 -401 0
403 -364 -366 0
-404 405 436 0
-404 -405 -436 0
404 -405 436 0
404 405 -436 0
405 -406 425 0
405 406 -425 0
-405 406 425 0
-405 -406 -425 0
-406 407 408 0
-406 -407 -408 0
406 -407 408 0
406 407 -408 0
407 -379 -396 0
-407 379 0
-407 396 0
-408 -409 -410 0
-408 409 410 0
408 409 -410 0
408 -409 410 0
-409 369 371 0
-409 371 372 0
-409 369 372 0
409 -371 -372 0
409 -369 -371 0
409 -369 -372 0
410 411 -414 0
410 -411 414 0
-410 -411 -414 0
-410 411 414 0
411 412 -413 0
411 -412 413 0
-411 -412 -413 0
-411 412 413 0
412 -603 -608 0
-412 603 0
-412 608 0
413 -602 -609 0
-413 602 0
-413 609 0
414 -415 420 0
414 415 -420 0
-414 415 420 0
-414 -415 -420 0
-415 -416 -417 0
-415 416 417 0
415 416 -417 0
415 -416 417 0
416 -601 -610 0
-416 601 0
-416 610 0
417 418 -419 0
417 -418 419 0
-417 -418 -419 0
-417 418 419 0
418 -600 -611 0
-418 600 0
-418 611 0
419 -599 -612 0
-419 599 0
-419 612 0
-420 -421 -422 0
-420 421 422 0
420 421 -422 0
420 -421 422 0
421 -598 -613 0
-421 598 0
-421 613 0
422 423 -424 0
422 -423 424 0
-422 -423 -424 0
-422 423 424 0
423 -597 -614 0
-423 597 0
-423 614 0
424 -596 -615 0
-424 596 0
-424 615 0
-425 -426 -427 0
-425 426 427 0
425 426 -427 0
425 -426 427 0
-426 368 374 0
-426 374 375 0
-426 368 375 0
426 -368 -375 0
426 -374 -375 0
426 -368 -374 0
427 -428 433 0
427 428 -433 0
-427 428 433 0
-427 -428 -433 0
-428 -429 -430 0
-428 429 430 0
428 429 -430 0
428 -429 430 0
-429 608 384 0
-429 602 381 0
-429 381 384 0
-429 608 381 0
-429 602 384 0
429 -381 -384 0
429 -602 -608 -384 0
429 -602 -608 -381 0
430 -431 432 0
430 431 -432 0
-430 431 432 0
-430 -431 -432 0
-431 387 390 0
-431 389 390 0
-431 387 389 0
431 -387 -389 0
431 -389 -390 0
431 -387 -390 0
-432 392 395 0
-432 394 395 0
-432 392 394 0
432 -392 -394 0
432 -394 -395 0
432 -392 -395 0
-433 434 435 0
-433 -434 -435 0
433 -434 435 0
433 434 -435 0
-434 380 386 0
-434 386 391 0
-434 380 391 0
434 -380 -391 0
434 -386 -391 0
434 -380 -386 0
-435 397 399 0
-435 399 400 0
-435 397 400 0
435 -397 -400 0
435 -399 -400 0
435 -397 -399 0
-436 367 377 0
-436 377 378 0
-436 367 378 0
436 -377 -378 0
436 -367 -377 0
436 -367 -378 0
437 -438 439 0
437 438 -439 0
-437 438 439 0
-437 -438 -439 0
-438 403 436 0
-438 403 405 0
-438 405 436 0
438 -405 -436 0
438 -403 -436 0
438 -403 -405 0
-439 440 467 0
-439 -440 -467 0
439 -440 467 0
439 440 -467 0
440 -441 466 0
440 441 -466 0
-440 441 466 0
-440 -441 -466 0
-441 -442 -451 0
-441 442 451 0
441 442 -451 0
441 -442 451 0
-442 -443 -448 0
-442 443 448 0
442 443 -448 0
442 -443 448 0
-443 -444 -445 0
-443 444 445 0
443 444 -445 0
443 -444 445 0
-444 416 419 0
-444 418 419 0
-444 416 418 0
444 -416 -418 0
444 -418 -419 0
444 -416 -419 0
445 446 -447 0
445 -446 447 0
-445 -446 -447 0
-445 446 447 0
-446 421 424 0
-446 423 424 0
-446 421 423 0
446 -421 -423 0
446 -423 -424 0
446 -421 -424 0
447 -603 -609 0
-447 603 0
-447 609 0
448 -449 450 0
448 449 -450 0
-448 449 450 0
-448 -449 -450 0
-449 411 415 0
-449 415 420 0
-449 411 420 0
449 -415 -420 0
449 -411 -415 0
449 -411 -420 0
-450 429 431 0
-450 431 432 0
-450 429 432 0
450 -429 -432 0
450 -431 -432 0
450 -429 -431 0
451 452 -453 0
451 -452 453 0
-451 -452 -453 0
-451 452 453 0
-452 428 434 0
-452 434 435 0
-452 428 435 0
452 -428 -435 0
452 -434 -435 0
452 -428 -434 0
453 -454 459 0
453 454 -459 0
-453 454 459 0
-453 -454 -459 0
-454 -455 -456 0
-454 455 456 0
454 455 -456 0
454 -455 456 0
455 -602 -610 0
-455 602 0
-455 610 0
456 457 -458 0
456 -457 458 0
-456 -457 -458 0
-456 457 458 0
457 -601 -611 0
-457 601 0
-457 611 0
458 -600 -612 0
-458 600 0
-458 612 0
-459 460 461 0
-459 -460 -461 0
459 -460 461 0
459 460 -461 0
460 -602 -603 -608 -609 0
-460 609 0
-460 602 0
-460 608 0
-460 603 0
-461 -462 -463 0
-461 462 463 0
461 462 -463 0
461 -462 463 0
462 -599 -613 0
-462 599 0
-462 613 0
463 464 -465 0
463 -464 465 0
-463 -464 -465 0
-463 464 465 0
464 -598 -614 0
-464 598 0
-464 614 0
465 -597 -615 0
-465 597 0
-465 615 0
-466 409 410 0
-466 407 410 0
-466 407 409 0
466 -407 -410 0
466 -407 -409 0
466 -409 -410 0
-467 406 426 0
-467 426 427 0
-467 406 427 0
467 -426 -427 0
467 -406 -426 0
467 -406 -427 0
468 -469 470 0
468 469 -470 0
-468 469 470 0
-468 -469 -470 0
-469 438 467 0
-469 438 440 0
-469 440 467 0
469 -440 -467 0
469 -438 -467 0
469 -438 -440 0
-470 -471 -472 0
-470 471 472 0
470 471 -472 0
470 -471 472 0
471 -441 -466 0
-471 441 0
-471 466 0
472 -473 494 0
472 473 -494 0
-472 473 494 0
-472 -473 -494 0
-473 -474 -483 0
-473 474 483 0
473 474 -483 0
473 -474 483 0
-474 -475 -476 0
-474 475 476 0
474 475 -476 0
474 -475 476 0
-475 460 454 0
-475 454 461 0
-475 460 461 0
475 -454 -461 0
475 -460 -454 0
475 -460 -461 0
476 -477 478 0
476 477 -478 0
-476 477 478 0
-476 -477 -478 0
-477 444 446 0
-477 446 447 0
-477 444 447 0
477 -446 -447 0
477 -444 -446 0
477 -444 -447 0
-478 -479 -480 0
-478 479 480 0
478 479 -480 0
478 -479 480 0
479 -603 -610 0
-479 603 0
-479 610 0
480 481 -482 0
480 -481 482 0
-480 -481 -482 0
-480 481 482 0
481 -602 -611 0
-481 602 0
-481 611 0
482 -601 -612 0
-482 601 0
-482 612 0
483 484 -485 0
483 -484 485 0
-483 -484 -485 0
-483 484 485 0
-484 443 449 0
-484 449 450 0
-484 443 450 0
484 -443 -450 0
484 -449 -450 0
484 -443 -449 0
485 -486 491 0
485 486 -491 0
-485 486 491 0
-485 -486 -491 0
-486 -487 -488 0
-486 487 488 0
486 487 -488 0
486 -487 488 0
487 -600 -613 0
-487 600 0
-487 613 0
488 489 -490 0
488 -489 490 0
-488 -489 -490 0
-488 489 490 0
489 -599 -614 0
-489 599 0
-489 614 0
490 -598 -615 0
-490 598 0
-490 615 0
-491 492 493 0
-491 -492 -493 0
491 -492 493 0
491 492 -493 0
-492 455 458 0
-492 457 458 0
-492 455 457 0
492 -455 -457 0
492 -457 -458 0
492 -455 -458 0
-493 462 465 0
-493 464 465 0
-493 462 464 0
493 -462 -464 0
493 -464 -465 0
493 -462 -465 0
-494 442 452 0
-494 452 453 0
-494 442 453 0
494 -452 -453 0
494 -442 -452 0
494 -442 -453 0
495 -496 497 0
495 496 -497 0
-495 496 497 0
-495 -496 -497 0
-496 469 472 0
-496 471 472 0
-496 471 469 0
496 -471 -472 0
496 -471 -469 0
496 -469 -472 0
-497 -498 -499 0
-497 498 499 0
497 498 -499 0
497 -498 499 0
498 -473 -494 0
-498 473 0
-498 494 0
499 -500 517 0
499 500 -517 0
-499 500 517 0
-499 -500 -517 0
-500 501 516 0
-500 -501 -516 0
500 -501 516 0
500 501 -516 0
-501 -502 -511 0
-501 502 511 0
501 502 -511 0
501 -502 511 0
-502 -503 -508 0
-502 503 508 0
502 503 -508 0
502 -503 508 0
-503 -504 -505 0
-503 504 505 0
503 504 -505 0
503 -504 505 0
504 -601 -613 0
-504 601 0
-504 613 0
505 506 -507 0
505 -506 507 0
-505 -506 -507 0
-505 506 507 0
506 -600 -614 0
-506 600 0
-506 614 0
507 -599 -615 0
-507 599 0
-507 615 0
508 -509 510 0
508 509 -510 0
-508 509 510 0
-508 -509 -510 0
-509 479 482 0
-509 481 482 0
-509 479 481 0
509 -479 -481 0
509 -481 -482 0
509 -479 -482 0
-510 487 490 0
-510 489 490 0
-510 487 489 0
510 -487 -489 0
510 -489 -490 0
510 -487 -490 0
511 512 -513 0
511 -512 513 0
-511 -512 -513 0
-511 512 513 0
-512 486 492 0
-512 492 493 0
-512 486 493 0
512 -486 -493 0
512 -492 -493 0
512 -486 -492 0
513 514 -515 0
513 -514 515 0
-513 -514 -515 0
-513 514 515 0
514 -603 -611 0
-514 603 0
-514 611 0
515 -602 -612 0
-515 602 0
-515 612 0
-516 475 477 0
-516 477 478 0
-516 475 478 0
516 -475 -478 0
516 -477 -478 0
516 -475 -477 0
-517 474 484 0
-517 484 485 0
-517 474 485 0
517 -484 -485 0
517 -474 -484 0
517 -474 -485 0
518 -519 520 0
518 519 -520 0
-518 519 520 0
-518 -519 -520 0
-519 496 499 0
-519 498 499 0
-519 498 496 0
519 -498 -499 0
519 -498 -496 0
519 -496 -499 0
-520 521 522 0
-520 -521 -522 0
520 -521 522 0
520 521 -522 0
521 -500 -517 0
-521 500 0
-521 517 0
-522 -523 -538 0
-522 523 538 0
522 523 -538 0
522 -523 538 0
-523 524 537 0
-523 -524 -537 0
523 -524 537 0
523 524 -537 0
-524 -525 -530 0
-524 525 530 0
524 525 -530 0
524 -525 530 0
-525 526 527 0
-525 -526 -527 0
525 -526 527 0
525 526 -527 0
526 -602 -603 -611 -612 0
-526 612 0
-526 602 0
-526 611 0
-526 603 0
-527 -528 -529 0
-527 528 529 0
527 528 -529 0
527 -528 529 0
-528 504 507 0
-528 506 507 0
-528 504 506 0
528 -504 -506 0
528 -506 -507 0
528 -504 -507 0
529 -603 -612 0
-529 603 0
-529 612 0
530 -531 532 0
530 531 -532 0
-530 531 532 0
-530 -531 -532 0
-531 503 509 0
-531 509 510 0
-531 503 510 0
531 -503 -510 0
531 -509 -510 0
531 -503 -509 0
-532 -533 -534 0
-532 533 534 0
532 533 -534 0
532 -533 534 0
533 -602 -613 0
-533 602 0
-533 613 0
534 535 -536 0
534 -535 536 0
-534 -535 -536 0
-534 535 536 0
535 -601 -614 0
-535 601 0
-535 614 0
536 -600 -615 0
-536 600 0
-536 615 0
-537 502 512 0
-537 512 513 0
-537 502 513 0
537 -512 -513 0
537 -502 -512 0
537 -502 -513 0
538 -501 -516 0
-538 501 0
-538 516 0
539 -540 541 0
539 540 -541 0
-539 540 541 0
-539 -540 -541 0
-540 521 519 0
-540 519 522 0
-540 521 522 0
540 -519 -522 0
540 -521 -519 0
540 -521 -522 0
-541 -542 -555 0
-541 542 555 0
541 542 -555 0
541 -542 555 0
-542 -543 -554 0
-542 543 554 0
542 543 -554 0
542 -543 554 0
-543 544 553 0
-543 -544 -553 0
543 -544 553 0
543 544 -553 0
-544 545 552 0
-544 -545 -552 0
544 -545 552 0
544 545 -552 0
-545 546 551 0
-545 -546 -551 0
545 -546 551 0
545 546 -551 0
-546 -547 -548 0
-546 547 548 0
546 547 -548 0
546 -547 548 0
547 -603 -613 0
-547 603 0
-547 613 0
548 549 -550 0
548 -549 550 0
-548 -549 -550 0
-548 549 550 0
549 -602 -614 0
-549 602 0
-549 614 0
550 -601 -615 0
-550 601 0
-550 615 0
-551 533 536 0
-551 535 536 0
-551 533 535 0
551 -533 -535 0
551 -535 -536 0
551 -533 -536 0
-552 528 529 0
-552 526 529 0
-552 526 528 0
552 -526 -529 0
552 -526 -528 0
552 -528 -529 0
-553 525 531 0
-553 531 532 0
-553 525 532 0
553 -525 -532 0
553 -531 -532 0
553 -525 -531 0
554 -524 -537 0
-554 524 0
-554 537 0
555 -523 -538 0
-555 523 0
-555 538 0
556 -557 558 0
556 557 -558 0
-556 557 558 0
-556 -557 -558 0
-557 540 542 0
-557 542 555 0
-557 540 555 0
557 -542 -555 0
557 -540 -542 0
557 -540 -555 0
-558 -559 -570 0
-558 559 570 0
558 559 -570 0
558 -559 570 0
-559 -560 -569 0
-559 560 569 0
559 560 -569 0
559 -560 569 0
-560 -561 -568 0
-560 561 568 0
560 561 -568 0
560 -561 568 0
-561 -562 -567 0
-561 562 567 0
561 562 -567 0
561 -562 567 0
-562 563 566 0
-562 -563 -566 0
562 -563 566 0
562 563 -566 0
563 564 -565 0
563 -564 565 0
-563 -564 -565 0
-563 564 565 0
564 -603 -614 0
-564 603 0
-564 614 0
565 -602 -615 0
-565 602 0
-565 615 0
-566 547 550 0
-566 549 550 0
-566 547 549 0
566 -547 -549 0
566 -549 -550 0
566 -547 -550 0
567 -546 -551 0
-567 546 0
-567 551 0
568 -545 -552 0
-568 545 0
-568 552 0
569 -544 -553 0
-569 544 0
-569 553 0
570 -543 -554 0
-570 543 0
-570 554 0
571 -572 573 0
571 572 -573 0
-571 572 573 0
-571 -572 -573 0
-572 557 559 0
-572 559 570 0
-572 557 570 0
572 -559 -570 0
572 -557 -559 0
572 -557 -570 0
-573 -574 -582 0
-573 574 582 0
573 574 -582 0
573 -574 582 0
-574 -575 -581 0
-574 575 581 0
574 575 -581 0
574 -575 581 0
-575 -576 -580 0
-575 576 580 0
575 576 -580 0
575 -576 580 0
-576 -577 -579 0
-576 577 579 0
576 577 -579 0
576 -577 579 0
-577 578 0
577 -578 0
578 602 -603 -615 0
578 -603 614 -615 0
-578 615 0
-578 603 0
-578 -602 -614 0
579 -563 -566 0
-579 563 0
-579 566 0
580 -562 -567 0
-580 562 0
-580 567 0
581 -561 -568 0
-581 561 0
-581 568 0
582 -560 -569 0
-582 560 0
-582 569 0
583 -584 585 0
583 584 -585 0
-583 584 585 0
-583 -584 -585 0
-584 572 574 0
-584 574 582 0
-584 572 582 0
584 -574 -582 0
584 -572 -574 0
584 -572 -582 0
-585 -586 -591 0
-585 586 591 0
585 586 -591 0
585 -586 591 0
-586 -587 -590 0
-586 587 590 0
586 587 -590 0
586 -587 590 0
-587 -588 -589 0
-587 588 589 0
587 588 -589 0
587 -588 589 0
588 -577 -579 0
-588 577 0
-588 579 0
589 -602 -603 -614 -615 0
-589 615 0
-589 602 0
-589 614 0
-589 603 0
590 -576 -580 0
-590 576 0
-590 580 0
591 -575 -581 0
-591 575 0
-591 581 0
-616 0
2 0
3 0
6 0
13 0
24 0
39 0
60 0
85 0
116 0
152 0
189 0
230 0
275 0
320 0
363 0
402 0
437 0
468 0
495 0
518 0
539 0
556 0
571 0
583 0

