c Result of efficient AIG-to-CNF conversion using package CNF
p cnf 242 946
2 -226 -234 0
-2 226 0
-2 234 0
-3 -4 -5 0
-3 4 5 0
3 4 -5 0
3 -4 5 0
4 -227 -234 0
-4 227 0
-4 234 0
5 -226 -235 0
-5 226 0
-5 235 0
6 7 -8 0
6 -7 8 0
-6 -7 -8 0
-6 7 8 0
7 -228 -234 0
-7 228 0
-7 234 0
8 -9 10 0
8 9 -10 0
-8 9 10 0
-8 -9 -10 0
9 -227 -235 0
-9 227 0
-9 235 0
-10 -11 -12 0
-10 11 12 0
10 11 -12 0
10 -11 12 0
11 -226 -236 0
-11 226 0
-11 236 0
12 -226 -227 -234 -235 0
-12 235 0
-12 226 0
-12 234 0
-12 227 0
13 14 -15 0
13 -14 15 0
-13 -14 -15 0
-13 14 15 0
14 -229 -234 0
-14 229 0
-14 234 0
15 -16 17 0
15 16 -17 0
-15 16 17 0
-15 -16 -17 0
16 -228 -235 0
-16 228 0
-16 235 0
-17 -18 -19 0
-17 18 19 0
17 18 -19 0
17 -18 19 0
18 -228 -234 -8 0
-18 228 0
-18 234 0
-18 8 0
19 20 -21 0
19 -20 21 0
-19 -20 -21 0
-19 20 21 0
20 -227 -236 0
-20 227 0
-20 236 0
21 -22 23 0
21 22 -23 0
-21 22 23 0
-21 -22 -23 0
22 -226 -237 0
-22 226 0
-22 237 0
-23 9 12 0
-23 11 12 0
-23 9 11 0
23 -9 -11 0
23 -11 -12 0
23 -9 -12 0
24 25 -26 0
24 -25 26 0
-24 -25 -26 0
-24 25 26 0
25 -230 -234 0
-25 230 0
-25 234 0
26 -27 28 0
26 27 -28 0
-26 27 28 0
-26 -27 -28 0
27 -229 -235 0
-27 229 0
-27 235 0
-28 29 30 0
-28 -29 -30 0
28 -29 30 0
28 29 -30 0
29 -229 -234 -15 0
-29 229 0
-29 234 0
-29 15 0
-30 31 32 0
-30 -31 -32 0
30 -31 32 0
30 31 -32 0
31 -228 -236 0
-31 228 0
-31 236 0
-32 33 38 0
-32 -33 -38 0
32 -33 38 0
32 33 -38 0
-33 -34 -35 0
-33 34 35 0
33 34 -35 0
33 -34 35 0
34 -227 -237 0
-34 227 0
-34 237 0
35 -36 37 0
35 36 -37 0
-35 36 37 0
-35 -36 -37 0
36 -226 -238 0
-36 226 0
-36 238 0
-37 22 23 0
-37 20 22 0
-37 20 23 0
37 -20 -22 0
37 -22 -23 0
37 -20 -23 0
-38 18 19 0
-38 16 19 0
-38 18 16 0
38 -18 -16 0
38 -16 -19 0
38 -18 -19 0
39 40 -41 0
39 -40 41 0
-39 -40 -41 0
-39 40 41 0
40 -231 -234 0
-40 231 0
-40 234 0
41 -42 43 0
41 42 -43 0
-41 42 43 0
-41 -42 -43 0
42 -230 -235 0
-42 230 0
-42 235 0
-43 44 45 0
-43 -44 -45 0
43 -44 45 0
43 44 -45 0
44 -230 -234 -26 0
-44 230 0
-44 234 0
-44 26 0
-45 46 47 0
-45 -46 -47 0
45 -46 47 0
45 46 -47 0
46 -229 -236 0
-46 229 0
-46 236 0
-47 48 57 0
-47 -48 -57 0
47 -48 57 0
47 48 -57 0
-48 49 50 0
-48 -49 -50 0
48 -49 50 0
48 49 -50 0
49 -228 -237 0
-49 228 0
-49 237 0
-50 51 56 0
-50 -51 -56 0
50 -51 56 0
50 51 -56 0
-51 -52 -53 0
-51 52 53 0
51 52 -53 0
51 -52 53 0
52 -227 -238 0
-52 227 0
-52 238 0
53 -54 55 0
53 54 -55 0
-53 54 55 0
-53 -54 -55 0
54 -226 -239 0
-54 226 0
-54 239 0
-55 36 37 0
-55 34 36 0
-55 34 37 0
55 -34 -36 0
55 -36 -37 0
55 -34 -37 0
-56 31 33 0
-56 33 38 0
-56 31 38 0
56 -33 -38 0
56 -31 -33 0
56 -31 -38 0
-57 27 30 0
-57 29 27 0
-57 29 30 0
57 -29 -27 0
57 -27 -30 0
57 -29 -30 0
58 59 -60 0
58 -59 60 0
-58 -59 -60 0
-58 59 60 0
59 -232 -234 0
-59 232 0
-59 234 0
60 -61 62 0
60 61 -62 0
-60 61 62 0
-60 -61 -62 0
61 -231 -235 0
-61 231 0
-61 235 0
-62 63 64 0
-62 -63 -64 0
62 -63 64 0
62 63 -64 0
63 -231 -234 -41 0
-63 231 0
-63 234 0
-63 41 0
-64 65 66 0
-64 -65 -66 0
64 -65 66 0
64 65 -66 0
65 -230 -236 0
-65 230 0
-65 236 0
-66 67 80 0
-66 -67 -80 0
66 -67 80 0
66 67 -80 0
-67 68 69 0
-67 -68 -69 0
67 -68 69 0
67 68 -69 0
68 -229 -237 0
-68 229 0
-68 237 0
-69 70 79 0
-69 -70 -79 0
69 -70 79 0
69 70 -79 0
-70 71 72 0
-70 -71 -72 0
70 -71 72 0
70 71 -72 0
71 -228 -238 0
-71 228 0
-71 238 0
-72 73 78 0
-72 -73 -78 0
72 -73 78 0
72 73 -78 0
-73 -74 -75 0
-73 74 75 0
73 74 -75 0
73 -74 75 0
74 -227 -239 0
-74 227 0
-74 239 0
75 -76 77 0
75 76 -77 0
-75 76 77 0
-75 -76 -77 0
76 -226 -240 0
-76 226 0
-76 240 0
-77 54 55 0
-77 52 54 0
-77 52 55 0
77 -52 -54 0
77 -54 -55 0
77 -52 -55 0
-78 49 51 0
-78 51 56 0
-78 49 56 0
78 -51 -56 0
78 -49 -51 0
78 -49 -56 0
-79 46 48 0
-79 48 57 0
-79 46 57 0
79 -48 -57 0
79 -46 -48 0
79 -46 -57 0
-80 42 45 0
-80 44 42 0
-80 44 45 0
80 -44 -42 0
80 -42 -45 0
80 -44 -45 0
81 82 -83 0
81 -82 83 0
-81 -82 -83 0
-81 82 83 0
82 -233 -234 0
-82 233 0
-82 234 0
83 84 -85 0
83 -84 85 0
-83 -84 -85 0
-83 84 85 0
84 -232 -235 0
-84 232 0
-84 235 0
85 86 -87 0
85 -86 87 0
-85 -86 -87 0
-85 86 87 0
86 -232 -234 -60 0
-86 232 0
-86 234 0
-86 60 0
87 -88 89 0
87 88 -89 0
-87 88 89 0
-87 -88 -89 0
88 -231 -236 0
-88 231 0
-88 236 0
-89 90 107 0
-89 -90 -107 0
89 -90 107 0
89 90 -107 0
-90 91 92 0
-90 -91 -92 0
90 -91 92 0
90 91 -92 0
91 -230 -237 0
-91 230 0
-91 237 0
-92 93 106 0
-92 -93 -106 0
92 -93 106 0
92 93 -106 0
-93 94 95 0
-93 -94 -95 0
93 -94 95 0
93 94 -95 0
94 -229 -238 0
-94 229 0
-94 238 0
-95 96 105 0
-95 -96 -105 0
95 -96 105 0
95 96 -105 0
-96 97 98 0
-96 -97 -98 0
96 -97 98 0
96 97 -98 0
97 -228 -239 0
-97 228 0
-97 239 0
-98 99 104 0
-98 -99 -104 0
98 -99 104 0
98 99 -104 0
-99 -100 -101 0
-99 100 101 0
99 100 -101 0
99 -100 101 0
100 -227 -240 0
-100 227 0
-100 240 0
101 -102 103 0
101 102 -103 0
-101 102 103 0
-101 -102 -103 0
102 -226 -241 0
-102 226 0
-102 241 0
-103 76 77 0
-103 74 76 0
-103 74 77 0
103 -74 -76 0
103 -76 -77 0
103 -74 -77 0
-104 71 73 0
-104 73 78 0
-104 71 78 0
104 -73 -78 0
104 -71 -73 0
104 -71 -78 0
-105 68 70 0
-105 70 79 0
-105 68 79 0
105 -70 -79 0
105 -68 -70 0
105 -68 -79 0
-106 65 67 0
-106 67 80 0
-106 65 80 0
106 -67 -80 0
106 -65 -67 0
106 -65 -80 0
-107 61 64 0
-107 63 61 0
-107 63 64 0
107 -63 -61 0
107 -61 -64 0
107 -63 -64 0
108 -109 110 0
108 109 -110 0
-108 109 110 0
-108 -109 -110 0
109 -233 -235 0
-109 233 0
-109 235 0
-110 111 112 0
-110 -111 -112 0
110 -111 112 0
110 111 -112 0
111 -232 -236 0
-111 232 0
-111 236 0
-112 113 114 0
-112 -113 -114 0
112 -113 114 0
112 113 -114 0
113 -233 -234 -83 0
-113 233 0
-113 234 0
-113 83 0
-114 115 116 0
-114 -115 -116 0
114 -115 116 0
114 115 -116 0
115 -231 -237 0
-115 231 0
-115 237 0
-116 117 134 0
-116 -117 -134 0
116 -117 134 0
116 117 -134 0
-117 118 119 0
-117 -118 -119 0
117 -118 119 0
117 118 -119 0
118 -230 -238 0
-118 230 0
-118 238 0
-119 120 133 0
-119 -120 -133 0
119 -120 133 0
119 120 -133 0
-120 121 122 0
-120 -121 -122 0
120 -121 122 0
120 121 -122 0
121 -229 -239 0
-121 229 0
-121 239 0
-122 123 132 0
-122 -123 -132 0
122 -123 132 0
122 123 -132 0
-123 124 125 0
-123 -124 -125 0
123 -124 125 0
123 124 -125 0
124 -228 -240 0
-124 228 0
-124 240 0
-125 126 131 0
-125 -126 -131 0
125 -126 131 0
125 126 -131 0
-126 127 128 0
-126 -127 -128 0
126 -127 128 0
126 127 -128 0
127 -227 -241 0
-127 227 0
-127 241 0
-128 129 130 0
-128 -129 -130 0
128 -129 130 0
128 129 -130 0
-129 102 103 0
-129 100 102 0
-129 100 103 0
129 -100 -102 0
129 -102 -103 0
129 -100 -103 0
-130 97 99 0
-130 99 104 0
-130 97 104 0
130 -99 -104 0
130 -97 -99 0
130 -97 -104 0
-131 94 96 0
-131 96 105 0
-131 94 105 0
131 -96 -105 0
131 -94 -96 0
131 -94 -105 0
-132 91 93 0
-132 93 106 0
-132 91 106 0
132 -93 -106 0
132 -91 -93 0
132 -91 -106 0
-133 88 90 0
-133 90 107 0
-133 88 107 0
133 -90 -107 0
133 -88 -90 0
133 -88 -107 0
-134 86 87 0
-134 84 87 0
-134 86 84 0
134 -86 -84 0
134 -84 -87 0
134 -86 -87 0
135 136 -137 0
135 -136 137 0
-135 -136 -137 0
-135 136 137 0
136 -233 -235 -110 0
-136 233 0
-136 235 0
-136 110 0
137 138 -139 0
137 -138 139 0
-137 -138 -139 0
-137 138 139 0
138 -233 -236 0
-138 233 0
-138 236 0
139 -140 141 0
139 140 -141 0
-139 140 141 0
-139 -140 -141 0
140 -232 -237 0
-140 232 0
-140 237 0
-141 142 159 0
-141 -142 -159 0
141 -142 159 0
141 142 -159 0
-142 143 144 0
-142 -143 -144 0
142 -143 144 0
142 143 -144 0
143 -231 -238 0
-143 231 0
-143 238 0
-144 145 158 0
-144 -145 -158 0
144 -145 158 0
144 145 -158 0
-145 146 147 0
-145 -146 -147 0
145 -146 147 0
145 146 -147 0
146 -230 -239 0
-146 230 0
-146 239 0
-147 148 157 0
-147 -148 -157 0
147 -148 157 0
147 148 -157 0
-148 149 150 0
-148 -149 -150 0
148 -149 150 0
148 149 -150 0
149 -229 -240 0
-149 229 0
-149 240 0
-150 151 156 0
-150 -151 -156 0
150 -151 156 0
150 151 -156 0
-151 152 153 0
-151 -152 -153 0
151 -152 153 0
151 152 -153 0
152 -228 -241 0
-152 228 0
-152 241 0
-153 154 155 0
-153 -154 -155 0
153 -154 155 0
153 154 -155 0
-154 127 129 0
-154 129 130 0
-154 127 130 0
154 -129 -130 0
154 -127 -129 0
154 -127 -130 0
-155 124 126 0
-155 126 131 0
-155 124 131 0
155 -126 -131 0
155 -124 -126 0
155 -124 -131 0
-156 121 123 0
-156 123 132 0
-156 121 132 0
156 -123 -132 0
156 -121 -123 0
156 -121 -132 0
-157 118 120 0
-157 120 133 0
-157 118 133 0
157 -120 -133 0
157 -118 -120 0
157 -118 -133 0
-158 115 117 0
-158 117 134 0
-158 115 134 0
158 -117 -134 0
158 -115 -117 0
158 -115 -134 0
-159 111 114 0
-159 113 111 0
-159 113 114 0
159 -113 -111 0
159 -111 -114 0
159 -113 -114 0
160 161 -162 0
160 -161 162 0
-160 -161 -162 0
-160 161 162 0
-161 136 139 0
-161 138 139 0
-161 136 138 0
161 -136 -138 0
161 -138 -139 0
161 -136 -139 0
162 163 -164 0
162 -163 164 0
-162 -163 -164 0
-162 163 164 0
163 -233 -237 0
-163 233 0
-163 237 0
164 -165 166 0
164 165 -166 0
-164 165 166 0
-164 -165 -166 0
165 -232 -238 0
-165 232 0
-165 238 0
-166 167 180 0
-166 -167 -180 0
166 -167 180 0
166 167 -180 0
-167 168 169 0
-167 -168 -169 0
167 -168 169 0
167 168 -169 0
168 -231 -239 0
-168 231 0
-168 239 0
-169 170 179 0
-169 -170 -179 0
169 -170 179 0
169 170 -179 0
-170 171 172 0
-170 -171 -172 0
170 -171 172 0
170 171 -172 0
171 -230 -240 0
-171 230 0
-171 240 0
-172 173 178 0
-172 -173 -178 0
172 -173 178 0
172 173 -178 0
-173 174 175 0
-173 -174 -175 0
173 -174 175 0
173 174 -175 0
174 -229 -241 0
-174 229 0
-174 241 0
-175 176 177 0
-175 -176 -177 0
175 -176 177 0
175 176 -177 0
-176 152 154 0
-176 154 155 0
-176 152 155 0
176 -154 -155 0
176 -152 -154 0
176 -152 -155 0
-177 149 151 0
-177 151 156 0
-177 149 156 0
177 -151 -156 0
177 -149 -151 0
177 -149 -156 0
-178 146 148 0
-178 148 157 0
-178 146 157 0
178 -148 -157 0
178 -146 -148 0
178 -146 -157 0
-179 143 145 0
-179 145 158 0
-179 143 158 0
179 -145 -158 0
179 -143 -145 0
179 -143 -158 0
-180 140 142 0
-180 142 159 0
-180 140 159 0
180 -142 -159 0
180 -140 -142 0
180 -140 -159 0
181 182 -183 0
181 -182 183 0
-181 -182 -183 0
-181 182 183 0
-182 163 164 0
-182 161 163 0
-182 161 164 0
182 -161 -163 0
182 -163 -164 0
182 -161 -164 0
183 184 -185 0
183 -184 185 0
-183 -184 -185 0
-183 184 185 0
184 -233 -238 0
-184 233 0
-184 238 0
185 -186 187 0
185 186 -187 0
-185 186 187 0
-185 -186 -187 0
186 -232 -239 0
-186 232 0
-186 239 0
-187 188 197 0
-187 -188 -197 0
187 -188 197 0
187 188 -197 0
-188 189 190 0
-188 -189 -190 0
188 -189 190 0
188 189 -190 0
189 -231 -240 0
-189 231 0
-189 240 0
-190 191 196 0
-190 -191 -196 0
190 -191 196 0
190 191 -196 0
-191 192 193 0
-191 -192 -193 0
191 -192 193 0
191 192 -193 0
192 -230 -241 0
-192 230 0
-192 241 0
-193 194 195 0
-193 -194 -195 0
193 -194 195 0
193 194 -195 0
-194 174 176 0
-194 176 177 0
-194 174 177 0
194 -176 -177 0
194 -174 -176 0
194 -174 -177 0
-195 171 173 0
-195 173 178 0
-195 171 178 0
195 -173 -178 0
195 -171 -173 0
195 -171 -178 0
-196 168 170 0
-196 170 179 0
-196 168 179 0
196 -170 -179 0
196 -168 -170 0
196 -168 -179 0
-197 165 167 0
-197 167 180 0
-197 165 180 0
197 -167 -180 0
197 -165 -167 0
197 -165 -180 0
198 199 -200 0
198 -199 200 0
-198 -199 -200 0
-198 199 200 0
-199 184 185 0
-199 182 184 0
-199 182 185 0
199 -182 -184 0
199 -184 -185 0
199 -182 -185 0
200 201 -202 0
200 -201 202 0
-200 -201 -202 0
-200 201 202 0
201 -233 -239 0
-201 233 0
-201 239 0
202 -203 204 0
202 203 -204 0
-202 203 204 0
-202 -203 -204 0
203 -232 -240 0
-203 232 0
-203 240 0
-204 205 210 0
-204 -205 -210 0
204 -205 210 0
204 205 -210 0
-205 206 207 0
-205 -206 -207 0
205 -206 207 0
205 206 -207 0
206 -231 -241 0
-206 231 0
-206 241 0
-207 208 209 0
-207 -208 -209 0
207 -208 209 0
207 208 -209 0
-208 192 194 0
-208 194 195 0
-208 192 195 0
208 -194 -195 0
208 -192 -194 0
208 -192 -195 0
-209 189 191 0
-209 191 196 0
-209 189 196 0
209 -191 -196 0
209 -189 -191 0
209 -189 -196 0
-210 186 188 0
-210 188 197 0
-210 186 197 0
210 -188 -197 0
210 -186 -188 0
210 -186 -197 0
211 212 -213 0
211 -212 213 0
-211 -212 -213 0
-211 212 213 0
-212 201 202 0
-212 199 201 0
-212 199 202 0
212 -199 -201 0
212 -201 -202 0
212 -199 -202 0
213 214 -215 0
213 -214 215 0
-213 -214 -215 0
-213 214 215 0
214 -233 -240 0
-214 233 0
-214 240 0
215 -216 217 0
215 216 -217 0
-215 216 217 0
-215 -216 -217 0
216 -232 -241 0
-216 232 0
-216 241 0
-217 218 219 0
-217 -218 -219 0
217 -218 219 0
217 218 -219 0
-218 206 208 0
-218 208 209 0
-218 206 209 0
218 -208 -209 0
218 -206 -208 0
218 -206 -209 0
-219 203 205 0
-219 205 210 0
-219 203 210 0
219 -205 -210 0
219 -203 -205 0
219 -203 -210 0
220 221 -222 0
220 -221 222 0
-220 -221 -222 0
-220 221 222 0
-221 214 215 0
-221 212 214 0
-221 212 215 0
221 -212 -214 0
221 -214 -215 0
221 -212 -215 0
222 -223 224 0
222 223 -224 0
-222 223 224 0
-222 -223 -224 0
223 -233 -241 0
-223 233 0
-223 241 0
-224 216 218 0
-224 218 219 0
-224 216 219 0
224 -218 -219 0
224 -216 -218 0
224 -216 -219 0
-225 221 224 0
-225 221 223 0
-225 223 224 0
225 -223 -224 0
225 -221 -224 0
225 -221 -223 0
-242 0
2 0
3 0
6 0
13 0
24 0
39 0
58 0
81 0
108 0
135 0
160 0
181 0
198 0
211 0
220 0
225 0

