c Result of efficient AIG-to-CNF conversion using package CNF
p cnf 134 515
2 -122 -128 0
-2 122 0
-2 128 0
3 4 -5 0
3 -4 5 0
-3 -4 -5 0
-3 4 5 0
4 -123 -128 0
-4 123 0
-4 128 0
5 -122 -129 0
-5 122 0
-5 129 0
6 -7 8 0
6 7 -8 0
-6 7 8 0
-6 -7 -8 0
7 -122 -123 -128 -129 0
-7 129 0
-7 122 0
-7 128 0
-7 123 0
-8 -9 -12 0
-8 9 12 0
8 9 -12 0
8 -9 12 0
-9 -10 -11 0
-9 10 11 0
9 10 -11 0
9 -10 11 0
10 -123 -129 0
-10 123 0
-10 129 0
11 -122 -130 0
-11 122 0
-11 130 0
12 -124 -128 0
-12 124 0
-12 128 0
13 -14 15 0
13 14 -15 0
-13 14 15 0
-13 -14 -15 0
-14 9 12 0
-14 7 12 0
-14 7 9 0
14 -7 -12 0
14 -7 -9 0
14 -9 -12 0
-15 -16 -23 0
-15 16 23 0
15 16 -23 0
15 -16 23 0
-16 -17 -20 0
-16 17 20 0
16 17 -20 0
16 -17 20 0
-17 -18 -19 0
-17 18 19 0
17 18 -19 0
17 -18 19 0
18 -123 -130 0
-18 123 0
-18 130 0
19 -122 -131 0
-19 122 0
-19 131 0
20 21 -22 0
20 -21 22 0
-20 -21 -22 0
-20 21 22 0
21 -125 -128 0
-21 125 0
-21 128 0
22 -124 -129 0
-22 124 0
-22 129 0
23 -122 -123 -129 -130 0
-23 130 0
-23 122 0
-23 129 0
-23 123 0
24 -25 26 0
24 25 -26 0
-24 25 26 0
-24 -25 -26 0
-25 14 16 0
-25 16 23 0
-25 14 23 0
25 -16 -23 0
25 -14 -16 0
25 -14 -23 0
-26 27 38 0
-26 -27 -38 0
26 -27 38 0
26 27 -38 0
-27 -28 -33 0
-27 28 33 0
27 28 -33 0
27 -28 33 0
-28 29 30 0
-28 -29 -30 0
28 -29 30 0
28 29 -30 0
29 -126 -128 0
-29 126 0
-29 128 0
-30 -31 -32 0
-30 31 32 0
30 31 -32 0
30 -31 32 0
31 -125 -129 0
-31 125 0
-31 129 0
32 -124 -130 0
-32 124 0
-32 130 0
33 34 -35 0
33 -34 35 0
-33 -34 -35 0
-33 34 35 0
34 -122 -123 -130 -131 0
-34 131 0
-34 122 0
-34 130 0
-34 123 0
35 36 -37 0
35 -36 37 0
-35 -36 -37 0
-35 36 37 0
36 -123 -131 0
-36 123 0
-36 131 0
37 -122 -132 0
-37 122 0
-37 132 0
-38 128 22 0
-38 125 17 0
-38 128 17 0
-38 17 22 0
-38 125 22 0
38 -17 -22 0
38 -125 -128 -22 0
38 -125 -128 -17 0
39 40 -41 0
39 -40 41 0
-39 -40 -41 0
-39 40 41 0
-40 25 27 0
-40 27 38 0
-40 25 38 0
40 -25 -38 0
40 -27 -38 0
40 -25 -27 0
41 -42 57 0
41 42 -57 0
-41 42 57 0
-41 -42 -57 0
42 -43 52 0
42 43 -52 0
-42 43 52 0
-42 -43 -52 0
-43 -44 -49 0
-43 44 49 0
43 44 -49 0
43 -44 49 0
-44 -45 -46 0
-44 45 46 0
44 45 -46 0
44 -45 46 0
45 -124 -131 0
-45 124 0
-45 131 0
46 47 -48 0
46 -47 48 0
-46 -47 -48 0
-46 47 48 0
47 -123 -132 0
-47 123 0
-47 132 0
48 -122 -133 0
-48 122 0
-48 133 0
49 50 -51 0
49 -50 51 0
-49 -50 -51 0
-49 50 51 0
50 -122 -123 -131 -132 0
-50 132 0
-50 122 0
-50 131 0
-50 123 0
51 -127 -128 0
-51 127 0
-51 128 0
-52 -53 -54 0
-52 53 54 0
52 53 -54 0
52 -53 54 0
-53 29 32 0
-53 31 32 0
-53 29 31 0
53 -29 -31 0
53 -31 -32 0
53 -29 -32 0
54 55 -56 0
54 -55 56 0
-54 -55 -56 0
-54 55 56 0
55 -126 -129 0
-55 126 0
-55 129 0
56 -125 -130 0
-56 125 0
-56 130 0
-57 34 35 0
-57 28 34 0
-57 28 35 0
57 -28 -34 0
57 -34 -35 0
57 -28 -35 0
58 -59 60 0
58 59 -60 0
-58 59 60 0
-58 -59 -60 0
-59 40 57 0
-59 40 42 0
-59 42 57 0
59 -42 -57 0
59 -40 -57 0
59 -40 -42 0
-60 61 76 0
-60 -61 -76 0
60 -61 76 0
60 61 -76 0
61 -62 71 0
61 62 -71 0
-61 62 71 0
-61 -62 -71 0
-62 -63 -68 0
-62 63 68 0
62 63 -68 0
62 -63 68 0
-63 -64 -65 0
-63 64 65 0
63 64 -65 0
63 -64 65 0
64 -125 -131 0
-64 125 0
-64 131 0
65 66 -67 0
65 -66 67 0
-65 -66 -67 0
-65 66 67 0
66 -124 -132 0
-66 124 0
-66 132 0
67 -123 -133 0
-67 123 0
-67 133 0
68 -69 70 0
68 69 -70 0
-68 69 70 0
-68 -69 -70 0
69 -125 -126 -129 -130 0
-69 130 0
-69 125 0
-69 129 0
-69 126 0
-70 132 48 0
-70 123 45 0
-70 45 48 0
-70 132 45 0
-70 123 48 0
70 -45 -48 0
70 -123 -132 -48 0
70 -123 -132 -45 0
-71 -72 -73 0
-71 72 73 0
71 72 -73 0
71 -72 73 0
-72 44 51 0
-72 50 51 0
-72 50 44 0
72 -50 -51 0
72 -50 -44 0
72 -44 -51 0
73 74 -75 0
73 -74 75 0
-73 -74 -75 0
-73 74 75 0
74 -127 -129 0
-74 127 0
-74 129 0
75 -126 -130 0
-75 126 0
-75 130 0
-76 43 53 0
-76 53 54 0
-76 43 54 0
76 -53 -54 0
76 -43 -53 0
76 -43 -54 0
77 78 -79 0
77 -78 79 0
-77 -78 -79 0
-77 78 79 0
-78 59 76 0
-78 59 61 0
-78 61 76 0
78 -61 -76 0
78 -59 -76 0
78 -59 -61 0
79 -80 93 0
79 80 -93 0
-79 80 93 0
-79 -80 -93 0
80 -81 86 0
80 81 -86 0
-80 81 86 0
-80 -81 -86 0
-81 82 83 0
-81 -82 -83 0
81 -82 83 0
81 82 -83 0
82 -126 -127 -129 -130 0
-82 130 0
-82 126 0
-82 129 0
-82 127 0
-83 -84 -85 0
-83 84 85 0
83 84 -85 0
83 -84 85 0
-84 64 67 0
-84 66 67 0
-84 64 66 0
84 -64 -66 0
84 -66 -67 0
84 -64 -67 0
85 -127 -130 0
-85 127 0
-85 130 0
-86 -87 -88 0
-86 87 88 0
86 87 -88 0
86 -87 88 0
-87 69 63 0
-87 63 70 0
-87 69 70 0
87 -63 -70 0
87 -69 -63 0
87 -69 -70 0
88 89 -90 0
88 -89 90 0
-88 -89 -90 0
-88 89 90 0
89 -126 -131 0
-89 126 0
-89 131 0
90 91 -92 0
90 -91 92 0
-90 -91 -92 0
-90 91 92 0
91 -125 -132 0
-91 125 0
-91 132 0
92 -124 -133 0
-92 124 0
-92 133 0
-93 62 72 0
-93 72 73 0
-93 62 73 0
93 -72 -73 0
93 -62 -72 0
93 -62 -73 0
94 -95 96 0
94 95 -96 0
-94 95 96 0
-94 -95 -96 0
-95 78 93 0
-95 78 80 0
-95 80 93 0
95 -80 -93 0
95 -78 -93 0
95 -78 -80 0
-96 97 106 0
-96 -97 -106 0
96 -97 106 0
96 97 -106 0
97 -98 103 0
97 98 -103 0
-97 98 103 0
-97 -98 -103 0
-98 -99 -100 0
-98 99 100 0
98 99 -100 0
98 -99 100 0
99 -127 -131 0
-99 127 0
-99 131 0
100 101 -102 0
100 -101 102 0
-100 -101 -102 0
-100 101 102 0
101 -126 -132 0
-101 126 0
-101 132 0
102 -125 -133 0
-102 125 0
-102 133 0
-103 104 105 0
-103 -104 -105 0
103 -104 105 0
103 104 -105 0
-104 84 85 0
-104 82 85 0
-104 82 84 0
104 -82 -85 0
104 -82 -84 0
104 -84 -85 0
-105 89 92 0
-105 91 92 0
-105 89 91 0
105 -89 -91 0
105 -91 -92 0
105 -89 -92 0
-106 81 87 0
-106 87 88 0
-106 81 88 0
106 -87 -88 0
106 -81 -87 0
106 -81 -88 0
107 -108 109 0
107 108 -109 0
-107 108 109 0
-107 -108 -109 0
-108 95 106 0
-108 95 97 0
-108 97 106 0
108 -97 -106 0
108 -95 -106 0
108 -95 -97 0
-109 110 115 0
-109 -110 -115 0
109 -110 115 0
109 110 -115 0
110 111 -112 0
110 -111 112 0
-110 -111 -112 0
-110 111 112 0
-111 99 102 0
-111 101 102 0
-111 99 101 0
111 -99 -101 0
111 -101 -102 0
111 -99 -102 0
112 113 -114 0
112 -113 114 0
-112 -113 -114 0
-112 113 114 0
113 -127 -132 0
-113 127 0
-113 132 0
114 -126 -133 0
-114 126 0
-114 133 0
-115 98 104 0
-115 104 105 0
-115 98 105 0
115 -98 -105 0
115 -104 -105 0
115 -98 -104 0
116 -117 118 0
116 117 -118 0
-116 117 118 0
-116 -117 -118 0
-117 108 115 0
-117 108 110 0
-117 110 115 0
117 -110 -115 0
117 -108 -115 0
117 -108 -110 0
-118 -119 -120 0
-118 119 120 0
118 119 -120 0
118 -119 120 0
-119 113 114 0
-119 111 113 0
-119 111 114 0
119 -111 -113 0
119 -113 -114 0
119 -111 -114 0
120 -127 -133 0
-120 127 0
-120 133 0
-121 117 119 0
-121 119 120 0
-121 117 120 0
121 -119 -120 0
121 -117 -119 0
121 -117 -120 0
-134 0
2 0
3 0
6 0
13 0
24 0
39 0
58 0
77 0
94 0
107 0
116 0
121 0

