c Result of efficient AIG-to-CNF conversion using package CNF
p cnf 184 709
2 -170 -177 0
-2 170 0
-2 177 0
-3 -4 -5 0
-3 4 5 0
3 4 -5 0
3 -4 5 0
4 -171 -177 0
-4 171 0
-4 177 0
5 -170 -178 0
-5 170 0
-5 178 0
6 7 -8 0
6 -7 8 0
-6 -7 -8 0
-6 7 8 0
7 -172 -177 0
-7 172 0
-7 177 0
8 -9 10 0
8 9 -10 0
-8 9 10 0
-8 -9 -10 0
9 -171 -178 0
-9 171 0
-9 178 0
-10 -11 -12 0
-10 11 12 0
10 11 -12 0
10 -11 12 0
11 -170 -179 0
-11 170 0
-11 179 0
12 -170 -171 -177 -178 0
-12 178 0
-12 170 0
-12 177 0
-12 171 0
13 14 -15 0
13 -14 15 0
-13 -14 -15 0
-13 14 15 0
14 -173 -177 0
-14 173 0
-14 177 0
15 -16 17 0
15 16 -17 0
-15 16 17 0
-15 -16 -17 0
16 -172 -178 0
-16 172 0
-16 178 0
-17 -18 -19 0
-17 18 19 0
17 18 -19 0
17 -18 19 0
18 -172 -177 -8 0
-18 172 0
-18 177 0
-18 8 0
19 20 -21 0
19 -20 21 0
-19 -20 -21 0
-19 20 21 0
20 -171 -179 0
-20 171 0
-20 179 0
21 -22 23 0
21 22 -23 0
-21 22 23 0
-21 -22 -23 0
22 -170 -180 0
-22 170 0
-22 180 0
-23 9 12 0
-23 11 12 0
-23 9 11 0
23 -9 -11 0
23 -11 -12 0
23 -9 -12 0
24 25 -26 0
24 -25 26 0
-24 -25 -26 0
-24 25 26 0
25 -174 -177 0
-25 174 0
-25 177 0
26 -27 28 0
26 27 -28 0
-26 27 28 0
-26 -27 -28 0
27 -173 -178 0
-27 173 0
-27 178 0
-28 29 30 0
-28 -29 -30 0
28 -29 30 0
28 29 -30 0
29 -173 -177 -15 0
-29 173 0
-29 177 0
-29 15 0
-30 31 32 0
-30 -31 -32 0
30 -31 32 0
30 31 -32 0
31 -172 -179 0
-31 172 0
-31 179 0
-32 33 38 0
-32 -33 -38 0
32 -33 38 0
32 33 -38 0
-33 -34 -35 0
-33 34 35 0
33 34 -35 0
33 -34 35 0
34 -171 -180 0
-34 171 0
-34 180 0
35 -36 37 0
35 36 -37 0
-35 36 37 0
-35 -36 -37 0
36 -170 -181 0
-36 170 0
-36 181 0
-37 22 23 0
-37 20 22 0
-37 20 23 0
37 -20 -22 0
37 -22 -23 0
37 -20 -23 0
-38 18 19 0
-38 16 19 0
-38 18 16 0
38 -18 -16 0
38 -16 -19 0
38 -18 -19 0
39 40 -41 0
39 -40 41 0
-39 -40 -41 0
-39 40 41 0
40 -175 -177 0
-40 175 0
-40 177 0
41 -42 43 0
41 42 -43 0
-41 42 43 0
-41 -42 -43 0
42 -174 -178 0
-42 174 0
-42 178 0
-43 44 45 0
-43 -44 -45 0
43 -44 45 0
43 44 -45 0
44 -174 -177 -26 0
-44 174 0
-44 177 0
-44 26 0
-45 46 47 0
-45 -46 -47 0
45 -46 47 0
45 46 -47 0
46 -173 -179 0
-46 173 0
-46 179 0
-47 48 57 0
-47 -48 -57 0
47 -48 57 0
47 48 -57 0
-48 49 50 0
-48 -49 -50 0
48 -49 50 0
48 49 -50 0
49 -172 -180 0
-49 172 0
-49 180 0
-50 51 56 0
-50 -51 -56 0
50 -51 56 0
50 51 -56 0
-51 -52 -53 0
-51 52 53 0
51 52 -53 0
51 -52 53 0
52 -171 -181 0
-52 171 0
-52 181 0
53 -54 55 0
53 54 -55 0
-53 54 55 0
-53 -54 -55 0
54 -170 -182 0
-54 170 0
-54 182 0
-55 36 37 0
-55 34 36 0
-55 34 37 0
55 -34 -36 0
55 -36 -37 0
55 -34 -37 0
-56 31 33 0
-56 33 38 0
-56 31 38 0
56 -33 -38 0
56 -31 -33 0
56 -31 -38 0
-57 27 30 0
-57 29 27 0
-57 29 30 0
57 -29 -27 0
57 -27 -30 0
57 -29 -30 0
58 59 -60 0
58 -59 60 0
-58 -59 -60 0
-58 59 60 0
59 -176 -177 0
-59 176 0
-59 177 0
60 61 -62 0
60 -61 62 0
-60 -61 -62 0
-60 61 62 0
61 -175 -178 0
-61 175 0
-61 178 0
62 63 -64 0
62 -63 64 0
-62 -63 -64 0
-62 63 64 0
63 -175 -177 -41 0
-63 175 0
-63 177 0
-63 41 0
64 -65 66 0
64 65 -66 0
-64 65 66 0
-64 -65 -66 0
65 -174 -179 0
-65 174 0
-65 179 0
-66 67 80 0
-66 -67 -80 0
66 -67 80 0
66 67 -80 0
-67 68 69 0
-67 -68 -69 0
67 -68 69 0
67 68 -69 0
68 -173 -180 0
-68 173 0
-68 180 0
-69 70 79 0
-69 -70 -79 0
69 -70 79 0
69 70 -79 0
-70 71 72 0
-70 -71 -72 0
70 -71 72 0
70 71 -72 0
71 -172 -181 0
-71 172 0
-71 181 0
-72 73 78 0
-72 -73 -78 0
72 -73 78 0
72 73 -78 0
-73 -74 -75 0
-73 74 75 0
73 74 -75 0
73 -74 75 0
74 -171 -182 0
-74 171 0
-74 182 0
75 -76 77 0
75 76 -77 0
-75 76 77 0
-75 -76 -77 0
76 -170 -183 0
-76 170 0
-76 183 0
-77 54 55 0
-77 52 54 0
-77 52 55 0
77 -52 -54 0
77 -54 -55 0
77 -52 -55 0
-78 49 51 0
-78 51 56 0
-78 49 56 0
78 -51 -56 0
78 -49 -51 0
78 -49 -56 0
-79 46 48 0
-79 48 57 0
-79 46 57 0
79 -48 -57 0
79 -46 -48 0
79 -46 -57 0
-80 42 45 0
-80 44 42 0
-80 44 45 0
80 -44 -42 0
80 -42 -45 0
80 -44 -45 0
81 -82 83 0
81 82 -83 0
-81 82 83 0
-81 -82 -83 0
82 -176 -178 0
-82 176 0
-82 178 0
-83 84 85 0
-83 -84 -85 0
83 -84 85 0
83 84 -85 0
84 -175 -179 0
-84 175 0
-84 179 0
-85 86 87 0
-85 -86 -87 0
85 -86 87 0
85 86 -87 0
86 -176 -177 -60 0
-86 176 0
-86 177 0
-86 60 0
-87 88 89 0
-87 -88 -89 0
87 -88 89 0
87 88 -89 0
88 -174 -180 0
-88 174 0
-88 180 0
-89 90 103 0
-89 -90 -103 0
89 -90 103 0
89 90 -103 0
-90 91 92 0
-90 -91 -92 0
90 -91 92 0
90 91 -92 0
91 -173 -181 0
-91 173 0
-91 181 0
-92 93 102 0
-92 -93 -102 0
92 -93 102 0
92 93 -102 0
-93 94 95 0
-93 -94 -95 0
93 -94 95 0
93 94 -95 0
94 -172 -182 0
-94 172 0
-94 182 0
-95 96 101 0
-95 -96 -101 0
95 -96 101 0
95 96 -101 0
-96 97 98 0
-96 -97 -98 0
96 -97 98 0
96 97 -98 0
97 -171 -183 0
-97 171 0
-97 183 0
-98 99 100 0
-98 -99 -100 0
98 -99 100 0
98 99 -100 0
-99 76 77 0
-99 74 76 0
-99 74 77 0
99 -74 -76 0
99 -76 -77 0
99 -74 -77 0
-100 71 73 0
-100 73 78 0
-100 71 78 0
100 -73 -78 0
100 -71 -73 0
100 -71 -78 0
-101 68 70 0
-101 70 79 0
-101 68 79 0
101 -70 -79 0
101 -68 -70 0
101 -68 -79 0
-102 65 67 0
-102 67 80 0
-102 65 80 0
102 -67 -80 0
102 -65 -67 0
102 -65 -80 0
-103 63 64 0
-103 61 64 0
-103 63 61 0
103 -63 -61 0
103 -61 -64 0
103 -63 -64 0
104 105 -106 0
104 -105 106 0
-104 -105 -106 0
-104 105 106 0
105 -176 -178 -83 0
-105 176 0
-105 178 0
-105 83 0
106 107 -108 0
106 -107 108 0
-106 -107 -108 0
-106 107 108 0
107 -176 -179 0
-107 176 0
-107 179 0
108 -109 110 0
108 109 -110 0
-108 109 110 0
-108 -109 -110 0
109 -175 -180 0
-109 175 0
-109 180 0
-110 111 124 0
-110 -111 -124 0
110 -111 124 0
110 111 -124 0
-111 112 113 0
-111 -112 -113 0
111 -112 113 0
111 112 -113 0
112 -174 -181 0
-112 174 0
-112 181 0
-113 114 123 0
-113 -114 -123 0
113 -114 123 0
113 114 -123 0
-114 115 116 0
-114 -115 -116 0
114 -115 116 0
114 115 -116 0
115 -173 -182 0
-115 173 0
-115 182 0
-116 117 122 0
-116 -117 -122 0
116 -117 122 0
116 117 -122 0
-117 118 119 0
-117 -118 -119 0
117 -118 119 0
117 118 -119 0
118 -172 -183 0
-118 172 0
-118 183 0
-119 120 121 0
-119 -120 -121 0
119 -120 121 0
119 120 -121 0
-120 97 99 0
-120 99 100 0
-120 97 100 0
120 -99 -100 0
120 -97 -99 0
120 -97 -100 0
-121 94 96 0
-121 96 101 0
-121 94 101 0
121 -96 -101 0
121 -94 -96 0
121 -94 -101 0
-122 91 93 0
-122 93 102 0
-122 91 102 0
122 -93 -102 0
122 -91 -93 0
122 -91 -102 0
-123 88 90 0
-123 90 103 0
-123 88 103 0
123 -90 -103 0
123 -88 -90 0
123 -88 -103 0
-124 84 87 0
-124 86 84 0
-124 86 87 0
124 -86 -84 0
124 -84 -87 0
124 -86 -87 0
125 126 -127 0
125 -126 127 0
-125 -126 -127 0
-125 126 127 0
-126 105 108 0
-126 107 108 0
-126 105 107 0
126 -105 -107 0
126 -107 -108 0
126 -105 -108 0
127 128 -129 0
127 -128 129 0
-127 -128 -129 0
-127 128 129 0
128 -176 -180 0
-128 176 0
-128 180 0
129 -130 131 0
129 130 -131 0
-129 130 131 0
-129 -130 -131 0
130 -175 -181 0
-130 175 0
-130 181 0
-131 132 141 0
-131 -132 -141 0
131 -132 141 0
131 132 -141 0
-132 133 134 0
-132 -133 -134 0
132 -133 134 0
132 133 -134 0
133 -174 -182 0
-133 174 0
-133 182 0
-134 135 140 0
-134 -135 -140 0
134 -135 140 0
134 135 -140 0
-135 136 137 0
-135 -136 -137 0
135 -136 137 0
135 136 -137 0
136 -173 -183 0
-136 173 0
-136 183 0
-137 138 139 0
-137 -138 -139 0
137 -138 139 0
137 138 -139 0
-138 118 120 0
-138 120 121 0
-138 118 121 0
138 -120 -121 0
138 -118 -120 0
138 -118 -121 0
-139 115 117 0
-139 117 122 0
-139 115 122 0
139 -117 -122 0
139 -115 -117 0
139 -115 -122 0
-140 112 114 0
-140 114 123 0
-140 112 123 0
140 -114 -123 0
140 -112 -114 0
140 -112 -123 0
-141 109 111 0
-141 111 124 0
-141 109 124 0
141 -111 -124 0
141 -109 -111 0
141 -109 -124 0
142 143 -144 0
142 -143 144 0
-142 -143 -144 0
-142 143 144 0
-143 128 129 0
-143 126 128 0
-143 126 129 0
143 -126 -128 0
143 -128 -129 0
143 -126 -129 0
144 145 -146 0
144 -145 146 0
-144 -145 -146 0
-144 145 146 0
145 -176 -181 0
-145 176 0
-145 181 0
146 -147 148 0
146 147 -148 0
-146 147 148 0
-146 -147 -148 0
147 -175 -182 0
-147 175 0
-147 182 0
-148 149 154 0
-148 -149 -154 0
148 -149 154 0
148 149 -154 0
-149 150 151 0
-149 -150 -151 0
149 -150 151 0
149 150 -151 0
150 -174 -183 0
-150 174 0
-150 183 0
-151 152 153 0
-151 -152 -153 0
151 -152 153 0
151 152 -153 0
-152 136 138 0
-152 138 139 0
-152 136 139 0
152 -138 -139 0
152 -136 -138 0
152 -136 -139 0
-153 133 135 0
-153 135 140 0
-153 133 140 0
153 -135 -140 0
153 -133 -135 0
153 -133 -140 0
-154 130 132 0
-154 132 141 0
-154 130 141 0
154 -132 -141 0
154 -130 -132 0
154 -130 -141 0
155 156 -157 0
155 -156 157 0
-155 -156 -157 0
-155 156 157 0
-156 145 146 0
-156 143 145 0
-156 143 146 0
156 -143 -145 0
156 -145 -146 0
156 -143 -146 0
157 158 -159 0
157 -158 159 0
-157 -158 -159 0
-157 158 159 0
158 -176 -182 0
-158 176 0
-158 182 0
159 -160 161 0
159 160 -161 0
-159 160 161 0
-159 -160 -161 0
160 -175 -183 0
-160 175 0
-160 183 0
-161 162 163 0
-161 -162 -163 0
161 -162 163 0
161 162 -163 0
-162 150 152 0
-162 152 153 0
-162 150 153 0
162 -152 -153 0
162 -150 -152 0
162 -150 -153 0
-163 147 149 0
-163 149 154 0
-163 147 154 0
163 -149 -154 0
163 -147 -149 0
163 -147 -154 0
164 165 -166 0
164 -165 166 0
-164 -165 -166 0
-164 165 166 0
-165 158 159 0
-165 156 158 0
-165 156 159 0
165 -156 -158 0
165 -158 -159 0
165 -156 -159 0
166 -167 168 0
166 167 -168 0
-166 167 168 0
-166 -167 -168 0
167 -176 -183 0
-167 176 0
-167 183 0
-168 160 162 0
-168 162 163 0
-168 160 163 0
168 -162 -163 0
168 -160 -162 0
168 -160 -163 0
-169 165 168 0
-169 165 167 0
-169 167 168 0
169 -167 -168 0
169 -165 -168 0
169 -165 -167 0
-184 0
2 0
3 0
6 0
13 0
24 0
39 0
58 0
81 0
104 0
125 0
142 0
155 0
164 0
169 0

