c Result of efficient AIG-to-CNF conversion using package CNF
p cnf 134 506
2 -122 -128 0
-2 122 0
-2 128 0
-3 -4 -5 0
-3 4 5 0
3 4 -5 0
3 -4 5 0
4 -123 -128 0
-4 123 0
-4 128 0
5 -122 -129 0
-5 122 0
-5 129 0
6 7 -8 0
6 -7 8 0
-6 -7 -8 0
-6 7 8 0
7 -124 -128 0
-7 124 0
-7 128 0
8 -9 10 0
8 9 -10 0
-8 9 10 0
-8 -9 -10 0
9 -123 -129 0
-9 123 0
-9 129 0
-10 -11 -12 0
-10 11 12 0
10 11 -12 0
10 -11 12 0
11 -122 -130 0
-11 122 0
-11 130 0
12 -122 -123 -128 -129 0
-12 129 0
-12 122 0
-12 128 0
-12 123 0
13 14 -15 0
13 -14 15 0
-13 -14 -15 0
-13 14 15 0
14 -125 -128 0
-14 125 0
-14 128 0
15 -16 17 0
15 16 -17 0
-15 16 17 0
-15 -16 -17 0
16 -124 -129 0
-16 124 0
-16 129 0
-17 -18 -19 0
-17 18 19 0
17 18 -19 0
17 -18 19 0
18 -124 -128 -8 0
-18 124 0
-18 128 0
-18 8 0
19 20 -21 0
19 -20 21 0
-19 -20 -21 0
-19 20 21 0
20 -123 -130 0
-20 123 0
-20 130 0
21 -22 23 0
21 22 -23 0
-21 22 23 0
-21 -22 -23 0
22 -122 -131 0
-22 122 0
-22 131 0
-23 9 12 0
-23 11 12 0
-23 9 11 0
23 -9 -11 0
23 -11 -12 0
23 -9 -12 0
24 25 -26 0
24 -25 26 0
-24 -25 -26 0
-24 25 26 0
25 -126 -128 0
-25 126 0
-25 128 0
26 -27 28 0
26 27 -28 0
-26 27 28 0
-26 -27 -28 0
27 -125 -129 0
-27 125 0
-27 129 0
-28 29 30 0
-28 -29 -30 0
28 -29 30 0
28 29 -30 0
29 -125 -128 -15 0
-29 125 0
-29 128 0
-29 15 0
-30 31 32 0
-30 -31 -32 0
30 -31 32 0
30 31 -32 0
31 -124 -130 0
-31 124 0
-31 130 0
-32 33 38 0
-32 -33 -38 0
32 -33 38 0
32 33 -38 0
-33 -34 -35 0
-33 34 35 0
33 34 -35 0
33 -34 35 0
34 -123 -131 0
-34 123 0
-34 131 0
35 -36 37 0
35 36 -37 0
-35 36 37 0
-35 -36 -37 0
36 -122 -132 0
-36 122 0
-36 132 0
-37 22 23 0
-37 20 22 0
-37 20 23 0
37 -20 -22 0
37 -22 -23 0
37 -20 -23 0
-38 18 19 0
-38 16 19 0
-38 18 16 0
38 -18 -16 0
38 -16 -19 0
38 -18 -19 0
39 40 -41 0
39 -40 41 0
-39 -40 -41 0
-39 40 41 0
40 -127 -128 0
-40 127 0
-40 128 0
41 42 -43 0
41 -42 43 0
-41 -42 -43 0
-41 42 43 0
42 -126 -129 0
-42 126 0
-42 129 0
43 44 -45 0
43 -44 45 0
-43 -44 -45 0
-43 44 45 0
44 -126 -128 -26 0
-44 126 0
-44 128 0
-44 26 0
45 -46 47 0
45 46 -47 0
-45 46 47 0
-45 -46 -47 0
46 -125 -130 0
-46 125 0
-46 130 0
-47 48 57 0
-47 -48 -57 0
47 -48 57 0
47 48 -57 0
-48 49 50 0
-48 -49 -50 0
48 -49 50 0
48 49 -50 0
49 -124 -131 0
-49 124 0
-49 131 0
-50 51 56 0
-50 -51 -56 0
50 -51 56 0
50 51 -56 0
-51 -52 -53 0
-51 52 53 0
51 52 -53 0
51 -52 53 0
52 -123 -132 0
-52 123 0
-52 132 0
53 -54 55 0
53 54 -55 0
-53 54 55 0
-53 -54 -55 0
54 -122 -133 0
-54 122 0
-54 133 0
-55 36 37 0
-55 34 36 0
-55 34 37 0
55 -34 -36 0
55 -36 -37 0
55 -34 -37 0
-56 31 33 0
-56 33 38 0
-56 31 38 0
56 -33 -38 0
56 -31 -33 0
56 -31 -38 0
-57 27 30 0
-57 29 27 0
-57 29 30 0
57 -29 -27 0
57 -27 -30 0
57 -29 -30 0
58 -59 60 0
58 59 -60 0
-58 59 60 0
-58 -59 -60 0
59 -127 -129 0
-59 127 0
-59 129 0
-60 61 62 0
-60 -61 -62 0
60 -61 62 0
60 61 -62 0
61 -126 -130 0
-61 126 0
-61 130 0
-62 63 64 0
-62 -63 -64 0
62 -63 64 0
62 63 -64 0
63 -127 -128 -41 0
-63 127 0
-63 128 0
-63 41 0
-64 65 66 0
-64 -65 -66 0
64 -65 66 0
64 65 -66 0
65 -125 -131 0
-65 125 0
-65 131 0
-66 67 76 0
-66 -67 -76 0
66 -67 76 0
66 67 -76 0
-67 68 69 0
-67 -68 -69 0
67 -68 69 0
67 68 -69 0
68 -124 -132 0
-68 124 0
-68 132 0
-69 70 75 0
-69 -70 -75 0
69 -70 75 0
69 70 -75 0
-70 71 72 0
-70 -71 -72 0
70 -71 72 0
70 71 -72 0
71 -123 -133 0
-71 123 0
-71 133 0
-72 73 74 0
-72 -73 -74 0
72 -73 74 0
72 73 -74 0
-73 54 55 0
-73 52 54 0
-73 52 55 0
73 -52 -54 0
73 -54 -55 0
73 -52 -55 0
-74 49 51 0
-74 51 56 0
-74 49 56 0
74 -51 -56 0
74 -49 -51 0
74 -49 -56 0
-75 46 48 0
-75 48 57 0
-75 46 57 0
75 -48 -57 0
75 -46 -48 0
75 -46 -57 0
-76 44 45 0
-76 42 45 0
-76 44 42 0
76 -44 -42 0
76 -42 -45 0
76 -44 -45 0
77 78 -79 0
77 -78 79 0
-77 -78 -79 0
-77 78 79 0
78 -127 -129 -60 0
-78 127 0
-78 129 0
-78 60 0
79 80 -81 0
79 -80 81 0
-79 -80 -81 0
-79 80 81 0
80 -127 -130 0
-80 127 0
-80 130 0
81 -82 83 0
81 82 -83 0
-81 82 83 0
-81 -82 -83 0
82 -126 -131 0
-82 126 0
-82 131 0
-83 84 93 0
-83 -84 -93 0
83 -84 93 0
83 84 -93 0
-84 85 86 0
-84 -85 -86 0
84 -85 86 0
84 85 -86 0
85 -125 -132 0
-85 125 0
-85 132 0
-86 87 92 0
-86 -87 -92 0
86 -87 92 0
86 87 -92 0
-87 88 89 0
-87 -88 -89 0
87 -88 89 0
87 88 -89 0
88 -124 -133 0
-88 124 0
-88 133 0
-89 90 91 0
-89 -90 -91 0
89 -90 91 0
89 90 -91 0
-90 71 73 0
-90 73 74 0
-90 71 74 0
90 -73 -74 0
90 -71 -73 0
90 -71 -74 0
-91 68 70 0
-91 70 75 0
-91 68 75 0
91 -70 -75 0
91 -68 -70 0
91 -68 -75 0
-92 65 67 0
-92 67 76 0
-92 65 76 0
92 -67 -76 0
92 -65 -67 0
92 -65 -76 0
-93 61 64 0
-93 63 61 0
-93 63 64 0
93 -63 -61 0
93 -61 -64 0
93 -63 -64 0
94 95 -96 0
94 -95 96 0
-94 -95 -96 0
-94 95 96 0
-95 78 81 0
-95 80 81 0
-95 78 80 0
95 -78 -80 0
95 -80 -81 0
95 -78 -81 0
96 97 -98 0
96 -97 98 0
-96 -97 -98 0
-96 97 98 0
97 -127 -131 0
-97 127 0
-97 131 0
98 -99 100 0
98 99 -100 0
-98 99 100 0
-98 -99 -100 0
99 -126 -132 0
-99 126 0
-99 132 0
-100 101 106 0
-100 -101 -106 0
100 -101 106 0
100 101 -106 0
-101 102 103 0
-101 -102 -103 0
101 -102 103 0
101 102 -103 0
102 -125 -133 0
-102 125 0
-102 133 0
-103 104 105 0
-103 -104 -105 0
103 -104 105 0
103 104 -105 0
-104 88 90 0
-104 90 91 0
-104 88 91 0
104 -90 -91 0
104 -88 -90 0
104 -88 -91 0
-105 85 87 0
-105 87 92 0
-105 85 92 0
105 -87 -92 0
105 -85 -87 0
105 -85 -92 0
-106 82 84 0
-106 84 93 0
-106 82 93 0
106 -84 -93 0
106 -82 -84 0
106 -82 -93 0
107 108 -109 0
107 -108 109 0
-107 -108 -109 0
-107 108 109 0
-108 97 98 0
-108 95 97 0
-108 95 98 0
108 -95 -97 0
108 -97 -98 0
108 -95 -98 0
109 110 -111 0
109 -110 111 0
-109 -110 -111 0
-109 110 111 0
110 -127 -132 0
-110 127 0
-110 132 0
111 -112 113 0
111 112 -113 0
-111 112 113 0
-111 -112 -113 0
112 -126 -133 0
-112 126 0
-112 133 0
-113 114 115 0
-113 -114 -115 0
113 -114 115 0
113 114 -115 0
-114 102 104 0
-114 104 105 0
-114 102 105 0
114 -104 -105 0
114 -102 -104 0
114 -102 -105 0
-115 99 101 0
-115 101 106 0
-115 99 106 0
115 -101 -106 0
115 -99 -101 0
115 -99 -106 0
116 117 -118 0
116 -117 118 0
-116 -117 -118 0
-116 117 118 0
-117 110 111 0
-117 108 110 0
-117 108 111 0
117 -108 -110 0
117 -110 -111 0
117 -108 -111 0
118 -119 120 0
118 119 -120 0
-118 119 120 0
-118 -119 -120 0
119 -127 -133 0
-119 127 0
-119 133 0
-120 112 114 0
-120 114 115 0
-120 112 115 0
120 -114 -115 0
120 -112 -114 0
120 -112 -115 0
-121 117 120 0
-121 117 119 0
-121 119 120 0
121 -119 -120 0
121 -117 -120 0
121 -117 -119 0
-134 0
2 0
3 0
6 0
13 0
24 0
39 0
58 0
77 0
94 0
107 0
116 0
121 0

