c Result of efficient AIG-to-CNF conversion using package CNF
p cnf 554 2275
2 -530 -542 0
-2 530 0
-2 542 0
3 4 -5 0
3 -4 5 0
-3 -4 -5 0
-3 4 5 0
4 -531 -542 0
-4 531 0
-4 542 0
5 -530 -543 0
-5 530 0
-5 543 0
6 -7 8 0
6 7 -8 0
-6 7 8 0
-6 -7 -8 0
7 -530 -531 -542 -543 0
-7 543 0
-7 530 0
-7 542 0
-7 531 0
-8 -9 -12 0
-8 9 12 0
8 9 -12 0
8 -9 12 0
-9 -10 -11 0
-9 10 11 0
9 10 -11 0
9 -10 11 0
10 -531 -543 0
-10 531 0
-10 543 0
11 -530 -544 0
-11 530 0
-11 544 0
12 -532 -542 0
-12 532 0
-12 542 0
13 -14 15 0
13 14 -15 0
-13 14 15 0
-13 -14 -15 0
-14 9 12 0
-14 7 12 0
-14 7 9 0
14 -7 -12 0
14 -7 -9 0
14 -9 -12 0
-15 -16 -23 0
-15 16 23 0
15 16 -23 0
15 -16 23 0
-16 -17 -20 0
-16 17 20 0
16 17 -20 0
16 -17 20 0
-17 -18 -19 0
-17 18 19 0
17 18 -19 0
17 -18 19 0
18 -531 -544 0
-18 531 0
-18 544 0
19 -530 -545 0
-19 530 0
-19 545 0
20 21 -22 0
20 -21 22 0
-20 -21 -22 0
-20 21 22 0
21 -533 -542 0
-21 533 0
-21 542 0
22 -532 -543 0
-22 532 0
-22 543 0
23 -530 -531 -543 -544 0
-23 544 0
-23 530 0
-23 543 0
-23 531 0
24 -25 26 0
24 25 -26 0
-24 25 26 0
-24 -25 -26 0
-25 14 16 0
-25 16 23 0
-25 14 23 0
25 -16 -23 0
25 -14 -16 0
25 -14 -23 0
-26 27 38 0
-26 -27 -38 0
26 -27 38 0
26 27 -38 0
-27 -28 -33 0
-27 28 33 0
27 28 -33 0
27 -28 33 0
-28 29 30 0
-28 -29 -30 0
28 -29 30 0
28 29 -30 0
29 -534 -542 0
-29 534 0
-29 542 0
-30 -31 -32 0
-30 31 32 0
30 31 -32 0
30 -31 32 0
31 -533 -543 0
-31 533 0
-31 543 0
32 -532 -544 0
-32 532 0
-32 544 0
33 34 -35 0
33 -34 35 0
-33 -34 -35 0
-33 34 35 0
34 -530 -531 -544 -545 0
-34 545 0
-34 530 0
-34 544 0
-34 531 0
35 36 -37 0
35 -36 37 0
-35 -36 -37 0
-35 36 37 0
36 -531 -545 0
-36 531 0
-36 545 0
37 -530 -546 0
-37 530 0
-37 546 0
-38 21 22 0
-38 17 21 0
-38 17 22 0
38 -17 -21 0
38 -21 -22 0
38 -17 -22 0
39 40 -41 0
39 -40 41 0
-39 -40 -41 0
-39 40 41 0
-40 25 27 0
-40 27 38 0
-40 25 38 0
40 -25 -38 0
40 -27 -38 0
40 -25 -27 0
41 -42 57 0
41 42 -57 0
-41 42 57 0
-41 -42 -57 0
42 -43 52 0
42 43 -52 0
-42 43 52 0
-42 -43 -52 0
-43 -44 -49 0
-43 44 49 0
43 44 -49 0
43 -44 49 0
-44 -45 -46 0
-44 45 46 0
44 45 -46 0
44 -45 46 0
45 -532 -545 0
-45 532 0
-45 545 0
46 47 -48 0
46 -47 48 0
-46 -47 -48 0
-46 47 48 0
47 -531 -546 0
-47 531 0
-47 546 0
48 -530 -547 0
-48 530 0
-48 547 0
49 50 -51 0
49 -50 51 0
-49 -50 -51 0
-49 50 51 0
50 -530 -531 -545 -546 0
-50 546 0
-50 530 0
-50 545 0
-50 531 0
51 -535 -542 0
-51 535 0
-51 542 0
-52 -53 -54 0
-52 53 54 0
52 53 -54 0
52 -53 54 0
-53 29 32 0
-53 31 32 0
-53 29 31 0
53 -29 -31 0
53 -31 -32 0
53 -29 -32 0
54 55 -56 0
54 -55 56 0
-54 -55 -56 0
-54 55 56 0
55 -534 -543 0
-55 534 0
-55 543 0
56 -533 -544 0
-56 533 0
-56 544 0
-57 34 35 0
-57 28 34 0
-57 28 35 0
57 -28 -34 0
57 -34 -35 0
57 -28 -35 0
58 -59 60 0
58 59 -60 0
-58 59 60 0
-58 -59 -60 0
-59 40 57 0
-59 40 42 0
-59 42 57 0
59 -42 -57 0
59 -40 -57 0
59 -40 -42 0
-60 61 80 0
-60 -61 -80 0
60 -61 80 0
60 61 -80 0
61 -62 71 0
61 62 -71 0
-61 62 71 0
-61 -62 -71 0
-62 -63 -68 0
-62 63 68 0
62 63 -68 0
62 -63 68 0
-63 -64 -65 0
-63 64 65 0
63 64 -65 0
63 -64 65 0
64 -534 -544 0
-64 534 0
-64 544 0
65 66 -67 0
65 -66 67 0
-65 -66 -67 0
-65 66 67 0
66 -533 -545 0
-66 533 0
-66 545 0
67 -532 -546 0
-67 532 0
-67 546 0
68 -69 70 0
68 69 -70 0
-68 69 70 0
-68 -69 -70 0
69 -533 -534 -543 -544 0
-69 544 0
-69 533 0
-69 543 0
-69 534 0
-70 45 48 0
-70 47 48 0
-70 45 47 0
70 -45 -47 0
70 -47 -48 0
70 -45 -48 0
-71 -72 -73 0
-71 72 73 0
71 72 -73 0
71 -72 73 0
-72 44 51 0
-72 50 51 0
-72 50 44 0
72 -50 -51 0
72 -50 -44 0
72 -44 -51 0
73 74 -77 0
73 -74 77 0
-73 -74 -77 0
-73 74 77 0
74 75 -76 0
74 -75 76 0
-74 -75 -76 0
-74 75 76 0
75 -531 -547 0
-75 531 0
-75 547 0
76 -530 -548 0
-76 530 0
-76 548 0
77 78 -79 0
77 -78 79 0
-77 -78 -79 0
-77 78 79 0
78 -536 -542 0
-78 536 0
-78 542 0
79 -535 -543 0
-79 535 0
-79 543 0
-80 43 53 0
-80 53 54 0
-80 43 54 0
80 -53 -54 0
80 -43 -53 0
80 -43 -54 0
81 82 -83 0
81 -82 83 0
-81 -82 -83 0
-81 82 83 0
-82 59 80 0
-82 59 61 0
-82 61 80 0
82 -61 -80 0
82 -59 -80 0
82 -59 -61 0
83 -84 107 0
83 84 -107 0
-83 84 107 0
-83 -84 -107 0
84 -85 94 0
84 85 -94 0
-84 85 94 0
-84 -85 -94 0
-85 -86 -91 0
-85 86 91 0
85 86 -91 0
85 -86 91 0
-86 -87 -88 0
-86 87 88 0
86 87 -88 0
86 -87 88 0
87 -537 -542 0
-87 537 0
-87 542 0
88 89 -90 0
88 -89 90 0
-88 -89 -90 0
-88 89 90 0
89 -536 -543 0
-89 536 0
-89 543 0
90 -535 -544 0
-90 535 0
-90 544 0
91 -92 93 0
91 92 -93 0
-91 92 93 0
-91 -92 -93 0
-92 543 78 0
-92 535 74 0
-92 74 78 0
-92 543 74 0
-92 535 78 0
92 -74 -78 0
92 -535 -543 -78 0
92 -535 -543 -74 0
-93 64 67 0
-93 66 67 0
-93 64 66 0
93 -64 -66 0
93 -66 -67 0
93 -64 -67 0
-94 -95 -96 0
-94 95 96 0
94 95 -96 0
94 -95 96 0
-95 69 63 0
-95 63 70 0
-95 69 70 0
95 -63 -70 0
95 -69 -63 0
95 -69 -70 0
96 -97 100 0
96 97 -100 0
-96 97 100 0
-96 -97 -100 0
97 98 -99 0
97 -98 99 0
-97 -98 -99 0
-97 98 99 0
98 -534 -545 0
-98 534 0
-98 545 0
99 -533 -546 0
-99 533 0
-99 546 0
-100 101 102 0
-100 -101 -102 0
100 -101 102 0
100 101 -102 0
101 -530 -531 -547 -548 0
-101 548 0
-101 530 0
-101 547 0
-101 531 0
-102 -103 -104 0
-102 103 104 0
102 103 -104 0
102 -103 104 0
103 -532 -547 0
-103 532 0
-103 547 0
104 105 -106 0
104 -105 106 0
-104 -105 -106 0
-104 105 106 0
105 -531 -548 0
-105 531 0
-105 548 0
106 -530 -549 0
-106 530 0
-106 549 0
-107 62 72 0
-107 72 73 0
-107 62 73 0
107 -72 -73 0
107 -62 -72 0
107 -62 -73 0
108 109 -110 0
108 -109 110 0
-108 -109 -110 0
-108 109 110 0
-109 82 107 0
-109 82 84 0
-109 84 107 0
109 -84 -107 0
109 -82 -107 0
109 -82 -84 0
110 -111 138 0
110 111 -138 0
-110 111 138 0
-110 -111 -138 0
111 -112 121 0
111 112 -121 0
-111 112 121 0
-111 -112 -121 0
-112 -113 -118 0
-112 113 118 0
112 113 -118 0
112 -113 118 0
-113 114 115 0
-113 -114 -115 0
113 -114 115 0
113 114 -115 0
114 -533 -534 -545 -546 0
-114 546 0
-114 533 0
-114 545 0
-114 534 0
-115 -116 -117 0
-115 116 117 0
115 116 -117 0
115 -116 117 0
-116 103 106 0
-116 105 106 0
-116 103 105 0
116 -103 -105 0
116 -105 -106 0
116 -103 -106 0
117 -538 -542 0
-117 538 0
-117 542 0
118 -119 120 0
118 119 -120 0
-118 119 120 0
-118 -119 -120 0
-119 97 102 0
-119 101 97 0
-119 101 102 0
119 -101 -97 0
119 -97 -102 0
119 -101 -102 0
-120 87 90 0
-120 89 90 0
-120 87 89 0
120 -87 -89 0
120 -89 -90 0
120 -87 -90 0
-121 -122 -123 0
-121 122 123 0
121 122 -123 0
121 -122 123 0
-122 86 92 0
-122 92 93 0
-122 86 93 0
122 -86 -93 0
122 -92 -93 0
122 -86 -92 0
123 124 -127 0
123 -124 127 0
-123 -124 -127 0
-123 124 127 0
124 125 -126 0
124 -125 126 0
-124 -125 -126 0
-124 125 126 0
125 -537 -543 0
-125 537 0
-125 543 0
126 -536 -544 0
-126 536 0
-126 544 0
127 -128 133 0
127 128 -133 0
-127 128 133 0
-127 -128 -133 0
-128 -129 -130 0
-128 129 130 0
128 129 -130 0
128 -129 130 0
129 -535 -545 0
-129 535 0
-129 545 0
130 131 -132 0
130 -131 132 0
-130 -131 -132 0
-130 131 132 0
131 -534 -546 0
-131 534 0
-131 546 0
132 -533 -547 0
-132 533 0
-132 547 0
-133 -134 -135 0
-133 134 135 0
133 134 -135 0
133 -134 135 0
134 -532 -548 0
-134 532 0
-134 548 0
135 136 -137 0
135 -136 137 0
-135 -136 -137 0
-135 136 137 0
136 -531 -549 0
-136 531 0
-136 549 0
137 -530 -550 0
-137 530 0
-137 550 0
-138 85 95 0
-138 95 96 0
-138 85 96 0
138 -95 -96 0
138 -85 -95 0
138 -85 -96 0
139 140 -141 0
139 -140 141 0
-139 -140 -141 0
-139 140 141 0
-140 109 138 0
-140 109 111 0
-140 111 138 0
140 -111 -138 0
140 -109 -138 0
140 -109 -111 0
141 -142 173 0
141 142 -173 0
-141 142 173 0
-141 -142 -173 0
142 -143 152 0
142 143 -152 0
-142 143 152 0
-142 -143 -152 0
-143 -144 -149 0
-143 144 149 0
143 144 -149 0
143 -144 149 0
-144 145 146 0
-144 -145 -146 0
144 -145 146 0
144 145 -146 0
145 -536 -537 -543 -544 0
-145 544 0
-145 536 0
-145 543 0
-145 537 0
-146 147 148 0
-146 -147 -148 0
146 -147 148 0
146 147 -148 0
-147 129 132 0
-147 131 132 0
-147 129 131 0
147 -129 -131 0
147 -131 -132 0
147 -129 -132 0
-148 134 137 0
-148 136 137 0
-148 134 136 0
148 -134 -136 0
148 -136 -137 0
148 -134 -137 0
149 -150 151 0
149 150 -151 0
-149 150 151 0
-149 -150 -151 0
-150 124 128 0
-150 128 133 0
-150 124 133 0
150 -128 -133 0
150 -124 -128 0
150 -124 -133 0
-151 116 117 0
-151 114 117 0
-151 114 116 0
151 -114 -117 0
151 -114 -116 0
151 -116 -117 0
-152 -153 -154 0
-152 153 154 0
152 153 -154 0
152 -153 154 0
-153 113 119 0
-153 119 120 0
-153 113 120 0
153 -113 -120 0
153 -119 -120 0
153 -113 -119 0
154 155 -162 0
154 -155 162 0
-154 -155 -162 0
-154 155 162 0
-155 -156 -159 0
-155 156 159 0
155 156 -159 0
155 -156 159 0
156 157 -158 0
156 -157 158 0
-156 -157 -158 0
-156 157 158 0
157 -531 -550 0
-157 531 0
-157 550 0
158 -530 -551 0
-158 530 0
-158 551 0
159 160 -161 0
159 -160 161 0
-159 -160 -161 0
-159 160 161 0
160 -539 -542 0
-160 539 0
-160 542 0
161 -538 -543 0
-161 538 0
-161 543 0
162 -163 168 0
162 163 -168 0
-162 163 168 0
-162 -163 -168 0
-163 -164 -165 0
-163 164 165 0
163 164 -165 0
163 -164 165 0
164 -537 -544 0
-164 537 0
-164 544 0
165 166 -167 0
165 -166 167 0
-165 -166 -167 0
-165 166 167 0
166 -536 -545 0
-166 536 0
-166 545 0
167 -535 -546 0
-167 535 0
-167 546 0
-168 -169 -170 0
-168 169 170 0
168 169 -170 0
168 -169 170 0
169 -534 -547 0
-169 534 0
-169 547 0
170 171 -172 0
170 -171 172 0
-170 -171 -172 0
-170 171 172 0
171 -533 -548 0
-171 533 0
-171 548 0
172 -532 -549 0
-172 532 0
-172 549 0
-173 112 122 0
-173 122 123 0
-173 112 123 0
173 -122 -123 0
173 -112 -122 0
173 -112 -123 0
174 175 -176 0
174 -175 176 0
-174 -175 -176 0
-174 175 176 0
-175 140 173 0
-175 140 142 0
-175 142 173 0
175 -142 -173 0
175 -140 -173 0
175 -140 -142 0
176 -177 212 0
176 177 -212 0
-176 177 212 0
-176 -177 -212 0
177 -178 187 0
177 178 -187 0
-177 178 187 0
-177 -178 -187 0
-178 -179 -184 0
-178 179 184 0
178 179 -184 0
178 -179 184 0
-179 -180 -181 0
-179 180 181 0
179 180 -181 0
179 -180 181 0
-180 543 160 0
-180 538 156 0
-180 156 160 0
-180 543 156 0
-180 538 160 0
180 -156 -160 0
180 -538 -543 -160 0
180 -538 -543 -156 0
181 -182 183 0
181 182 -183 0
-181 182 183 0
-181 -182 -183 0
-182 164 167 0
-182 166 167 0
-182 164 166 0
182 -164 -166 0
182 -166 -167 0
182 -164 -167 0
-183 169 172 0
-183 171 172 0
-183 169 171 0
183 -169 -171 0
183 -171 -172 0
183 -169 -172 0
184 -185 186 0
184 185 -186 0
-184 185 186 0
-184 -185 -186 0
-185 155 163 0
-185 163 168 0
-185 155 168 0
185 -155 -168 0
185 -163 -168 0
185 -155 -163 0
-186 145 147 0
-186 147 148 0
-186 145 148 0
186 -147 -148 0
186 -145 -147 0
186 -145 -148 0
-187 -188 -189 0
-187 188 189 0
187 188 -189 0
187 -188 189 0
-188 144 150 0
-188 150 151 0
-188 144 151 0
188 -144 -151 0
188 -150 -151 0
188 -144 -150 0
189 190 -201 0
189 -190 201 0
-189 -190 -201 0
-189 190 201 0
-190 -191 -194 0
-190 191 194 0
190 191 -194 0
190 -191 194 0
191 192 -193 0
191 -192 193 0
-191 -192 -193 0
-191 192 193 0
192 -534 -548 0
-192 534 0
-192 548 0
193 -533 -549 0
-193 533 0
-193 549 0
194 -195 196 0
194 195 -196 0
-194 195 196 0
-194 -195 -196 0
195 -530 -531 -550 -551 0
-195 551 0
-195 530 0
-195 550 0
-195 531 0
-196 -197 -198 0
-196 197 198 0
196 197 -198 0
196 -197 198 0
197 -532 -550 0
-197 532 0
-197 550 0
198 199 -200 0
198 -199 200 0
-198 -199 -200 0
-198 199 200 0
199 -531 -551 0
-199 531 0
-199 551 0
200 -530 -552 0
-200 530 0
-200 552 0
201 -202 207 0
201 202 -207 0
-201 202 207 0
-201 -202 -207 0
-202 -203 -204 0
-202 203 204 0
202 203 -204 0
202 -203 204 0
203 -540 -542 0
-203 540 0
-203 542 0
204 205 -206 0
204 -205 206 0
-204 -205 -206 0
-204 205 206 0
205 -539 -543 0
-205 539 0
-205 543 0
206 -538 -544 0
-206 538 0
-206 544 0
-207 -208 -209 0
-207 208 209 0
207 208 -209 0
207 -208 209 0
208 -537 -545 0
-208 537 0
-208 545 0
209 210 -211 0
209 -210 211 0
-209 -210 -211 0
-209 210 211 0
210 -536 -546 0
-210 536 0
-210 546 0
211 -535 -547 0
-211 535 0
-211 547 0
-212 143 153 0
-212 153 154 0
-212 143 154 0
212 -153 -154 0
212 -143 -153 0
212 -143 -154 0
213 -214 215 0
213 214 -215 0
-213 214 215 0
-213 -214 -215 0
-214 175 212 0
-214 175 177 0
-214 177 212 0
214 -177 -212 0
214 -175 -212 0
214 -175 -177 0
-215 216 255 0
-215 -216 -255 0
215 -216 255 0
215 216 -255 0
216 -217 226 0
216 217 -226 0
-216 217 226 0
-216 -217 -226 0
-217 -218 -223 0
-217 218 223 0
217 218 -223 0
217 -218 223 0
-218 -219 -220 0
-218 219 220 0
218 219 -220 0
218 -219 220 0
-219 191 196 0
-219 195 191 0
-219 195 196 0
219 -195 -191 0
219 -191 -196 0
219 -195 -196 0
220 -221 222 0
220 221 -222 0
-220 221 222 0
-220 -221 -222 0
-221 543 206 0
-221 539 203 0
-221 203 206 0
-221 543 203 0
-221 539 206 0
221 -203 -206 0
221 -539 -543 -206 0
221 -539 -543 -203 0
-222 546 211 0
-222 536 208 0
-222 208 211 0
-222 546 208 0
-222 536 211 0
222 -208 -211 0
222 -536 -546 -211 0
222 -536 -546 -208 0
223 -224 225 0
223 224 -225 0
-223 224 225 0
-223 -224 -225 0
-224 190 202 0
-224 202 207 0
-224 190 207 0
224 -190 -207 0
224 -202 -207 0
224 -190 -202 0
-225 180 182 0
-225 182 183 0
-225 180 183 0
225 -180 -183 0
225 -182 -183 0
225 -180 -182 0
-226 -227 -228 0
-226 227 228 0
226 227 -228 0
226 -227 228 0
-227 179 185 0
-227 185 186 0
-227 179 186 0
227 -179 -186 0
227 -185 -186 0
227 -179 -185 0
228 -229 244 0
228 229 -244 0
-228 229 244 0
-228 -229 -244 0
-229 -230 -233 0
-229 230 233 0
229 230 -233 0
229 -230 233 0
230 231 -232 0
230 -231 232 0
-230 -231 -232 0
-230 231 232 0
231 -537 -546 0
-231 537 0
-231 546 0
232 -536 -547 0
-232 536 0
-232 547 0
233 -234 239 0
233 234 -239 0
-233 234 239 0
-233 -234 -239 0
-234 -235 -236 0
-234 235 236 0
234 235 -236 0
234 -235 236 0
235 -535 -548 0
-235 535 0
-235 548 0
236 237 -238 0
236 -237 238 0
-236 -237 -238 0
-236 237 238 0
237 -534 -549 0
-237 534 0
-237 549 0
238 -533 -550 0
-238 533 0
-238 550 0
-239 -240 -241 0
-239 240 241 0
239 240 -241 0
239 -240 241 0
240 -532 -551 0
-240 532 0
-240 551 0
241 242 -243 0
241 -242 243 0
-241 -242 -243 0
-241 242 243 0
242 -531 -552 0
-242 531 0
-242 552 0
243 -530 -553 0
-243 530 0
-243 553 0
-244 245 250 0
-244 -245 -250 0
244 -245 250 0
244 245 -250 0
-245 246 247 0
-245 -246 -247 0
245 -246 247 0
245 246 -247 0
246 -533 -534 -548 -549 0
-246 549 0
-246 533 0
-246 548 0
-246 534 0
-247 -248 -249 0
-247 248 249 0
247 248 -249 0
247 -248 249 0
-248 197 200 0
-248 199 200 0
-248 197 199 0
248 -197 -199 0
248 -199 -200 0
248 -197 -200 0
249 -541 -542 0
-249 541 0
-249 542 0
-250 -251 -252 0
-250 251 252 0
250 251 -252 0
250 -251 252 0
251 -540 -543 0
-251 540 0
-251 543 0
252 253 -254 0
252 -253 254 0
-252 -253 -254 0
-252 253 254 0
253 -539 -544 0
-253 539 0
-253 544 0
254 -538 -545 0
-254 538 0
-254 545 0
-255 178 188 0
-255 188 189 0
-255 178 189 0
255 -188 -189 0
255 -178 -188 0
255 -178 -189 0
256 257 -258 0
256 -257 258 0
-256 -257 -258 0
-256 257 258 0
-257 214 255 0
-257 214 216 0
-257 216 255 0
257 -216 -255 0
257 -214 -255 0
257 -214 -216 0
258 -259 298 0
258 259 -298 0
-258 259 298 0
-258 -259 -298 0
259 -260 269 0
259 260 -269 0
-259 260 269 0
-259 -260 -269 0
-260 -261 -266 0
-260 261 266 0
260 261 -266 0
260 -261 266 0
-261 -262 -263 0
-261 262 263 0
261 262 -263 0
261 -262 263 0
-262 230 234 0
-262 234 239 0
-262 230 239 0
262 -234 -239 0
262 -230 -234 0
262 -230 -239 0
263 -264 265 0
263 264 -265 0
-263 264 265 0
-263 -264 -265 0
-264 248 249 0
-264 246 249 0
-264 246 248 0
264 -246 -249 0
264 -246 -248 0
264 -248 -249 0
-265 251 254 0
-265 253 254 0
-265 251 253 0
265 -251 -253 0
265 -253 -254 0
265 -251 -254 0
266 -267 268 0
266 267 -268 0
-266 267 268 0
-266 -267 -268 0
-267 229 245 0
-267 245 250 0
-267 229 250 0
267 -229 -250 0
267 -245 -250 0
267 -229 -245 0
-268 219 221 0
-268 221 222 0
-268 219 222 0
268 -219 -222 0
268 -221 -222 0
268 -219 -221 0
-269 -270 -271 0
-269 270 271 0
269 270 -271 0
269 -270 271 0
-270 218 224 0
-270 224 225 0
-270 218 225 0
270 -218 -225 0
270 -224 -225 0
270 -218 -224 0
271 -272 287 0
271 272 -287 0
-271 272 287 0
-271 -272 -287 0
-272 -273 -276 0
-272 273 276 0
272 273 -276 0
272 -273 276 0
273 274 -275 0
273 -274 275 0
-273 -274 -275 0
-273 274 275 0
274 -538 -546 0
-274 538 0
-274 546 0
275 -537 -547 0
-275 537 0
-275 547 0
276 -277 282 0
276 277 -282 0
-276 277 282 0
-276 -277 -282 0
-277 -278 -279 0
-277 278 279 0
277 278 -279 0
277 -278 279 0
278 -536 -548 0
-278 536 0
-278 548 0
279 280 -281 0
279 -280 281 0
-279 -280 -281 0
-279 280 281 0
280 -535 -549 0
-280 535 0
-280 549 0
281 -534 -550 0
-281 534 0
-281 550 0
-282 -283 -284 0
-282 283 284 0
282 283 -284 0
282 -283 284 0
283 -533 -551 0
-283 533 0
-283 551 0
284 285 -286 0
284 -285 286 0
-284 -285 -286 0
-284 285 286 0
285 -532 -552 0
-285 532 0
-285 552 0
286 -531 -553 0
-286 531 0
-286 553 0
-287 288 293 0
-287 -288 -293 0
287 -288 293 0
287 288 -293 0
-288 289 290 0
-288 -289 -290 0
288 -289 290 0
288 289 -290 0
289 -536 -537 -546 -547 0
-289 547 0
-289 536 0
-289 546 0
-289 537 0
-290 291 292 0
-290 -291 -292 0
290 -291 292 0
290 291 -292 0
-291 235 238 0
-291 237 238 0
-291 235 237 0
291 -235 -237 0
291 -237 -238 0
291 -235 -238 0
-292 240 243 0
-292 242 243 0
-292 240 242 0
292 -240 -242 0
292 -242 -243 0
292 -240 -243 0
-293 -294 -295 0
-293 294 295 0
293 294 -295 0
293 -294 295 0
294 -541 -543 0
-294 541 0
-294 543 0
295 296 -297 0
295 -296 297 0
-295 -296 -297 0
-295 296 297 0
296 -540 -544 0
-296 540 0
-296 544 0
297 -539 -545 0
-297 539 0
-297 545 0
-298 217 227 0
-298 227 228 0
-298 217 228 0
298 -227 -228 0
298 -217 -227 0
298 -217 -228 0
299 300 -301 0
299 -300 301 0
-299 -300 -301 0
-299 300 301 0
-300 257 298 0
-300 257 259 0
-300 259 298 0
300 -259 -298 0
300 -257 -298 0
300 -257 -259 0
301 -302 339 0
301 302 -339 0
-301 302 339 0
-301 -302 -339 0
302 -303 312 0
302 303 -312 0
-302 303 312 0
-302 -303 -312 0
-303 -304 -309 0
-303 304 309 0
303 304 -309 0
303 -304 309 0
-304 -305 -306 0
-304 305 306 0
304 305 -306 0
304 -305 306 0
-305 273 277 0
-305 277 282 0
-305 273 282 0
305 -277 -282 0
305 -273 -277 0
305 -273 -282 0
306 -307 308 0
306 307 -308 0
-306 307 308 0
-306 -307 -308 0
-307 289 291 0
-307 291 292 0
-307 289 292 0
307 -291 -292 0
307 -289 -291 0
307 -289 -292 0
-308 544 297 0
-308 540 294 0
-308 294 297 0
-308 544 294 0
-308 540 297 0
308 -294 -297 0
308 -540 -544 -297 0
308 -540 -544 -294 0
309 -310 311 0
309 310 -311 0
-309 310 311 0
-309 -310 -311 0
-310 272 288 0
-310 288 293 0
-310 272 293 0
310 -272 -293 0
310 -288 -293 0
310 -272 -288 0
-311 262 264 0
-311 264 265 0
-311 262 265 0
311 -262 -265 0
311 -264 -265 0
311 -262 -264 0
-312 -313 -314 0
-312 313 314 0
312 313 -314 0
312 -313 314 0
-313 261 267 0
-313 267 268 0
-313 261 268 0
313 -261 -268 0
313 -267 -268 0
313 -261 -267 0
314 -315 328 0
314 315 -328 0
-314 315 328 0
-314 -315 -328 0
-315 -316 -321 0
-315 316 321 0
315 316 -321 0
315 -316 321 0
-316 -317 -318 0
-316 317 318 0
316 317 -318 0
316 -317 318 0
317 -537 -548 0
-317 537 0
-317 548 0
318 319 -320 0
318 -319 320 0
-318 -319 -320 0
-318 319 320 0
319 -536 -549 0
-319 536 0
-319 549 0
320 -535 -550 0
-320 535 0
-320 550 0
321 -322 323 0
321 322 -323 0
-321 322 323 0
-321 -322 -323 0
322 -537 -538 -546 -547 0
-322 547 0
-322 537 0
-322 546 0
-322 538 0
-323 -324 -325 0
-323 324 325 0
323 324 -325 0
323 -324 325 0
324 -534 -551 0
-324 534 0
-324 551 0
325 326 -327 0
325 -326 327 0
-325 -326 -327 0
-325 326 327 0
326 -533 -552 0
-326 533 0
-326 552 0
327 -532 -553 0
-327 532 0
-327 553 0
-328 329 334 0
-328 -329 -334 0
328 -329 334 0
328 329 -334 0
329 -330 331 0
329 330 -331 0
-329 330 331 0
-329 -330 -331 0
-330 549 281 0
-330 535 278 0
-330 278 281 0
-330 549 278 0
-330 535 281 0
330 -278 -281 0
330 -535 -549 -281 0
330 -535 -549 -278 0
-331 -332 -333 0
-331 332 333 0
331 332 -333 0
331 -332 333 0
-332 283 286 0
-332 285 286 0
-332 283 285 0
332 -283 -285 0
332 -285 -286 0
332 -283 -286 0
333 -541 -544 0
-333 541 0
-333 544 0
-334 -335 -336 0
-334 335 336 0
334 335 -336 0
334 -335 336 0
335 -540 -545 0
-335 540 0
-335 545 0
336 337 -338 0
336 -337 338 0
-336 -337 -338 0
-336 337 338 0
337 -539 -546 0
-337 539 0
-337 546 0
338 -538 -547 0
-338 538 0
-338 547 0
-339 260 270 0
-339 270 271 0
-339 260 271 0
339 -270 -271 0
339 -260 -270 0
339 -260 -271 0
340 341 -342 0
340 -341 342 0
-340 -341 -342 0
-340 341 342 0
-341 300 339 0
-341 300 302 0
-341 302 339 0
341 -302 -339 0
341 -300 -339 0
341 -300 -302 0
342 -343 376 0
342 343 -376 0
-342 343 376 0
-342 -343 -376 0
343 -344 353 0
343 344 -353 0
-343 344 353 0
-343 -344 -353 0
-344 -345 -350 0
-344 345 350 0
344 345 -350 0
344 -345 350 0
-345 -346 -347 0
-345 346 347 0
345 346 -347 0
345 -346 347 0
-346 322 316 0
-346 316 323 0
-346 322 323 0
346 -316 -323 0
346 -322 -316 0
346 -322 -323 0
347 -348 349 0
347 348 -349 0
-347 348 349 0
-347 -348 -349 0
-348 330 332 0
-348 332 333 0
-348 330 333 0
348 -332 -333 0
348 -330 -332 0
348 -330 -333 0
-349 546 338 0
-349 539 335 0
-349 335 338 0
-349 546 335 0
-349 539 338 0
349 -335 -338 0
349 -539 -546 -338 0
349 -539 -546 -335 0
350 -351 352 0
350 351 -352 0
-350 351 352 0
-350 -351 -352 0
-351 315 334 0
-351 315 329 0
-351 329 334 0
351 -329 -334 0
351 -315 -334 0
351 -315 -329 0
-352 305 307 0
-352 307 308 0
-352 305 308 0
352 -305 -308 0
352 -307 -308 0
352 -305 -307 0
-353 -354 -355 0
-353 354 355 0
353 354 -355 0
353 -354 355 0
-354 304 310 0
-354 310 311 0
-354 304 311 0
354 -304 -311 0
354 -310 -311 0
354 -304 -310 0
355 356 -365 0
355 -356 365 0
-355 -356 -365 0
-355 356 365 0
-356 -357 -362 0
-356 357 362 0
356 357 -362 0
356 -357 362 0
-357 -358 -359 0
-357 358 359 0
357 358 -359 0
357 -358 359 0
358 -535 -551 0
-358 535 0
-358 551 0
359 360 -361 0
359 -360 361 0
-359 -360 -361 0
-359 360 361 0
360 -534 -552 0
-360 534 0
-360 552 0
361 -533 -553 0
-361 533 0
-361 553 0
362 -363 364 0
362 363 -364 0
-362 363 364 0
-362 -363 -364 0
-363 317 320 0
-363 319 320 0
-363 317 319 0
363 -317 -319 0
363 -319 -320 0
363 -317 -320 0
-364 324 327 0
-364 326 327 0
-364 324 326 0
364 -324 -326 0
364 -326 -327 0
364 -324 -327 0
365 -366 371 0
365 366 -371 0
-365 366 371 0
-365 -366 -371 0
-366 -367 -368 0
-366 367 368 0
366 367 -368 0
366 -367 368 0
367 -541 -545 0
-367 541 0
-367 545 0
368 369 -370 0
368 -369 370 0
-368 -369 -370 0
-368 369 370 0
369 -540 -546 0
-369 540 0
-369 546 0
370 -539 -547 0
-370 539 0
-370 547 0
-371 -372 -373 0
-371 372 373 0
371 372 -373 0
371 -372 373 0
372 -538 -548 0
-372 538 0
-372 548 0
373 374 -375 0
373 -374 375 0
-373 -374 -375 0
-373 374 375 0
374 -537 -549 0
-374 537 0
-374 549 0
375 -536 -550 0
-375 536 0
-375 550 0
-376 303 313 0
-376 313 314 0
-376 303 314 0
376 -313 -314 0
376 -303 -313 0
376 -303 -314 0
377 -378 379 0
377 378 -379 0
-377 378 379 0
-377 -378 -379 0
-378 341 376 0
-378 341 343 0
-378 343 376 0
378 -343 -376 0
378 -341 -376 0
378 -341 -343 0
-379 380 409 0
-379 -380 -409 0
379 -380 409 0
379 380 -409 0
380 -381 390 0
380 381 -390 0
-380 381 390 0
-380 -381 -390 0
-381 -382 -387 0
-381 382 387 0
381 382 -387 0
381 -382 387 0
-382 -383 -384 0
-382 383 384 0
382 383 -384 0
382 -383 384 0
-383 357 363 0
-383 363 364 0
-383 357 364 0
383 -357 -364 0
383 -363 -364 0
383 -357 -363 0
384 -385 386 0
384 385 -386 0
-384 385 386 0
-384 -385 -386 0
-385 367 370 0
-385 369 370 0
-385 367 369 0
385 -367 -369 0
385 -369 -370 0
385 -367 -370 0
-386 549 375 0
-386 537 372 0
-386 372 375 0
-386 549 372 0
-386 537 375 0
386 -372 -375 0
386 -537 -549 -375 0
386 -537 -549 -372 0
387 -388 389 0
387 388 -389 0
-387 388 389 0
-387 -388 -389 0
-388 356 366 0
-388 366 371 0
-388 356 371 0
388 -356 -371 0
388 -366 -371 0
388 -356 -366 0
-389 346 348 0
-389 348 349 0
-389 346 349 0
389 -346 -349 0
389 -348 -349 0
389 -346 -348 0
-390 -391 -392 0
-390 391 392 0
390 391 -392 0
390 -391 392 0
-391 345 351 0
-391 351 352 0
-391 345 352 0
391 -345 -352 0
391 -351 -352 0
391 -345 -351 0
392 393 -398 0
392 -393 398 0
-392 -393 -398 0
-392 393 398 0
-393 -394 -395 0
-393 394 395 0
393 394 -395 0
393 -394 395 0
-394 358 361 0
-394 360 361 0
-394 358 360 0
394 -358 -360 0
394 -360 -361 0
394 -358 -361 0
395 396 -397 0
395 -396 397 0
-395 -396 -397 0
-395 396 397 0
396 -541 -546 0
-396 541 0
-396 546 0
397 -540 -547 0
-397 540 0
-397 547 0
398 -399 404 0
398 399 -404 0
-398 399 404 0
-398 -399 -404 0
-399 -400 -401 0
-399 400 401 0
399 400 -401 0
399 -400 401 0
400 -539 -548 0
-400 539 0
-400 548 0
401 402 -403 0
401 -402 403 0
-401 -402 -403 0
-401 402 403 0
402 -538 -549 0
-402 538 0
-402 549 0
403 -537 -550 0
-403 537 0
-403 550 0
-404 -405 -406 0
-404 405 406 0
404 405 -406 0
404 -405 406 0
405 -536 -551 0
-405 536 0
-405 551 0
406 407 -408 0
406 -407 408 0
-406 -407 -408 0
-406 407 408 0
407 -535 -552 0
-407 535 0
-407 552 0
408 -534 -553 0
-408 534 0
-408 553 0
-409 344 354 0
-409 354 355 0
-409 344 355 0
409 -354 -355 0
409 -344 -354 0
409 -344 -355 0
410 -411 412 0
410 411 -412 0
-410 411 412 0
-410 -411 -412 0
-411 378 409 0
-411 378 380 0
-411 380 409 0
411 -380 -409 0
411 -378 -409 0
411 -378 -380 0
-412 413 438 0
-412 -413 -438 0
412 -413 438 0
412 413 -438 0
413 -414 423 0
413 414 -423 0
-413 414 423 0
-413 -414 -423 0
-414 -415 -420 0
-414 415 420 0
414 415 -420 0
414 -415 420 0
-415 416 417 0
-415 -416 -417 0
415 -416 417 0
415 416 -417 0
-416 549 403 0
-416 538 400 0
-416 400 403 0
-416 549 400 0
-416 538 403 0
416 -400 -403 0
416 -538 -549 -403 0
416 -538 -549 -400 0
-417 -418 -419 0
-417 418 419 0
417 418 -419 0
417 -418 419 0
-418 552 408 0
-418 535 405 0
-418 405 408 0
-418 552 405 0
-418 535 408 0
418 -405 -408 0
418 -535 -552 -408 0
418 -535 -552 -405 0
419 -541 -547 0
-419 541 0
-419 547 0
420 -421 422 0
420 421 -422 0
-420 421 422 0
-420 -421 -422 0
-421 393 399 0
-421 399 404 0
-421 393 404 0
421 -393 -404 0
421 -399 -404 0
421 -393 -399 0
-422 383 385 0
-422 385 386 0
-422 383 386 0
422 -383 -386 0
422 -385 -386 0
422 -383 -385 0
-423 -424 -425 0
-423 424 425 0
423 424 -425 0
423 -424 425 0
-424 382 388 0
-424 388 389 0
-424 382 389 0
424 -382 -389 0
424 -388 -389 0
424 -382 -388 0
425 -426 431 0
425 426 -431 0
-425 426 431 0
-425 -426 -431 0
-426 -427 -428 0
-426 427 428 0
426 427 -428 0
426 -427 428 0
427 -540 -548 0
-427 540 0
-427 548 0
428 429 -430 0
428 -429 430 0
-428 -429 -430 0
-428 429 430 0
429 -539 -549 0
-429 539 0
-429 549 0
430 -538 -550 0
-430 538 0
-430 550 0
-431 432 437 0
-431 -432 -437 0
431 -432 437 0
431 432 -437 0
-432 -433 -434 0
-432 433 434 0
432 433 -434 0
432 -433 434 0
433 -537 -551 0
-433 537 0
-433 551 0
434 435 -436 0
434 -435 436 0
-434 -435 -436 0
-434 435 436 0
435 -536 -552 0
-435 536 0
-435 552 0
436 -535 -553 0
-436 535 0
-436 553 0
-437 396 397 0
-437 394 396 0
-437 394 397 0
437 -394 -396 0
437 -396 -397 0
437 -394 -397 0
-438 381 391 0
-438 391 392 0
-438 381 392 0
438 -391 -392 0
438 -381 -391 0
438 -381 -392 0
439 -440 441 0
439 440 -441 0
-439 440 441 0
-439 -440 -441 0
-440 411 438 0
-440 411 413 0
-440 413 438 0
440 -413 -438 0
440 -411 -438 0
440 -411 -413 0
-441 442 463 0
-441 -442 -463 0
441 -442 463 0
441 442 -463 0
442 -443 452 0
442 443 -452 0
-442 443 452 0
-442 -443 -452 0
-443 -444 -449 0
-443 444 449 0
443 444 -449 0
443 -444 449 0
-444 -445 -446 0
-444 445 446 0
444 445 -446 0
444 -445 446 0
445 -541 -548 0
-445 541 0
-445 548 0
446 447 -448 0
446 -447 448 0
-446 -447 -448 0
-446 447 448 0
447 -540 -549 0
-447 540 0
-447 549 0
448 -539 -550 0
-448 539 0
-448 550 0
449 -450 451 0
449 450 -451 0
-449 450 451 0
-449 -450 -451 0
-450 426 432 0
-450 432 437 0
-450 426 437 0
450 -426 -437 0
450 -432 -437 0
450 -426 -432 0
-451 416 418 0
-451 418 419 0
-451 416 419 0
451 -418 -419 0
451 -416 -418 0
451 -416 -419 0
-452 -453 -454 0
-452 453 454 0
452 453 -454 0
452 -453 454 0
-453 415 421 0
-453 421 422 0
-453 415 422 0
453 -415 -422 0
453 -421 -422 0
453 -415 -421 0
454 -455 460 0
454 455 -460 0
-454 455 460 0
-454 -455 -460 0
-455 -456 -457 0
-455 456 457 0
455 456 -457 0
455 -456 457 0
456 -538 -551 0
-456 538 0
-456 551 0
457 458 -459 0
457 -458 459 0
-457 -458 -459 0
-457 458 459 0
458 -537 -552 0
-458 537 0
-458 552 0
459 -536 -553 0
-459 536 0
-459 553 0
-460 461 462 0
-460 -461 -462 0
460 -461 462 0
460 461 -462 0
-461 549 430 0
-461 539 427 0
-461 427 430 0
-461 549 427 0
-461 539 430 0
461 -427 -430 0
461 -539 -549 -430 0
461 -539 -549 -427 0
-462 552 436 0
-462 536 433 0
-462 433 436 0
-462 552 433 0
-462 536 436 0
462 -433 -436 0
462 -536 -552 -436 0
462 -536 -552 -433 0
-463 414 424 0
-463 424 425 0
-463 414 425 0
463 -424 -425 0
463 -414 -424 0
463 -414 -425 0
464 -465 466 0
464 465 -466 0
-464 465 466 0
-464 -465 -466 0
-465 440 463 0
-465 440 442 0
-465 442 463 0
465 -442 -463 0
465 -440 -463 0
465 -440 -442 0
-466 467 484 0
-466 -467 -484 0
466 -467 484 0
466 467 -484 0
467 -468 477 0
467 468 -477 0
-467 468 477 0
-467 -468 -477 0
-468 -469 -474 0
-468 469 474 0
468 469 -474 0
468 -469 474 0
-469 -470 -471 0
-469 470 471 0
469 470 -471 0
469 -470 471 0
470 -539 -551 0
-470 539 0
-470 551 0
471 472 -473 0
471 -472 473 0
-471 -472 -473 0
-471 472 473 0
472 -538 -552 0
-472 538 0
-472 552 0
473 -537 -553 0
-473 537 0
-473 553 0
474 -475 476 0
474 475 -476 0
-474 475 476 0
-474 -475 -476 0
-475 455 461 0
-475 461 462 0
-475 455 462 0
475 -455 -462 0
475 -461 -462 0
475 -455 -461 0
-476 549 448 0
-476 540 445 0
-476 445 448 0
-476 549 445 0
-476 540 448 0
476 -445 -448 0
476 -540 -549 -448 0
476 -540 -549 -445 0
-477 -478 -479 0
-477 478 479 0
477 478 -479 0
477 -478 479 0
-478 444 450 0
-478 450 451 0
-478 444 451 0
478 -444 -451 0
478 -450 -451 0
478 -444 -450 0
479 480 -481 0
479 -480 481 0
-479 -480 -481 0
-479 480 481 0
-480 456 459 0
-480 458 459 0
-480 456 458 0
480 -456 -458 0
480 -458 -459 0
480 -456 -459 0
481 482 -483 0
481 -482 483 0
-481 -482 -483 0
-481 482 483 0
482 -541 -549 0
-482 541 0
-482 549 0
483 -540 -550 0
-483 540 0
-483 550 0
-484 443 453 0
-484 453 454 0
-484 443 454 0
484 -453 -454 0
484 -443 -453 0
484 -443 -454 0
485 -486 487 0
485 486 -487 0
-485 486 487 0
-485 -486 -487 0
-486 465 484 0
-486 465 467 0
-486 467 484 0
486 -467 -484 0
486 -465 -484 0
486 -465 -467 0
-487 488 501 0
-487 -488 -501 0
487 -488 501 0
487 488 -501 0
488 -489 494 0
488 489 -494 0
-488 489 494 0
-488 -489 -494 0
-489 -490 -491 0
-489 490 491 0
489 490 -491 0
489 -490 491 0
-490 482 483 0
-490 480 482 0
-490 480 483 0
490 -480 -482 0
490 -482 -483 0
490 -480 -483 0
491 492 -493 0
491 -492 493 0
-491 -492 -493 0
-491 492 493 0
-492 552 473 0
-492 538 470 0
-492 470 473 0
-492 552 470 0
-492 538 473 0
492 -470 -473 0
492 -538 -552 -473 0
492 -538 -552 -470 0
493 -541 -550 0
-493 541 0
-493 550 0
-494 -495 -496 0
-494 495 496 0
494 495 -496 0
494 -495 496 0
-495 469 475 0
-495 475 476 0
-495 469 476 0
495 -469 -476 0
495 -475 -476 0
495 -469 -475 0
496 497 -498 0
496 -497 498 0
-496 -497 -498 0
-496 497 498 0
497 -540 -551 0
-497 540 0
-497 551 0
498 499 -500 0
498 -499 500 0
-498 -499 -500 0
-498 499 500 0
499 -539 -552 0
-499 539 0
-499 552 0
500 -538 -553 0
-500 538 0
-500 553 0
-501 468 478 0
-501 478 479 0
-501 468 479 0
501 -478 -479 0
501 -468 -478 0
501 -468 -479 0
502 -503 504 0
502 503 -504 0
-502 503 504 0
-502 -503 -504 0
-503 486 501 0
-503 486 488 0
-503 488 501 0
503 -488 -501 0
503 -486 -501 0
503 -486 -488 0
-504 505 514 0
-504 -505 -514 0
504 -505 514 0
504 505 -514 0
505 -506 511 0
505 506 -511 0
-505 506 511 0
-505 -506 -511 0
-506 -507 -508 0
-506 507 508 0
506 507 -508 0
506 -507 508 0
507 -541 -551 0
-507 541 0
-507 551 0
508 509 -510 0
508 -509 510 0
-508 -509 -510 0
-508 509 510 0
509 -540 -552 0
-509 540 0
-509 552 0
510 -539 -553 0
-510 539 0
-510 553 0
-511 512 513 0
-511 -512 -513 0
511 -512 513 0
511 512 -513 0
-512 490 492 0
-512 492 493 0
-512 490 493 0
512 -492 -493 0
512 -490 -492 0
512 -490 -493 0
-513 552 500 0
-513 539 497 0
-513 497 500 0
-513 552 497 0
-513 539 500 0
513 -497 -500 0
513 -539 -552 -500 0
513 -539 -552 -497 0
-514 489 495 0
-514 495 496 0
-514 489 496 0
514 -495 -496 0
514 -489 -495 0
514 -489 -496 0
515 -516 517 0
515 516 -517 0
-515 516 517 0
-515 -516 -517 0
-516 503 514 0
-516 503 505 0
-516 505 514 0
516 -505 -514 0
516 -503 -514 0
516 -503 -505 0
-517 518 523 0
-517 -518 -523 0
517 -518 523 0
517 518 -523 0
518 519 -520 0
518 -519 520 0
-518 -519 -520 0
-518 519 520 0
-519 507 510 0
-519 509 510 0
-519 507 509 0
519 -507 -509 0
519 -509 -510 0
519 -507 -510 0
520 521 -522 0
520 -521 522 0
-520 -521 -522 0
-520 521 522 0
521 -541 -552 0
-521 541 0
-521 552 0
522 -540 -553 0
-522 540 0
-522 553 0
-523 506 512 0
-523 512 513 0
-523 506 513 0
523 -506 -513 0
523 -512 -513 0
523 -506 -512 0
524 -525 526 0
524 525 -526 0
-524 525 526 0
-524 -525 -526 0
-525 516 523 0
-525 516 518 0
-525 518 523 0
525 -518 -523 0
525 -516 -523 0
525 -516 -518 0
-526 -527 -528 0
-526 527 528 0
526 527 -528 0
526 -527 528 0
-527 521 522 0
-527 519 521 0
-527 519 522 0
527 -519 -521 0
527 -521 -522 0
527 -519 -522 0
528 -541 -553 0
-528 541 0
-528 553 0
-529 525 527 0
-529 527 528 0
-529 525 528 0
529 -527 -528 0
529 -525 -527 0
529 -525 -528 0
-554 0
2 0
3 0
6 0
13 0
24 0
39 0
58 0
81 0
108 0
139 0
174 0
213 0
256 0
299 0
340 0
377 0
410 0
439 0
464 0
485 0
502 0
515 0
524 0
529 0

