c Result of efficient AIG-to-CNF conversion using package CNF
p cnf 522 2073
2 -500 -511 0
-2 500 0
-2 511 0
3 4 -5 0
3 -4 5 0
-3 -4 -5 0
-3 4 5 0
4 -501 -511 0
-4 501 0
-4 511 0
5 -500 -512 0
-5 500 0
-5 512 0
-6 7 8 0
-6 -7 -8 0
6 -7 8 0
6 7 -8 0
7 -500 -501 -511 -512 0
-7 512 0
-7 500 0
-7 511 0
-7 501 0
-8 -9 -10 0
-8 9 10 0
8 9 -10 0
8 -9 10 0
9 -502 -511 0
-9 502 0
-9 511 0
10 11 -12 0
10 -11 12 0
-10 -11 -12 0
-10 11 12 0
11 -501 -512 0
-11 501 0
-11 512 0
12 -500 -513 0
-12 500 0
-12 513 0
13 14 -23 0
13 -14 23 0
-13 -14 -23 0
-13 14 23 0
-14 15 20 0
-14 -15 -20 0
14 -15 20 0
14 15 -20 0
-15 -16 -17 0
-15 16 17 0
15 16 -17 0
15 -16 17 0
16 -502 -512 0
-16 502 0
-16 512 0
17 18 -19 0
17 -18 19 0
-17 -18 -19 0
-17 18 19 0
18 -501 -513 0
-18 501 0
-18 513 0
19 -500 -514 0
-19 500 0
-19 514 0
-20 -21 -22 0
-20 21 22 0
20 21 -22 0
20 -21 22 0
-21 9 12 0
-21 11 12 0
-21 9 11 0
21 -9 -11 0
21 -11 -12 0
21 -9 -12 0
22 -503 -511 0
-22 503 0
-22 511 0
23 -7 -8 0
-23 7 0
-23 8 0
24 -25 26 0
24 25 -26 0
-24 25 26 0
-24 -25 -26 0
25 -14 -23 0
-25 14 0
-25 23 0
-26 27 38 0
-26 -27 -38 0
26 -27 38 0
26 27 -38 0
-27 -28 -31 0
-27 28 31 0
27 28 -31 0
27 -28 31 0
-28 -29 -30 0
-28 29 30 0
28 29 -30 0
28 -29 30 0
29 -504 -511 0
-29 504 0
-29 511 0
30 -503 -512 0
-30 503 0
-30 512 0
31 -32 37 0
31 32 -37 0
-31 32 37 0
-31 -32 -37 0
32 -33 34 0
32 33 -34 0
-32 33 34 0
-32 -33 -34 0
33 -502 -513 0
-33 502 0
-33 513 0
-34 -35 -36 0
-34 35 36 0
34 35 -36 0
34 -35 36 0
35 -501 -514 0
-35 501 0
-35 514 0
36 -500 -515 0
-36 500 0
-36 515 0
-37 513 19 0
-37 501 16 0
-37 16 19 0
-37 513 16 0
-37 501 19 0
37 -16 -19 0
37 -501 -513 -19 0
37 -501 -513 -16 0
-38 15 21 0
-38 21 22 0
-38 15 22 0
38 -21 -22 0
38 -15 -21 0
38 -15 -22 0
39 -40 41 0
39 40 -41 0
-39 40 41 0
-39 -40 -41 0
40 -25 -26 0
-40 25 0
-40 26 0
-41 -42 -59 0
-41 42 59 0
41 42 -59 0
41 -42 59 0
-42 43 52 0
-42 -43 -52 0
42 -43 52 0
42 43 -52 0
-43 -44 -49 0
-43 44 49 0
43 44 -49 0
43 -44 49 0
-44 -45 -46 0
-44 45 46 0
44 45 -46 0
44 -45 46 0
45 -502 -514 0
-45 502 0
-45 514 0
46 47 -48 0
46 -47 48 0
-46 -47 -48 0
-46 47 48 0
47 -501 -515 0
-47 501 0
-47 515 0
48 -500 -516 0
-48 500 0
-48 516 0
49 -50 51 0
49 50 -51 0
-49 50 51 0
-49 -50 -51 0
50 -503 -504 -511 -512 0
-50 512 0
-50 503 0
-50 511 0
-50 504 0
-51 514 36 0
-51 501 33 0
-51 33 36 0
-51 514 33 0
-51 501 36 0
51 -33 -36 0
51 -501 -514 -36 0
51 -501 -514 -33 0
-52 53 54 0
-52 -53 -54 0
52 -53 54 0
52 53 -54 0
-53 28 37 0
-53 28 32 0
-53 32 37 0
53 -32 -37 0
53 -28 -37 0
53 -28 -32 0
-54 -55 -56 0
-54 55 56 0
54 55 -56 0
54 -55 56 0
55 -505 -511 0
-55 505 0
-55 511 0
56 57 -58 0
56 -57 58 0
-56 -57 -58 0
-56 57 58 0
57 -504 -512 0
-57 504 0
-57 512 0
58 -503 -513 0
-58 503 0
-58 513 0
59 -27 -38 0
-59 27 0
-59 38 0
60 -61 62 0
60 61 -62 0
-60 61 62 0
-60 -61 -62 0
61 -40 -41 0
-61 40 0
-61 41 0
-62 -63 -84 0
-62 63 84 0
62 63 -84 0
62 -63 84 0
-63 64 83 0
-63 -64 -83 0
63 -64 83 0
63 64 -83 0
-64 -65 -76 0
-64 65 76 0
64 65 -76 0
64 -65 76 0
-65 -66 -71 0
-65 66 71 0
65 66 -71 0
65 -66 71 0
-66 -67 -68 0
-66 67 68 0
66 67 -68 0
66 -67 68 0
67 -505 -512 0
-67 505 0
-67 512 0
68 69 -70 0
68 -69 70 0
-68 -69 -70 0
-68 69 70 0
69 -504 -513 0
-69 504 0
-69 513 0
70 -503 -514 0
-70 503 0
-70 514 0
71 -72 73 0
71 72 -73 0
-71 72 73 0
-71 -72 -73 0
72 -502 -515 0
-72 502 0
-72 515 0
-73 -74 -75 0
-73 74 75 0
73 74 -75 0
73 -74 75 0
74 -501 -516 0
-74 501 0
-74 516 0
75 -500 -517 0
-75 500 0
-75 517 0
76 -77 82 0
76 77 -82 0
-76 77 82 0
-76 -77 -82 0
-77 78 79 0
-77 -78 -79 0
77 -78 79 0
77 78 -79 0
-78 55 58 0
-78 57 58 0
-78 55 57 0
78 -55 -57 0
78 -57 -58 0
78 -55 -58 0
-79 -80 -81 0
-79 80 81 0
79 80 -81 0
79 -80 81 0
-80 45 48 0
-80 47 48 0
-80 45 47 0
80 -45 -47 0
80 -47 -48 0
80 -45 -48 0
81 -506 -511 0
-81 506 0
-81 511 0
-82 44 51 0
-82 44 50 0
-82 50 51 0
82 -50 -51 0
82 -44 -51 0
82 -44 -50 0
-83 43 53 0
-83 53 54 0
-83 43 54 0
83 -43 -54 0
83 -53 -54 0
83 -43 -53 0
84 -42 -59 0
-84 42 0
-84 59 0
85 -86 87 0
85 86 -87 0
-85 86 87 0
-85 -86 -87 0
86 -61 -62 0
-86 61 0
-86 62 0
-87 -88 -115 0
-87 88 115 0
87 88 -115 0
87 -88 115 0
-88 -89 -114 0
-88 89 114 0
88 89 -114 0
88 -89 114 0
-89 -90 -103 0
-89 90 103 0
89 90 -103 0
89 -90 103 0
-90 -91 -100 0
-90 91 100 0
90 91 -100 0
90 -91 100 0
-91 -92 -97 0
-91 92 97 0
91 92 -97 0
91 -92 97 0
-92 -93 -94 0
-92 93 94 0
92 93 -94 0
92 -93 94 0
93 -502 -516 0
-93 502 0
-93 516 0
94 95 -96 0
94 -95 96 0
-94 -95 -96 0
-94 95 96 0
95 -501 -517 0
-95 501 0
-95 517 0
96 -500 -518 0
-96 500 0
-96 518 0
97 -98 99 0
97 98 -99 0
-97 98 99 0
-97 -98 -99 0
-98 67 70 0
-98 69 70 0
-98 67 69 0
98 -67 -69 0
98 -69 -70 0
98 -67 -70 0
-99 72 75 0
-99 74 75 0
-99 72 74 0
99 -72 -74 0
99 -74 -75 0
99 -72 -75 0
100 -101 102 0
100 101 -102 0
-100 101 102 0
-100 -101 -102 0
101 -66 -71 0
-101 66 0
-101 71 0
-102 78 80 0
-102 80 81 0
-102 78 81 0
102 -80 -81 0
102 -78 -80 0
102 -78 -81 0
103 104 -105 0
103 -104 105 0
-103 -104 -105 0
-103 104 105 0
-104 65 77 0
-104 77 82 0
-104 65 82 0
104 -65 -82 0
104 -77 -82 0
104 -65 -77 0
105 -106 109 0
105 106 -109 0
-105 106 109 0
-105 -106 -109 0
106 107 -108 0
106 -107 108 0
-106 -107 -108 0
-106 107 108 0
107 -507 -511 0
-107 507 0
-107 511 0
108 -506 -512 0
-108 506 0
-108 512 0
-109 -110 -111 0
-109 110 111 0
109 110 -111 0
109 -110 111 0
110 -505 -513 0
-110 505 0
-110 513 0
111 112 -113 0
111 -112 113 0
-111 -112 -113 0
-111 112 113 0
112 -504 -514 0
-112 504 0
-112 514 0
113 -503 -515 0
-113 503 0
-113 515 0
114 -64 -83 0
-114 64 0
-114 83 0
115 -63 -84 0
-115 63 0
-115 84 0
116 -117 119 0
116 117 -119 0
-116 117 119 0
-116 -117 -119 0
-117 118 0
117 -118 0
-118 88 0
-118 86 115 0
118 -86 -88 0
118 -88 -115 0
-119 -120 -151 0
-119 120 151 0
119 120 -151 0
119 -120 151 0
-120 121 150 0
-120 -121 -150 0
120 -121 150 0
120 121 -150 0
-121 -122 -131 0
-121 122 131 0
121 122 -131 0
121 -122 131 0
-122 -123 -128 0
-122 123 128 0
122 123 -128 0
122 -123 128 0
-123 124 125 0
-123 -124 -125 0
123 -124 125 0
123 124 -125 0
124 -506 -507 -511 -512 0
-124 512 0
-124 506 0
-124 511 0
-124 507 0
-125 126 127 0
-125 -126 -127 0
125 -126 127 0
125 126 -127 0
-126 110 113 0
-126 112 113 0
-126 110 112 0
126 -110 -112 0
126 -112 -113 0
126 -110 -113 0
-127 517 96 0
-127 501 93 0
-127 93 96 0
-127 517 93 0
-127 501 96 0
127 -93 -96 0
127 -501 -517 -96 0
127 -501 -517 -93 0
128 -129 130 0
128 129 -130 0
-128 129 130 0
-128 -129 -130 0
129 -106 -109 0
-129 106 0
-129 109 0
-130 92 98 0
-130 98 99 0
-130 92 99 0
130 -92 -99 0
130 -98 -99 0
130 -92 -98 0
131 132 -133 0
131 -132 133 0
-131 -132 -133 0
-131 132 133 0
-132 91 102 0
-132 91 101 0
-132 101 102 0
132 -101 -102 0
132 -91 -102 0
132 -91 -101 0
133 134 -139 0
133 -134 139 0
-133 -134 -139 0
-133 134 139 0
-134 -135 -136 0
-134 135 136 0
134 135 -136 0
134 -135 136 0
135 -508 -511 0
-135 508 0
-135 511 0
136 137 -138 0
136 -137 138 0
-136 -137 -138 0
-136 137 138 0
137 -507 -512 0
-137 507 0
-137 512 0
138 -506 -513 0
-138 506 0
-138 513 0
139 -140 145 0
139 140 -145 0
-139 140 145 0
-139 -140 -145 0
-140 -141 -142 0
-140 141 142 0
140 141 -142 0
140 -141 142 0
141 -505 -514 0
-141 505 0
-141 514 0
142 143 -144 0
142 -143 144 0
-142 -143 -144 0
-142 143 144 0
143 -504 -515 0
-143 504 0
-143 515 0
144 -503 -516 0
-144 503 0
-144 516 0
-145 -146 -147 0
-145 146 147 0
145 146 -147 0
145 -146 147 0
146 -502 -517 0
-146 502 0
-146 517 0
147 148 -149 0
147 -148 149 0
-147 -148 -149 0
-147 148 149 0
148 -501 -518 0
-148 501 0
-148 518 0
149 -500 -519 0
-149 500 0
-149 519 0
-150 90 104 0
-150 104 105 0
-150 90 105 0
150 -104 -105 0
150 -90 -104 0
150 -90 -105 0
151 -89 -114 0
-151 89 0
-151 114 0
152 -153 154 0
152 153 -154 0
-152 153 154 0
-152 -153 -154 0
-153 117 120 0
-153 120 151 0
-153 117 151 0
153 -120 -151 0
153 -117 -120 0
153 -117 -151 0
-154 -155 -188 0
-154 155 188 0
154 155 -188 0
154 -155 188 0
155 -156 187 0
155 156 -187 0
-155 156 187 0
-155 -156 -187 0
-156 -157 -176 0
-156 157 176 0
156 157 -176 0
156 -157 176 0
-157 -158 -171 0
-157 158 171 0
157 158 -171 0
157 -158 171 0
-158 -159 -164 0
-158 159 164 0
158 159 -164 0
158 -159 164 0
-159 -160 -161 0
-159 160 161 0
159 160 -161 0
159 -160 161 0
160 -505 -515 0
-160 505 0
-160 515 0
161 162 -163 0
161 -162 163 0
-161 -162 -163 0
-161 162 163 0
162 -504 -516 0
-162 504 0
-162 516 0
163 -503 -517 0
-163 503 0
-163 517 0
164 -165 170 0
164 165 -170 0
-164 165 170 0
-164 -165 -170 0
-165 -166 -167 0
-165 166 167 0
165 166 -167 0
165 -166 167 0
166 -502 -518 0
-166 502 0
-166 518 0
167 168 -169 0
167 -168 169 0
-167 -168 -169 0
-167 168 169 0
168 -501 -519 0
-168 501 0
-168 519 0
169 -500 -520 0
-169 500 0
-169 520 0
-170 512 138 0
-170 507 135 0
-170 135 138 0
-170 512 135 0
-170 507 138 0
170 -135 -138 0
170 -507 -512 -138 0
170 -507 -512 -135 0
171 -172 173 0
171 172 -173 0
-171 172 173 0
-171 -172 -173 0
-172 515 144 0
-172 504 141 0
-172 141 144 0
-172 515 141 0
-172 504 144 0
172 -141 -144 0
172 -504 -515 -144 0
172 -504 -515 -141 0
-173 -174 -175 0
-173 174 175 0
173 174 -175 0
173 -174 175 0
-174 146 149 0
-174 148 149 0
-174 146 148 0
174 -146 -148 0
174 -148 -149 0
174 -146 -149 0
175 -509 -511 0
-175 509 0
-175 511 0
176 -177 186 0
176 177 -186 0
-176 177 186 0
-176 -177 -186 0
177 -178 179 0
177 178 -179 0
-177 178 179 0
-177 -178 -179 0
-178 134 140 0
-178 140 145 0
-178 134 145 0
178 -134 -145 0
178 -140 -145 0
178 -134 -140 0
-179 -180 -181 0
-179 180 181 0
179 180 -181 0
179 -180 181 0
-180 124 126 0
-180 126 127 0
-180 124 127 0
180 -126 -127 0
180 -124 -126 0
180 -124 -127 0
181 182 -183 0
181 -182 183 0
-181 -182 -183 0
-181 182 183 0
182 -508 -512 0
-182 508 0
-182 512 0
183 184 -185 0
183 -184 185 0
-183 -184 -185 0
-183 184 185 0
184 -507 -513 0
-184 507 0
-184 513 0
185 -506 -514 0
-185 506 0
-185 514 0
-186 129 123 0
-186 123 130 0
-186 129 130 0
186 -123 -130 0
186 -129 -123 0
186 -129 -130 0
-187 122 132 0
-187 132 133 0
-187 122 133 0
187 -132 -133 0
187 -122 -132 0
187 -122 -133 0
188 -121 -150 0
-188 121 0
-188 150 0
189 -190 191 0
189 190 -191 0
-189 190 191 0
-189 -190 -191 0
-190 155 188 0
-190 153 155 0
-190 153 188 0
190 -153 -155 0
190 -155 -188 0
190 -153 -188 0
-191 -192 -193 0
-191 192 193 0
191 192 -193 0
191 -192 193 0
192 -156 -187 0
-192 156 0
-192 187 0
193 -194 205 0
193 194 -205 0
-193 194 205 0
-193 -194 -205 0
-194 -195 -202 0
-194 195 202 0
194 195 -202 0
194 -195 202 0
-195 -196 -197 0
-195 196 197 0
195 196 -197 0
195 -196 197 0
-196 159 165 0
-196 165 170 0
-196 159 170 0
196 -159 -170 0
196 -165 -170 0
196 -159 -165 0
197 198 -199 0
197 -198 199 0
-197 -198 -199 0
-197 198 199 0
-198 172 174 0
-198 174 175 0
-198 172 175 0
198 -174 -175 0
198 -172 -174 0
198 -172 -175 0
199 200 -201 0
199 -200 201 0
-199 -200 -201 0
-199 200 201 0
200 -510 -511 0
-200 510 0
-200 511 0
201 -509 -512 0
-201 509 0
-201 512 0
202 -203 204 0
202 203 -204 0
-202 203 204 0
-202 -203 -204 0
203 -158 -171 0
-203 158 0
-203 171 0
-204 178 180 0
-204 180 181 0
-204 178 181 0
204 -180 -181 0
204 -178 -180 0
204 -178 -181 0
-205 -206 -207 0
-205 206 207 0
205 206 -207 0
205 -206 207 0
-206 157 186 0
-206 157 177 0
-206 177 186 0
206 -177 -186 0
206 -157 -186 0
206 -157 -177 0
207 208 -225 0
207 -208 225 0
-207 -208 -225 0
-207 208 225 0
-208 -209 -214 0
-208 209 214 0
208 209 -214 0
208 -209 214 0
-209 -210 -211 0
-209 210 211 0
209 210 -211 0
209 -210 211 0
210 -508 -513 0
-210 508 0
-210 513 0
211 212 -213 0
211 -212 213 0
-211 -212 -213 0
-211 212 213 0
212 -507 -514 0
-212 507 0
-212 514 0
213 -506 -515 0
-213 506 0
-213 515 0
214 -215 220 0
214 215 -220 0
-214 215 220 0
-214 -215 -220 0
-215 -216 -217 0
-215 216 217 0
215 216 -217 0
215 -216 217 0
216 -505 -516 0
-216 505 0
-216 516 0
217 218 -219 0
217 -218 219 0
-217 -218 -219 0
-217 218 219 0
218 -504 -517 0
-218 504 0
-218 517 0
219 -503 -518 0
-219 503 0
-219 518 0
-220 -221 -222 0
-220 221 222 0
220 221 -222 0
220 -221 222 0
221 -502 -519 0
-221 502 0
-221 519 0
222 223 -224 0
222 -223 224 0
-222 -223 -224 0
-222 223 224 0
223 -501 -520 0
-223 501 0
-223 520 0
224 -500 -521 0
-224 500 0
-224 521 0
225 -226 227 0
225 226 -227 0
-225 226 227 0
-225 -226 -227 0
-226 513 185 0
-226 507 182 0
-226 182 185 0
-226 513 182 0
-226 507 185 0
226 -182 -185 0
226 -507 -513 -185 0
226 -507 -513 -182 0
-227 228 229 0
-227 -228 -229 0
227 -228 229 0
227 228 -229 0
-228 160 163 0
-228 162 163 0
-228 160 162 0
228 -160 -162 0
228 -162 -163 0
228 -160 -163 0
-229 166 169 0
-229 168 169 0
-229 166 168 0
229 -166 -168 0
229 -168 -169 0
229 -166 -169 0
230 -231 232 0
230 231 -232 0
-230 231 232 0
-230 -231 -232 0
-231 190 193 0
-231 192 193 0
-231 192 190 0
231 -192 -193 0
231 -192 -190 0
231 -190 -193 0
-232 233 270 0
-232 -233 -270 0
232 -233 270 0
232 233 -270 0
233 -234 247 0
233 234 -247 0
-233 234 247 0
-233 -234 -247 0
-234 -235 -244 0
-234 235 244 0
234 235 -244 0
234 -235 244 0
-235 -236 -241 0
-235 236 241 0
235 236 -241 0
235 -236 241 0
-236 237 238 0
-236 -237 -238 0
236 -237 238 0
236 237 -238 0
-237 517 219 0
-237 504 216 0
-237 216 219 0
-237 517 216 0
-237 504 219 0
237 -216 -219 0
237 -504 -517 -219 0
237 -504 -517 -216 0
-238 -239 -240 0
-238 239 240 0
238 239 -240 0
238 -239 240 0
-239 221 224 0
-239 223 224 0
-239 221 223 0
239 -221 -223 0
239 -223 -224 0
239 -221 -224 0
240 -510 -512 0
-240 510 0
-240 512 0
241 -242 243 0
241 242 -243 0
-241 242 243 0
-241 -242 -243 0
-242 209 215 0
-242 215 220 0
-242 209 220 0
242 -209 -220 0
242 -215 -220 0
242 -209 -215 0
-243 226 228 0
-243 228 229 0
-243 226 229 0
243 -226 -229 0
243 -228 -229 0
243 -226 -228 0
244 -245 246 0
244 245 -246 0
-244 245 246 0
-244 -245 -246 0
245 -208 -225 0
-245 208 0
-245 225 0
-246 196 198 0
-246 198 199 0
-246 196 199 0
246 -198 -199 0
246 -196 -198 0
246 -196 -199 0
-247 -248 -249 0
-247 248 249 0
247 248 -249 0
247 -248 249 0
-248 195 204 0
-248 195 203 0
-248 203 204 0
248 -203 -204 0
248 -195 -204 0
248 -195 -203 0
249 250 -261 0
249 -250 261 0
-249 -250 -261 0
-249 250 261 0
250 -251 256 0
250 251 -256 0
-250 251 256 0
-250 -251 -256 0
-251 -252 -253 0
-251 252 253 0
251 252 -253 0
251 -252 253 0
252 -509 -513 0
-252 509 0
-252 513 0
253 254 -255 0
253 -254 255 0
-253 -254 -255 0
-253 254 255 0
254 -508 -514 0
-254 508 0
-254 514 0
255 -507 -515 0
-255 507 0
-255 515 0
-256 -257 -258 0
-256 257 258 0
256 257 -258 0
256 -257 258 0
257 -506 -516 0
-257 506 0
-257 516 0
258 259 -260 0
258 -259 260 0
-258 -259 -260 0
-258 259 260 0
259 -505 -517 0
-259 505 0
-259 517 0
260 -504 -518 0
-260 504 0
-260 518 0
261 262 -267 0
261 -262 267 0
-261 -262 -267 0
-261 262 267 0
-262 -263 -264 0
-262 263 264 0
262 263 -264 0
262 -263 264 0
263 -503 -519 0
-263 503 0
-263 519 0
264 265 -266 0
264 -265 266 0
-264 -265 -266 0
-264 265 266 0
265 -502 -520 0
-265 502 0
-265 520 0
266 -501 -521 0
-266 501 0
-266 521 0
267 -268 269 0
267 268 -269 0
-267 268 269 0
-267 -268 -269 0
268 -509 -510 -511 -512 0
-268 512 0
-268 509 0
-268 511 0
-268 510 0
-269 210 213 0
-269 212 213 0
-269 210 212 0
269 -210 -212 0
269 -212 -213 0
269 -210 -213 0
-270 194 206 0
-270 206 207 0
-270 194 207 0
270 -206 -207 0
270 -194 -206 0
270 -194 -207 0
271 -272 273 0
271 272 -273 0
-271 272 273 0
-271 -272 -273 0
-272 231 270 0
-272 231 233 0
-272 233 270 0
272 -233 -270 0
272 -231 -270 0
272 -231 -233 0
-273 274 309 0
-273 -274 -309 0
273 -274 309 0
273 274 -309 0
274 -275 284 0
274 275 -284 0
-274 275 284 0
-274 -275 -284 0
-275 -276 -281 0
-275 276 281 0
275 276 -281 0
275 -276 281 0
-276 277 278 0
-276 -277 -278 0
276 -277 278 0
276 277 -278 0
277 -251 -256 0
-277 251 0
-277 256 0
-278 279 280 0
-278 -279 -280 0
278 -279 280 0
278 279 -280 0
-279 268 262 0
-279 262 269 0
-279 268 269 0
279 -262 -269 0
279 -268 -262 0
279 -268 -269 0
-280 237 239 0
-280 239 240 0
-280 237 240 0
280 -239 -240 0
280 -237 -239 0
280 -237 -240 0
281 -282 283 0
281 282 -283 0
-281 282 283 0
-281 -282 -283 0
282 -250 -261 0
-282 250 0
-282 261 0
-283 236 242 0
-283 242 243 0
-283 236 243 0
283 -236 -243 0
283 -242 -243 0
283 -236 -242 0
-284 -285 -286 0
-284 285 286 0
284 285 -286 0
284 -285 286 0
-285 245 235 0
-285 235 246 0
-285 245 246 0
285 -235 -246 0
285 -245 -235 0
285 -245 -246 0
286 287 -304 0
286 -287 304 0
-286 -287 -304 0
-286 287 304 0
-287 -288 -293 0
-287 288 293 0
287 288 -293 0
287 -288 293 0
-288 -289 -290 0
-288 289 290 0
288 289 -290 0
288 -289 290 0
289 -510 -513 0
-289 510 0
-289 513 0
290 291 -292 0
290 -291 292 0
-290 -291 -292 0
-290 291 292 0
291 -509 -514 0
-291 509 0
-291 514 0
292 -508 -515 0
-292 508 0
-292 515 0
293 -294 299 0
293 294 -299 0
-293 294 299 0
-293 -294 -299 0
-294 -295 -296 0
-294 295 296 0
294 295 -296 0
294 -295 296 0
295 -507 -516 0
-295 507 0
-295 516 0
296 297 -298 0
296 -297 298 0
-296 -297 -298 0
-296 297 298 0
297 -506 -517 0
-297 506 0
-297 517 0
298 -505 -518 0
-298 505 0
-298 518 0
-299 -300 -301 0
-299 300 301 0
299 300 -301 0
299 -300 301 0
300 -504 -519 0
-300 504 0
-300 519 0
301 302 -303 0
301 -302 303 0
-301 -302 -303 0
-301 302 303 0
302 -503 -520 0
-302 503 0
-302 520 0
303 -502 -521 0
-303 502 0
-303 521 0
304 -305 306 0
304 305 -306 0
-304 305 306 0
-304 -305 -306 0
-305 514 255 0
-305 508 252 0
-305 252 255 0
-305 514 252 0
-305 508 255 0
305 -252 -255 0
305 -508 -514 -255 0
305 -508 -514 -252 0
-306 307 308 0
-306 -307 -308 0
306 -307 308 0
306 307 -308 0
-307 517 260 0
-307 505 257 0
-307 257 260 0
-307 517 257 0
-307 505 260 0
307 -257 -260 0
307 -505 -517 -260 0
307 -505 -517 -257 0
-308 263 266 0
-308 265 266 0
-308 263 265 0
308 -263 -265 0
308 -265 -266 0
308 -263 -266 0
-309 234 248 0
-309 248 249 0
-309 234 249 0
309 -248 -249 0
309 -234 -248 0
309 -234 -249 0
310 -311 312 0
310 311 -312 0
-310 311 312 0
-310 -311 -312 0
-311 272 309 0
-311 272 274 0
-311 274 309 0
311 -274 -309 0
311 -272 -309 0
311 -272 -274 0
-312 313 344 0
-312 -313 -344 0
312 -313 344 0
312 313 -344 0
313 -314 333 0
313 314 -333 0
-313 314 333 0
-313 -314 -333 0
-314 315 316 0
-314 -315 -316 0
314 -315 316 0
314 315 -316 0
315 -287 -304 0
-315 287 0
-315 304 0
-316 -317 -318 0
-316 317 318 0
316 317 -318 0
316 -317 318 0
-317 277 279 0
-317 279 280 0
-317 277 280 0
317 -279 -280 0
317 -277 -279 0
317 -277 -280 0
318 319 -322 0
318 -319 322 0
-318 -319 -322 0
-318 319 322 0
319 320 -321 0
319 -320 321 0
-319 -320 -321 0
-319 320 321 0
320 -510 -514 0
-320 510 0
-320 514 0
321 -509 -515 0
-321 509 0
-321 515 0
322 -323 328 0
322 323 -328 0
-322 323 328 0
-322 -323 -328 0
-323 -324 -325 0
-323 324 325 0
323 324 -325 0
323 -324 325 0
324 -508 -516 0
-324 508 0
-324 516 0
325 326 -327 0
325 -326 327 0
-325 -326 -327 0
-325 326 327 0
326 -507 -517 0
-326 507 0
-326 517 0
327 -506 -518 0
-327 506 0
-327 518 0
-328 -329 -330 0
-328 329 330 0
328 329 -330 0
328 -329 330 0
329 -505 -519 0
-329 505 0
-329 519 0
330 331 -332 0
330 -331 332 0
-330 -331 -332 0
-330 331 332 0
331 -504 -520 0
-331 504 0
-331 520 0
332 -503 -521 0
-332 503 0
-332 521 0
-333 -334 -335 0
-333 334 335 0
333 334 -335 0
333 -334 335 0
-334 282 276 0
-334 276 283 0
-334 282 283 0
334 -276 -283 0
334 -282 -276 0
334 -282 -283 0
335 -336 341 0
335 336 -341 0
-335 336 341 0
-335 -336 -341 0
-336 -337 -338 0
-336 337 338 0
336 337 -338 0
336 -337 338 0
-337 514 292 0
-337 509 289 0
-337 289 292 0
-337 514 289 0
-337 509 292 0
337 -289 -292 0
337 -509 -514 -292 0
337 -509 -514 -289 0
338 -339 340 0
338 339 -340 0
-338 339 340 0
-338 -339 -340 0
-339 295 298 0
-339 297 298 0
-339 295 297 0
339 -295 -297 0
339 -297 -298 0
339 -295 -298 0
-340 300 303 0
-340 302 303 0
-340 300 302 0
340 -300 -302 0
340 -302 -303 0
340 -300 -303 0
-341 342 343 0
-341 -342 -343 0
341 -342 343 0
341 342 -343 0
-342 288 294 0
-342 294 299 0
-342 288 299 0
342 -288 -299 0
342 -294 -299 0
342 -288 -294 0
-343 305 307 0
-343 307 308 0
-343 305 308 0
343 -305 -308 0
343 -307 -308 0
343 -305 -307 0
-344 275 285 0
-344 285 286 0
-344 275 286 0
344 -285 -286 0
344 -275 -285 0
344 -275 -286 0
345 -346 347 0
345 346 -347 0
-345 346 347 0
-345 -346 -347 0
-346 311 344 0
-346 311 313 0
-346 313 344 0
346 -313 -344 0
346 -311 -344 0
346 -311 -313 0
-347 348 375 0
-347 -348 -375 0
347 -348 375 0
347 348 -375 0
348 -349 374 0
348 349 -374 0
-348 349 374 0
-348 -349 -374 0
-349 -350 -359 0
-349 350 359 0
349 350 -359 0
349 -350 359 0
-350 -351 -356 0
-350 351 356 0
350 351 -356 0
350 -351 356 0
-351 -352 -353 0
-351 352 353 0
351 352 -353 0
351 -352 353 0
-352 324 327 0
-352 326 327 0
-352 324 326 0
352 -324 -326 0
352 -326 -327 0
352 -324 -327 0
353 354 -355 0
353 -354 355 0
-353 -354 -355 0
-353 354 355 0
-354 329 332 0
-354 331 332 0
-354 329 331 0
354 -329 -331 0
354 -331 -332 0
354 -329 -332 0
355 -510 -515 0
-355 510 0
-355 515 0
356 -357 358 0
356 357 -358 0
-356 357 358 0
-356 -357 -358 0
-357 319 323 0
-357 323 328 0
-357 319 328 0
357 -323 -328 0
357 -319 -323 0
357 -319 -328 0
-358 337 339 0
-358 339 340 0
-358 337 340 0
358 -337 -340 0
358 -339 -340 0
358 -337 -339 0
359 360 -361 0
359 -360 361 0
-359 -360 -361 0
-359 360 361 0
-360 336 342 0
-360 342 343 0
-360 336 343 0
360 -336 -343 0
360 -342 -343 0
360 -336 -342 0
361 -362 367 0
361 362 -367 0
-361 362 367 0
-361 -362 -367 0
-362 -363 -364 0
-362 363 364 0
362 363 -364 0
362 -363 364 0
363 -509 -516 0
-363 509 0
-363 516 0
364 365 -366 0
364 -365 366 0
-364 -365 -366 0
-364 365 366 0
365 -508 -517 0
-365 508 0
-365 517 0
366 -507 -518 0
-366 507 0
-366 518 0
-367 368 369 0
-367 -368 -369 0
367 -368 369 0
367 368 -369 0
368 -509 -510 -514 -515 0
-368 515 0
-368 509 0
-368 514 0
-368 510 0
-369 -370 -371 0
-369 370 371 0
369 370 -371 0
369 -370 371 0
370 -506 -519 0
-370 506 0
-370 519 0
371 372 -373 0
371 -372 373 0
-371 -372 -373 0
-371 372 373 0
372 -505 -520 0
-372 505 0
-372 520 0
373 -504 -521 0
-373 504 0
-373 521 0
-374 317 318 0
-374 315 318 0
-374 315 317 0
374 -315 -318 0
374 -315 -317 0
374 -317 -318 0
-375 314 334 0
-375 334 335 0
-375 314 335 0
375 -334 -335 0
375 -314 -334 0
375 -314 -335 0
376 -377 378 0
376 377 -378 0
-376 377 378 0
-376 -377 -378 0
-377 346 375 0
-377 346 348 0
-377 348 375 0
377 -348 -375 0
377 -346 -375 0
377 -346 -348 0
-378 -379 -380 0
-378 379 380 0
378 379 -380 0
378 -379 380 0
379 -349 -374 0
-379 349 0
-379 374 0
380 -381 402 0
380 381 -402 0
-380 381 402 0
-380 -381 -402 0
-381 -382 -391 0
-381 382 391 0
381 382 -391 0
381 -382 391 0
-382 -383 -384 0
-382 383 384 0
382 383 -384 0
382 -383 384 0
-383 368 362 0
-383 362 369 0
-383 368 369 0
383 -362 -369 0
383 -368 -362 0
383 -368 -369 0
384 -385 386 0
384 385 -386 0
-384 385 386 0
-384 -385 -386 0
-385 352 354 0
-385 354 355 0
-385 352 355 0
385 -354 -355 0
385 -352 -354 0
385 -352 -355 0
-386 -387 -388 0
-386 387 388 0
386 387 -388 0
386 -387 388 0
387 -510 -516 0
-387 510 0
-387 516 0
388 389 -390 0
388 -389 390 0
-388 -389 -390 0
-388 389 390 0
389 -509 -517 0
-389 509 0
-389 517 0
390 -508 -518 0
-390 508 0
-390 518 0
391 392 -393 0
391 -392 393 0
-391 -392 -393 0
-391 392 393 0
-392 351 357 0
-392 357 358 0
-392 351 358 0
392 -351 -358 0
392 -357 -358 0
392 -351 -357 0
393 -394 399 0
393 394 -399 0
-393 394 399 0
-393 -394 -399 0
-394 -395 -396 0
-394 395 396 0
394 395 -396 0
394 -395 396 0
395 -507 -519 0
-395 507 0
-395 519 0
396 397 -398 0
396 -397 398 0
-396 -397 -398 0
-396 397 398 0
397 -506 -520 0
-397 506 0
-397 520 0
398 -505 -521 0
-398 505 0
-398 521 0
-399 400 401 0
-399 -400 -401 0
399 -400 401 0
399 400 -401 0
-400 363 366 0
-400 365 366 0
-400 363 365 0
400 -363 -365 0
400 -365 -366 0
400 -363 -366 0
-401 370 373 0
-401 372 373 0
-401 370 372 0
401 -370 -372 0
401 -372 -373 0
401 -370 -373 0
-402 350 360 0
-402 360 361 0
-402 350 361 0
402 -360 -361 0
402 -350 -360 0
402 -350 -361 0
403 -404 405 0
403 404 -405 0
-403 404 405 0
-403 -404 -405 0
-404 377 380 0
-404 379 380 0
-404 379 377 0
404 -379 -380 0
404 -379 -377 0
404 -377 -380 0
-405 -406 -407 0
-405 406 407 0
405 406 -407 0
405 -406 407 0
406 -381 -402 0
-406 381 0
-406 402 0
407 -408 425 0
407 408 -425 0
-407 408 425 0
-407 -408 -425 0
-408 409 424 0
-408 -409 -424 0
408 -409 424 0
408 409 -424 0
-409 -410 -419 0
-409 410 419 0
409 410 -419 0
409 -410 419 0
-410 -411 -416 0
-410 411 416 0
410 411 -416 0
410 -411 416 0
-411 -412 -413 0
-411 412 413 0
411 412 -413 0
411 -412 413 0
412 -508 -519 0
-412 508 0
-412 519 0
413 414 -415 0
413 -414 415 0
-413 -414 -415 0
-413 414 415 0
414 -507 -520 0
-414 507 0
-414 520 0
415 -506 -521 0
-415 506 0
-415 521 0
416 -417 418 0
416 417 -418 0
-416 417 418 0
-416 -417 -418 0
-417 387 390 0
-417 389 390 0
-417 387 389 0
417 -387 -389 0
417 -389 -390 0
417 -387 -390 0
-418 395 398 0
-418 397 398 0
-418 395 397 0
418 -395 -397 0
418 -397 -398 0
418 -395 -398 0
419 420 -421 0
419 -420 421 0
-419 -420 -421 0
-419 420 421 0
-420 394 400 0
-420 400 401 0
-420 394 401 0
420 -394 -401 0
420 -400 -401 0
420 -394 -400 0
421 422 -423 0
421 -422 423 0
-421 -422 -423 0
-421 422 423 0
422 -510 -517 0
-422 510 0
-422 517 0
423 -509 -518 0
-423 509 0
-423 518 0
-424 383 385 0
-424 385 386 0
-424 383 386 0
424 -383 -386 0
424 -385 -386 0
424 -383 -385 0
-425 382 392 0
-425 392 393 0
-425 382 393 0
425 -392 -393 0
425 -382 -392 0
425 -382 -393 0
426 -427 428 0
426 427 -428 0
-426 427 428 0
-426 -427 -428 0
-427 404 407 0
-427 406 407 0
-427 406 404 0
427 -406 -407 0
427 -406 -404 0
427 -404 -407 0
-428 429 430 0
-428 -429 -430 0
428 -429 430 0
428 429 -430 0
429 -408 -425 0
-429 408 0
-429 425 0
-430 -431 -446 0
-430 431 446 0
430 431 -446 0
430 -431 446 0
-431 432 445 0
-431 -432 -445 0
431 -432 445 0
431 432 -445 0
-432 -433 -438 0
-432 433 438 0
432 433 -438 0
432 -433 438 0
-433 434 435 0
-433 -434 -435 0
433 -434 435 0
433 434 -435 0
434 -509 -510 -517 -518 0
-434 518 0
-434 509 0
-434 517 0
-434 510 0
-435 -436 -437 0
-435 436 437 0
435 436 -437 0
435 -436 437 0
-436 412 415 0
-436 414 415 0
-436 412 414 0
436 -412 -414 0
436 -414 -415 0
436 -412 -415 0
437 -510 -518 0
-437 510 0
-437 518 0
438 -439 440 0
438 439 -440 0
-438 439 440 0
-438 -439 -440 0
-439 411 417 0
-439 417 418 0
-439 411 418 0
439 -411 -418 0
439 -417 -418 0
439 -411 -417 0
-440 -441 -442 0
-440 441 442 0
440 441 -442 0
440 -441 442 0
441 -509 -519 0
-441 509 0
-441 519 0
442 443 -444 0
442 -443 444 0
-442 -443 -444 0
-442 443 444 0
443 -508 -520 0
-443 508 0
-443 520 0
444 -507 -521 0
-444 507 0
-444 521 0
-445 410 420 0
-445 420 421 0
-445 410 421 0
445 -420 -421 0
445 -410 -420 0
445 -410 -421 0
446 -409 -424 0
-446 409 0
-446 424 0
447 -448 449 0
447 448 -449 0
-447 448 449 0
-447 -448 -449 0
-448 429 427 0
-448 427 430 0
-448 429 430 0
448 -427 -430 0
448 -429 -427 0
448 -429 -430 0
-449 -450 -463 0
-449 450 463 0
449 450 -463 0
449 -450 463 0
-450 -451 -462 0
-450 451 462 0
450 451 -462 0
450 -451 462 0
-451 452 461 0
-451 -452 -461 0
451 -452 461 0
451 452 -461 0
-452 453 460 0
-452 -453 -460 0
452 -453 460 0
452 453 -460 0
-453 454 459 0
-453 -454 -459 0
453 -454 459 0
453 454 -459 0
-454 -455 -456 0
-454 455 456 0
454 455 -456 0
454 -455 456 0
455 -510 -519 0
-455 510 0
-455 519 0
456 457 -458 0
456 -457 458 0
-456 -457 -458 0
-456 457 458 0
457 -509 -520 0
-457 509 0
-457 520 0
458 -508 -521 0
-458 508 0
-458 521 0
-459 441 444 0
-459 443 444 0
-459 441 443 0
459 -441 -443 0
459 -443 -444 0
459 -441 -444 0
-460 436 437 0
-460 434 437 0
-460 434 436 0
460 -434 -437 0
460 -434 -436 0
460 -436 -437 0
-461 433 439 0
-461 439 440 0
-461 433 440 0
461 -433 -440 0
461 -439 -440 0
461 -433 -439 0
462 -432 -445 0
-462 432 0
-462 445 0
463 -431 -446 0
-463 431 0
-463 446 0
464 -465 466 0
464 465 -466 0
-464 465 466 0
-464 -465 -466 0
-465 448 450 0
-465 450 463 0
-465 448 463 0
465 -450 -463 0
465 -448 -450 0
465 -448 -463 0
-466 -467 -478 0
-466 467 478 0
466 467 -478 0
466 -467 478 0
-467 -468 -477 0
-467 468 477 0
467 468 -477 0
467 -468 477 0
-468 -469 -476 0
-468 469 476 0
468 469 -476 0
468 -469 476 0
-469 -470 -475 0
-469 470 475 0
469 470 -475 0
469 -470 475 0
-470 471 474 0
-470 -471 -474 0
470 -471 474 0
470 471 -474 0
471 472 -473 0
471 -472 473 0
-471 -472 -473 0
-471 472 473 0
472 -510 -520 0
-472 510 0
-472 520 0
473 -509 -521 0
-473 509 0
-473 521 0
-474 520 458 0
-474 509 455 0
-474 455 458 0
-474 520 455 0
-474 509 458 0
474 -455 -458 0
474 -509 -520 -458 0
474 -509 -520 -455 0
475 -454 -459 0
-475 454 0
-475 459 0
476 -453 -460 0
-476 453 0
-476 460 0
477 -452 -461 0
-477 452 0
-477 461 0
478 -451 -462 0
-478 451 0
-478 462 0
479 -480 481 0
479 480 -481 0
-479 480 481 0
-479 -480 -481 0
-480 465 467 0
-480 467 478 0
-480 465 478 0
480 -467 -478 0
480 -465 -467 0
480 -465 -478 0
-481 -482 -490 0
-481 482 490 0
481 482 -490 0
481 -482 490 0
-482 -483 -489 0
-482 483 489 0
482 483 -489 0
482 -483 489 0
-483 -484 -488 0
-483 484 488 0
483 484 -488 0
483 -484 488 0
-484 -485 -487 0
-484 485 487 0
484 485 -487 0
484 -485 487 0
-485 486 0
485 -486 0
486 509 -510 -521 0
486 -510 520 -521 0
-486 521 0
-486 510 0
-486 -509 -520 0
487 -471 -474 0
-487 471 0
-487 474 0
488 -470 -475 0
-488 470 0
-488 475 0
489 -469 -476 0
-489 469 0
-489 476 0
490 -468 -477 0
-490 468 0
-490 477 0
491 -492 493 0
491 492 -493 0
-491 492 493 0
-491 -492 -493 0
-492 480 482 0
-492 482 490 0
-492 480 490 0
492 -482 -490 0
492 -480 -482 0
492 -480 -490 0
-493 -494 -499 0
-493 494 499 0
493 494 -499 0
493 -494 499 0
-494 -495 -498 0
-494 495 498 0
494 495 -498 0
494 -495 498 0
-495 -496 -497 0
-495 496 497 0
495 496 -497 0
495 -496 497 0
496 -485 -487 0
-496 485 0
-496 487 0
497 -509 -510 -520 -521 0
-497 521 0
-497 509 0
-497 520 0
-497 510 0
498 -484 -488 0
-498 484 0
-498 488 0
499 -483 -489 0
-499 483 0
-499 489 0
-522 0
2 0
3 0
6 0
13 0
24 0
39 0
60 0
85 0
116 0
152 0
189 0
230 0
271 0
310 0
345 0
376 0
403 0
426 0
447 0
464 0
479 0
491 0

