c Result of efficient AIG-to-CNF conversion using package CNF
p cnf 434 1712
2 -414 -424 0
-2 414 0
-2 424 0
3 4 -5 0
3 -4 5 0
-3 -4 -5 0
-3 4 5 0
4 -415 -424 0
-4 415 0
-4 424 0
5 -414 -425 0
-5 414 0
-5 425 0
-6 7 8 0
-6 -7 -8 0
6 -7 8 0
6 7 -8 0
7 -414 -415 -424 -425 0
-7 425 0
-7 414 0
-7 424 0
-7 415 0
-8 -9 -10 0
-8 9 10 0
8 9 -10 0
8 -9 10 0
9 -416 -424 0
-9 416 0
-9 424 0
10 11 -12 0
10 -11 12 0
-10 -11 -12 0
-10 11 12 0
11 -415 -425 0
-11 415 0
-11 425 0
12 -414 -426 0
-12 414 0
-12 426 0
13 14 -23 0
13 -14 23 0
-13 -14 -23 0
-13 14 23 0
-14 15 20 0
-14 -15 -20 0
14 -15 20 0
14 15 -20 0
-15 -16 -17 0
-15 16 17 0
15 16 -17 0
15 -16 17 0
16 -416 -425 0
-16 416 0
-16 425 0
17 18 -19 0
17 -18 19 0
-17 -18 -19 0
-17 18 19 0
18 -415 -426 0
-18 415 0
-18 426 0
19 -414 -427 0
-19 414 0
-19 427 0
-20 -21 -22 0
-20 21 22 0
20 21 -22 0
20 -21 22 0
-21 9 12 0
-21 11 12 0
-21 9 11 0
21 -9 -11 0
21 -11 -12 0
21 -9 -12 0
22 -417 -424 0
-22 417 0
-22 424 0
23 -7 -8 0
-23 7 0
-23 8 0
24 -25 26 0
24 25 -26 0
-24 25 26 0
-24 -25 -26 0
25 -14 -23 0
-25 14 0
-25 23 0
-26 27 38 0
-26 -27 -38 0
26 -27 38 0
26 27 -38 0
-27 -28 -31 0
-27 28 31 0
27 28 -31 0
27 -28 31 0
-28 -29 -30 0
-28 29 30 0
28 29 -30 0
28 -29 30 0
29 -418 -424 0
-29 418 0
-29 424 0
30 -417 -425 0
-30 417 0
-30 425 0
31 -32 37 0
31 32 -37 0
-31 32 37 0
-31 -32 -37 0
32 -33 34 0
32 33 -34 0
-32 33 34 0
-32 -33 -34 0
33 -416 -426 0
-33 416 0
-33 426 0
-34 -35 -36 0
-34 35 36 0
34 35 -36 0
34 -35 36 0
35 -415 -427 0
-35 415 0
-35 427 0
36 -414 -428 0
-36 414 0
-36 428 0
-37 426 19 0
-37 415 16 0
-37 16 19 0
-37 426 16 0
-37 415 19 0
37 -16 -19 0
37 -415 -426 -19 0
37 -415 -426 -16 0
-38 15 21 0
-38 21 22 0
-38 15 22 0
38 -21 -22 0
38 -15 -21 0
38 -15 -22 0
39 -40 41 0
39 40 -41 0
-39 40 41 0
-39 -40 -41 0
40 -25 -26 0
-40 25 0
-40 26 0
-41 -42 -59 0
-41 42 59 0
41 42 -59 0
41 -42 59 0
-42 43 52 0
-42 -43 -52 0
42 -43 52 0
42 43 -52 0
-43 -44 -49 0
-43 44 49 0
43 44 -49 0
43 -44 49 0
-44 -45 -46 0
-44 45 46 0
44 45 -46 0
44 -45 46 0
45 -416 -427 0
-45 416 0
-45 427 0
46 47 -48 0
46 -47 48 0
-46 -47 -48 0
-46 47 48 0
47 -415 -428 0
-47 415 0
-47 428 0
48 -414 -429 0
-48 414 0
-48 429 0
49 -50 51 0
49 50 -51 0
-49 50 51 0
-49 -50 -51 0
50 -417 -418 -424 -425 0
-50 425 0
-50 417 0
-50 424 0
-50 418 0
-51 33 36 0
-51 35 36 0
-51 33 35 0
51 -33 -35 0
51 -35 -36 0
51 -33 -36 0
-52 53 54 0
-52 -53 -54 0
52 -53 54 0
52 53 -54 0
-53 28 37 0
-53 28 32 0
-53 32 37 0
53 -32 -37 0
53 -28 -37 0
53 -28 -32 0
-54 -55 -56 0
-54 55 56 0
54 55 -56 0
54 -55 56 0
55 -419 -424 0
-55 419 0
-55 424 0
56 57 -58 0
56 -57 58 0
-56 -57 -58 0
-56 57 58 0
57 -418 -425 0
-57 418 0
-57 425 0
58 -417 -426 0
-58 417 0
-58 426 0
59 -27 -38 0
-59 27 0
-59 38 0
60 -61 62 0
60 61 -62 0
-60 61 62 0
-60 -61 -62 0
61 -40 -41 0
-61 40 0
-61 41 0
-62 -63 -84 0
-62 63 84 0
62 63 -84 0
62 -63 84 0
-63 64 83 0
-63 -64 -83 0
63 -64 83 0
63 64 -83 0
-64 -65 -76 0
-64 65 76 0
64 65 -76 0
64 -65 76 0
-65 -66 -71 0
-65 66 71 0
65 66 -71 0
65 -66 71 0
-66 -67 -68 0
-66 67 68 0
66 67 -68 0
66 -67 68 0
67 -419 -425 0
-67 419 0
-67 425 0
68 69 -70 0
68 -69 70 0
-68 -69 -70 0
-68 69 70 0
69 -418 -426 0
-69 418 0
-69 426 0
70 -417 -427 0
-70 417 0
-70 427 0
71 -72 73 0
71 72 -73 0
-71 72 73 0
-71 -72 -73 0
72 -416 -428 0
-72 416 0
-72 428 0
-73 -74 -75 0
-73 74 75 0
73 74 -75 0
73 -74 75 0
74 -415 -429 0
-74 415 0
-74 429 0
75 -414 -430 0
-75 414 0
-75 430 0
76 -77 82 0
76 77 -82 0
-76 77 82 0
-76 -77 -82 0
-77 78 79 0
-77 -78 -79 0
77 -78 79 0
77 78 -79 0
-78 55 58 0
-78 57 58 0
-78 55 57 0
78 -55 -57 0
78 -57 -58 0
78 -55 -58 0
-79 -80 -81 0
-79 80 81 0
79 80 -81 0
79 -80 81 0
-80 428 48 0
-80 415 45 0
-80 45 48 0
-80 428 45 0
-80 415 48 0
80 -45 -48 0
80 -415 -428 -48 0
80 -415 -428 -45 0
81 -420 -424 0
-81 420 0
-81 424 0
-82 44 51 0
-82 44 50 0
-82 50 51 0
82 -50 -51 0
82 -44 -51 0
82 -44 -50 0
-83 43 53 0
-83 53 54 0
-83 43 54 0
83 -43 -54 0
83 -53 -54 0
83 -43 -53 0
84 -42 -59 0
-84 42 0
-84 59 0
85 -86 87 0
85 86 -87 0
-85 86 87 0
-85 -86 -87 0
86 -61 -62 0
-86 61 0
-86 62 0
-87 -88 -115 0
-87 88 115 0
87 88 -115 0
87 -88 115 0
-88 -89 -114 0
-88 89 114 0
88 89 -114 0
88 -89 114 0
-89 -90 -103 0
-89 90 103 0
89 90 -103 0
89 -90 103 0
-90 -91 -100 0
-90 91 100 0
90 91 -100 0
90 -91 100 0
-91 -92 -97 0
-91 92 97 0
91 92 -97 0
91 -92 97 0
-92 -93 -94 0
-92 93 94 0
92 93 -94 0
92 -93 94 0
93 -416 -429 0
-93 416 0
-93 429 0
94 95 -96 0
94 -95 96 0
-94 -95 -96 0
-94 95 96 0
95 -415 -430 0
-95 415 0
-95 430 0
96 -414 -431 0
-96 414 0
-96 431 0
97 -98 99 0
97 98 -99 0
-97 98 99 0
-97 -98 -99 0
-98 67 70 0
-98 69 70 0
-98 67 69 0
98 -67 -69 0
98 -69 -70 0
98 -67 -70 0
-99 72 75 0
-99 74 75 0
-99 72 74 0
99 -72 -74 0
99 -74 -75 0
99 -72 -75 0
100 -101 102 0
100 101 -102 0
-100 101 102 0
-100 -101 -102 0
101 -66 -71 0
-101 66 0
-101 71 0
-102 78 80 0
-102 80 81 0
-102 78 81 0
102 -80 -81 0
102 -78 -80 0
102 -78 -81 0
103 104 -105 0
103 -104 105 0
-103 -104 -105 0
-103 104 105 0
-104 65 77 0
-104 77 82 0
-104 65 82 0
104 -65 -82 0
104 -77 -82 0
104 -65 -77 0
105 -106 109 0
105 106 -109 0
-105 106 109 0
-105 -106 -109 0
106 107 -108 0
106 -107 108 0
-106 -107 -108 0
-106 107 108 0
107 -421 -424 0
-107 421 0
-107 424 0
108 -420 -425 0
-108 420 0
-108 425 0
-109 -110 -111 0
-109 110 111 0
109 110 -111 0
109 -110 111 0
110 -419 -426 0
-110 419 0
-110 426 0
111 112 -113 0
111 -112 113 0
-111 -112 -113 0
-111 112 113 0
112 -418 -427 0
-112 418 0
-112 427 0
113 -417 -428 0
-113 417 0
-113 428 0
114 -64 -83 0
-114 64 0
-114 83 0
115 -63 -84 0
-115 63 0
-115 84 0
116 -117 119 0
116 117 -119 0
-116 117 119 0
-116 -117 -119 0
-117 118 0
117 -118 0
-118 88 0
-118 86 115 0
118 -86 -88 0
118 -88 -115 0
-119 -120 -151 0
-119 120 151 0
119 120 -151 0
119 -120 151 0
-120 121 150 0
-120 -121 -150 0
120 -121 150 0
120 121 -150 0
-121 -122 -131 0
-121 122 131 0
121 122 -131 0
121 -122 131 0
-122 -123 -128 0
-122 123 128 0
122 123 -128 0
122 -123 128 0
-123 124 125 0
-123 -124 -125 0
123 -124 125 0
123 124 -125 0
124 -420 -421 -424 -425 0
-124 425 0
-124 420 0
-124 424 0
-124 421 0
-125 126 127 0
-125 -126 -127 0
125 -126 127 0
125 126 -127 0
-126 110 113 0
-126 112 113 0
-126 110 112 0
126 -110 -112 0
126 -112 -113 0
126 -110 -113 0
-127 430 96 0
-127 415 93 0
-127 93 96 0
-127 430 93 0
-127 415 96 0
127 -93 -96 0
127 -415 -430 -96 0
127 -415 -430 -93 0
128 -129 130 0
128 129 -130 0
-128 129 130 0
-128 -129 -130 0
129 -106 -109 0
-129 106 0
-129 109 0
-130 92 98 0
-130 98 99 0
-130 92 99 0
130 -92 -99 0
130 -98 -99 0
130 -92 -98 0
131 132 -133 0
131 -132 133 0
-131 -132 -133 0
-131 132 133 0
-132 91 102 0
-132 91 101 0
-132 101 102 0
132 -101 -102 0
132 -91 -102 0
132 -91 -101 0
133 134 -139 0
133 -134 139 0
-133 -134 -139 0
-133 134 139 0
-134 -135 -136 0
-134 135 136 0
134 135 -136 0
134 -135 136 0
135 -422 -424 0
-135 422 0
-135 424 0
136 137 -138 0
136 -137 138 0
-136 -137 -138 0
-136 137 138 0
137 -421 -425 0
-137 421 0
-137 425 0
138 -420 -426 0
-138 420 0
-138 426 0
139 -140 145 0
139 140 -145 0
-139 140 145 0
-139 -140 -145 0
-140 -141 -142 0
-140 141 142 0
140 141 -142 0
140 -141 142 0
141 -419 -427 0
-141 419 0
-141 427 0
142 143 -144 0
142 -143 144 0
-142 -143 -144 0
-142 143 144 0
143 -418 -428 0
-143 418 0
-143 428 0
144 -417 -429 0
-144 417 0
-144 429 0
-145 -146 -147 0
-145 146 147 0
145 146 -147 0
145 -146 147 0
146 -416 -430 0
-146 416 0
-146 430 0
147 148 -149 0
147 -148 149 0
-147 -148 -149 0
-147 148 149 0
148 -415 -431 0
-148 415 0
-148 431 0
149 -414 -432 0
-149 414 0
-149 432 0
-150 90 104 0
-150 104 105 0
-150 90 105 0
150 -104 -105 0
150 -90 -104 0
150 -90 -105 0
151 -89 -114 0
-151 89 0
-151 114 0
152 -153 154 0
152 153 -154 0
-152 153 154 0
-152 -153 -154 0
-153 117 120 0
-153 120 151 0
-153 117 151 0
153 -120 -151 0
153 -117 -120 0
153 -117 -151 0
-154 -155 -188 0
-154 155 188 0
154 155 -188 0
154 -155 188 0
155 -156 187 0
155 156 -187 0
-155 156 187 0
-155 -156 -187 0
-156 -157 -176 0
-156 157 176 0
156 157 -176 0
156 -157 176 0
157 158 -171 0
157 -158 171 0
-157 -158 -171 0
-157 158 171 0
-158 -159 -164 0
-158 159 164 0
158 159 -164 0
158 -159 164 0
-159 -160 -161 0
-159 160 161 0
159 160 -161 0
159 -160 161 0
160 -419 -428 0
-160 419 0
-160 428 0
161 162 -163 0
161 -162 163 0
-161 -162 -163 0
-161 162 163 0
162 -418 -429 0
-162 418 0
-162 429 0
163 -417 -430 0
-163 417 0
-163 430 0
164 -165 170 0
164 165 -170 0
-164 165 170 0
-164 -165 -170 0
-165 -166 -167 0
-165 166 167 0
165 166 -167 0
165 -166 167 0
166 -416 -431 0
-166 416 0
-166 431 0
167 168 -169 0
167 -168 169 0
-167 -168 -169 0
-167 168 169 0
168 -415 -432 0
-168 415 0
-168 432 0
169 -414 -433 0
-169 414 0
-169 433 0
-170 135 138 0
-170 137 138 0
-170 135 137 0
170 -135 -137 0
170 -137 -138 0
170 -135 -138 0
171 -172 173 0
171 172 -173 0
-171 172 173 0
-171 -172 -173 0
-172 428 144 0
-172 418 141 0
-172 141 144 0
-172 428 141 0
-172 418 144 0
172 -141 -144 0
172 -418 -428 -144 0
172 -418 -428 -141 0
-173 -174 -175 0
-173 174 175 0
173 174 -175 0
173 -174 175 0
-174 431 149 0
-174 415 146 0
-174 146 149 0
-174 431 146 0
-174 415 149 0
174 -146 -149 0
174 -415 -431 -149 0
174 -415 -431 -146 0
175 -423 -424 0
-175 423 0
-175 424 0
176 -177 186 0
176 177 -186 0
-176 177 186 0
-176 -177 -186 0
177 -178 179 0
177 178 -179 0
-177 178 179 0
-177 -178 -179 0
-178 134 140 0
-178 140 145 0
-178 134 145 0
178 -134 -145 0
178 -140 -145 0
178 -134 -140 0
-179 -180 -181 0
-179 180 181 0
179 180 -181 0
179 -180 181 0
-180 124 126 0
-180 126 127 0
-180 124 127 0
180 -126 -127 0
180 -124 -126 0
180 -124 -127 0
181 182 -183 0
181 -182 183 0
-181 -182 -183 0
-181 182 183 0
182 -422 -425 0
-182 422 0
-182 425 0
183 184 -185 0
183 -184 185 0
-183 -184 -185 0
-183 184 185 0
184 -421 -426 0
-184 421 0
-184 426 0
185 -420 -427 0
-185 420 0
-185 427 0
-186 129 123 0
-186 123 130 0
-186 129 130 0
186 -123 -130 0
186 -129 -123 0
186 -129 -130 0
-187 122 132 0
-187 132 133 0
-187 122 133 0
187 -132 -133 0
187 -122 -132 0
187 -122 -133 0
188 -121 -150 0
-188 121 0
-188 150 0
189 -190 191 0
189 190 -191 0
-189 190 191 0
-189 -190 -191 0
-190 155 188 0
-190 153 155 0
-190 153 188 0
190 -153 -155 0
190 -155 -188 0
190 -153 -188 0
-191 -192 -193 0
-191 192 193 0
191 192 -193 0
191 -192 193 0
192 -156 -187 0
-192 156 0
-192 187 0
193 -194 215 0
193 194 -215 0
-193 194 215 0
-193 -194 -215 0
-194 195 196 0
-194 -195 -196 0
194 -195 196 0
194 195 -196 0
195 -158 -171 0
-195 158 0
-195 171 0
-196 -197 -198 0
-196 197 198 0
196 197 -198 0
196 -197 198 0
-197 178 180 0
-197 180 181 0
-197 178 181 0
197 -180 -181 0
197 -178 -180 0
197 -178 -181 0
198 199 -204 0
198 -199 204 0
-198 -199 -204 0
-198 199 204 0
-199 -200 -201 0
-199 200 201 0
199 200 -201 0
199 -200 201 0
200 -423 -425 0
-200 423 0
-200 425 0
201 202 -203 0
201 -202 203 0
-201 -202 -203 0
-201 202 203 0
202 -422 -426 0
-202 422 0
-202 426 0
203 -421 -427 0
-203 421 0
-203 427 0
204 -205 210 0
204 205 -210 0
-204 205 210 0
-204 -205 -210 0
-205 -206 -207 0
-205 206 207 0
205 206 -207 0
205 -206 207 0
206 -420 -428 0
-206 420 0
-206 428 0
207 208 -209 0
207 -208 209 0
-207 -208 -209 0
-207 208 209 0
208 -419 -429 0
-208 419 0
-208 429 0
209 -418 -430 0
-209 418 0
-209 430 0
-210 -211 -212 0
-210 211 212 0
210 211 -212 0
210 -211 212 0
211 -417 -431 0
-211 417 0
-211 431 0
212 213 -214 0
212 -213 214 0
-212 -213 -214 0
-212 213 214 0
213 -416 -432 0
-213 416 0
-213 432 0
214 -415 -433 0
-214 415 0
-214 433 0
-215 -216 -217 0
-215 216 217 0
215 216 -217 0
215 -216 217 0
-216 177 186 0
-216 157 177 0
-216 157 186 0
216 -157 -177 0
216 -177 -186 0
216 -157 -186 0
217 -218 223 0
217 218 -223 0
-217 218 223 0
-217 -218 -223 0
-218 -219 -220 0
-218 219 220 0
218 219 -220 0
218 -219 220 0
-219 426 185 0
-219 421 182 0
-219 182 185 0
-219 426 182 0
-219 421 185 0
219 -182 -185 0
219 -421 -426 -185 0
219 -421 -426 -182 0
220 -221 222 0
220 221 -222 0
-220 221 222 0
-220 -221 -222 0
-221 160 163 0
-221 162 163 0
-221 160 162 0
221 -160 -162 0
221 -162 -163 0
221 -160 -163 0
-222 166 169 0
-222 168 169 0
-222 166 168 0
222 -166 -168 0
222 -168 -169 0
222 -166 -169 0
-223 224 225 0
-223 -224 -225 0
223 -224 225 0
223 224 -225 0
-224 159 165 0
-224 165 170 0
-224 159 170 0
224 -159 -170 0
224 -165 -170 0
224 -159 -165 0
-225 172 174 0
-225 174 175 0
-225 172 175 0
225 -174 -175 0
225 -172 -174 0
225 -172 -175 0
226 -227 228 0
226 227 -228 0
-226 227 228 0
-226 -227 -228 0
-227 190 193 0
-227 192 193 0
-227 192 190 0
227 -192 -193 0
227 -192 -190 0
227 -190 -193 0
-228 229 258 0
-228 -229 -258 0
228 -229 258 0
228 229 -258 0
229 -230 257 0
229 230 -257 0
-229 230 257 0
-229 -230 -257 0
-230 -231 -240 0
-230 231 240 0
230 231 -240 0
230 -231 240 0
-231 -232 -237 0
-231 232 237 0
231 232 -237 0
231 -232 237 0
-232 -233 -234 0
-232 233 234 0
232 233 -234 0
232 -233 234 0
-233 200 203 0
-233 202 203 0
-233 200 202 0
233 -200 -202 0
233 -202 -203 0
233 -200 -203 0
234 -235 236 0
234 235 -236 0
-234 235 236 0
-234 -235 -236 0
-235 429 209 0
-235 419 206 0
-235 206 209 0
-235 429 206 0
-235 419 209 0
235 -206 -209 0
235 -419 -429 -209 0
235 -419 -429 -206 0
-236 211 214 0
-236 213 214 0
-236 211 213 0
236 -211 -213 0
236 -213 -214 0
236 -211 -214 0
237 -238 239 0
237 238 -239 0
-237 238 239 0
-237 -238 -239 0
-238 199 205 0
-238 205 210 0
-238 199 210 0
238 -199 -210 0
238 -205 -210 0
238 -199 -205 0
-239 219 221 0
-239 221 222 0
-239 219 222 0
239 -219 -222 0
239 -221 -222 0
239 -219 -221 0
240 241 -242 0
240 -241 242 0
-240 -241 -242 0
-240 241 242 0
-241 218 224 0
-241 224 225 0
-241 218 225 0
241 -218 -225 0
241 -224 -225 0
241 -218 -224 0
242 243 -246 0
242 -243 246 0
-242 -243 -246 0
-242 243 246 0
243 244 -245 0
243 -244 245 0
-243 -244 -245 0
-243 244 245 0
244 -423 -426 0
-244 423 0
-244 426 0
245 -422 -427 0
-245 422 0
-245 427 0
246 -247 252 0
246 247 -252 0
-246 247 252 0
-246 -247 -252 0
-247 -248 -249 0
-247 248 249 0
247 248 -249 0
247 -248 249 0
248 -421 -428 0
-248 421 0
-248 428 0
249 250 -251 0
249 -250 251 0
-249 -250 -251 0
-249 250 251 0
250 -420 -429 0
-250 420 0
-250 429 0
251 -419 -430 0
-251 419 0
-251 430 0
-252 -253 -254 0
-252 253 254 0
252 253 -254 0
252 -253 254 0
253 -418 -431 0
-253 418 0
-253 431 0
254 255 -256 0
254 -255 256 0
-254 -255 -256 0
-254 255 256 0
255 -417 -432 0
-255 417 0
-255 432 0
256 -416 -433 0
-256 416 0
-256 433 0
-257 197 198 0
-257 195 198 0
-257 195 197 0
257 -195 -198 0
257 -195 -197 0
257 -197 -198 0
-258 194 216 0
-258 216 217 0
-258 194 217 0
258 -216 -217 0
258 -194 -216 0
258 -194 -217 0
259 -260 261 0
259 260 -261 0
-259 260 261 0
-259 -260 -261 0
-260 227 258 0
-260 227 229 0
-260 229 258 0
260 -229 -258 0
260 -227 -258 0
260 -227 -229 0
-261 -262 -263 0
-261 262 263 0
261 262 -263 0
261 -262 263 0
262 -230 -257 0
-262 230 0
-262 257 0
263 -264 289 0
263 264 -289 0
-263 264 289 0
-263 -264 -289 0
-264 -265 -274 0
-264 265 274 0
264 265 -274 0
264 -265 274 0
-265 -266 -271 0
-265 266 271 0
265 266 -271 0
265 -266 271 0
-266 -267 -268 0
-266 267 268 0
266 267 -268 0
266 -267 268 0
-267 248 251 0
-267 250 251 0
-267 248 250 0
267 -248 -250 0
267 -250 -251 0
267 -248 -251 0
268 269 -270 0
268 -269 270 0
-268 -269 -270 0
-268 269 270 0
-269 253 256 0
-269 255 256 0
-269 253 255 0
269 -253 -255 0
269 -255 -256 0
269 -253 -256 0
270 -423 -427 0
-270 423 0
-270 427 0
271 -272 273 0
271 272 -273 0
-271 272 273 0
-271 -272 -273 0
-272 243 247 0
-272 247 252 0
-272 243 252 0
272 -247 -252 0
272 -243 -247 0
272 -243 -252 0
-273 233 235 0
-273 235 236 0
-273 233 236 0
273 -233 -236 0
273 -235 -236 0
273 -233 -235 0
274 275 -276 0
274 -275 276 0
-274 -275 -276 0
-274 275 276 0
-275 232 238 0
-275 238 239 0
-275 232 239 0
275 -232 -239 0
275 -238 -239 0
275 -232 -238 0
276 -277 282 0
276 277 -282 0
-276 277 282 0
-276 -277 -282 0
-277 -278 -279 0
-277 278 279 0
277 278 -279 0
277 -278 279 0
278 -422 -428 0
-278 422 0
-278 428 0
279 280 -281 0
279 -280 281 0
-279 -280 -281 0
-279 280 281 0
280 -421 -429 0
-280 421 0
-280 429 0
281 -420 -430 0
-281 420 0
-281 430 0
-282 283 284 0
-282 -283 -284 0
282 -283 284 0
282 283 -284 0
283 -422 -423 -426 -427 0
-283 427 0
-283 422 0
-283 426 0
-283 423 0
-284 -285 -286 0
-284 285 286 0
284 285 -286 0
284 -285 286 0
285 -419 -431 0
-285 419 0
-285 431 0
286 287 -288 0
286 -287 288 0
-286 -287 -288 0
-286 287 288 0
287 -418 -432 0
-287 418 0
-287 432 0
288 -417 -433 0
-288 417 0
-288 433 0
-289 231 241 0
-289 241 242 0
-289 231 242 0
289 -241 -242 0
289 -231 -241 0
289 -231 -242 0
290 -291 292 0
290 291 -292 0
-290 291 292 0
-290 -291 -292 0
-291 260 263 0
-291 262 263 0
-291 262 260 0
291 -262 -263 0
291 -262 -260 0
291 -260 -263 0
-292 -293 -294 0
-292 293 294 0
292 293 -294 0
292 -293 294 0
293 -264 -289 0
-293 264 0
-293 289 0
294 -295 316 0
294 295 -316 0
-294 295 316 0
-294 -295 -316 0
-295 -296 -305 0
-295 296 305 0
295 296 -305 0
295 -296 305 0
-296 -297 -298 0
-296 297 298 0
296 297 -298 0
296 -297 298 0
-297 283 277 0
-297 277 284 0
-297 283 284 0
297 -277 -284 0
297 -283 -277 0
297 -283 -284 0
298 -299 300 0
298 299 -300 0
-298 299 300 0
-298 -299 -300 0
-299 267 269 0
-299 269 270 0
-299 267 270 0
299 -269 -270 0
299 -267 -269 0
299 -267 -270 0
-300 -301 -302 0
-300 301 302 0
300 301 -302 0
300 -301 302 0
301 -423 -428 0
-301 423 0
-301 428 0
302 303 -304 0
302 -303 304 0
-302 -303 -304 0
-302 303 304 0
303 -422 -429 0
-303 422 0
-303 429 0
304 -421 -430 0
-304 421 0
-304 430 0
305 306 -307 0
305 -306 307 0
-305 -306 -307 0
-305 306 307 0
-306 266 272 0
-306 272 273 0
-306 266 273 0
306 -266 -273 0
306 -272 -273 0
306 -266 -272 0
307 -308 313 0
307 308 -313 0
-307 308 313 0
-307 -308 -313 0
-308 -309 -310 0
-308 309 310 0
308 309 -310 0
308 -309 310 0
309 -420 -431 0
-309 420 0
-309 431 0
310 311 -312 0
310 -311 312 0
-310 -311 -312 0
-310 311 312 0
311 -419 -432 0
-311 419 0
-311 432 0
312 -418 -433 0
-312 418 0
-312 433 0
-313 314 315 0
-313 -314 -315 0
313 -314 315 0
313 314 -315 0
-314 278 281 0
-314 280 281 0
-314 278 280 0
314 -278 -280 0
314 -280 -281 0
314 -278 -281 0
-315 432 288 0
-315 418 285 0
-315 285 288 0
-315 432 285 0
-315 418 288 0
315 -285 -288 0
315 -418 -432 -288 0
315 -418 -432 -285 0
-316 265 275 0
-316 275 276 0
-316 265 276 0
316 -275 -276 0
316 -265 -275 0
316 -265 -276 0
317 -318 319 0
317 318 -319 0
-317 318 319 0
-317 -318 -319 0
-318 291 294 0
-318 293 294 0
-318 293 291 0
318 -293 -294 0
318 -293 -291 0
318 -291 -294 0
-319 -320 -321 0
-319 320 321 0
319 320 -321 0
319 -320 321 0
320 -295 -316 0
-320 295 0
-320 316 0
321 -322 339 0
321 322 -339 0
-321 322 339 0
-321 -322 -339 0
-322 323 338 0
-322 -323 -338 0
322 -323 338 0
322 323 -338 0
-323 -324 -333 0
-323 324 333 0
323 324 -333 0
323 -324 333 0
-324 -325 -330 0
-324 325 330 0
324 325 -330 0
324 -325 330 0
-325 -326 -327 0
-325 326 327 0
325 326 -327 0
325 -326 327 0
326 -421 -431 0
-326 421 0
-326 431 0
327 328 -329 0
327 -328 329 0
-327 -328 -329 0
-327 328 329 0
328 -420 -432 0
-328 420 0
-328 432 0
329 -419 -433 0
-329 419 0
-329 433 0
330 -331 332 0
330 331 -332 0
-330 331 332 0
-330 -331 -332 0
-331 301 304 0
-331 303 304 0
-331 301 303 0
331 -301 -303 0
331 -303 -304 0
331 -301 -304 0
-332 432 312 0
-332 419 309 0
-332 309 312 0
-332 432 309 0
-332 419 312 0
332 -309 -312 0
332 -419 -432 -312 0
332 -419 -432 -309 0
333 334 -335 0
333 -334 335 0
-333 -334 -335 0
-333 334 335 0
-334 308 314 0
-334 314 315 0
-334 308 315 0
334 -308 -315 0
334 -314 -315 0
334 -308 -314 0
335 336 -337 0
335 -336 337 0
-335 -336 -337 0
-335 336 337 0
336 -423 -429 0
-336 423 0
-336 429 0
337 -422 -430 0
-337 422 0
-337 430 0
-338 297 299 0
-338 299 300 0
-338 297 300 0
338 -297 -300 0
338 -299 -300 0
338 -297 -299 0
-339 296 306 0
-339 306 307 0
-339 296 307 0
339 -306 -307 0
339 -296 -306 0
339 -296 -307 0
340 -341 342 0
340 341 -342 0
-340 341 342 0
-340 -341 -342 0
-341 318 321 0
-341 320 321 0
-341 320 318 0
341 -320 -321 0
341 -320 -318 0
341 -318 -321 0
-342 343 344 0
-342 -343 -344 0
342 -343 344 0
342 343 -344 0
343 -322 -339 0
-343 322 0
-343 339 0
-344 -345 -360 0
-344 345 360 0
344 345 -360 0
344 -345 360 0
-345 346 359 0
-345 -346 -359 0
345 -346 359 0
345 346 -359 0
-346 -347 -352 0
-346 347 352 0
346 347 -352 0
346 -347 352 0
-347 348 349 0
-347 -348 -349 0
347 -348 349 0
347 348 -349 0
348 -422 -423 -429 -430 0
-348 430 0
-348 422 0
-348 429 0
-348 423 0
-349 -350 -351 0
-349 350 351 0
349 350 -351 0
349 -350 351 0
-350 432 329 0
-350 420 326 0
-350 326 329 0
-350 432 326 0
-350 420 329 0
350 -326 -329 0
350 -420 -432 -329 0
350 -420 -432 -326 0
351 -423 -430 0
-351 423 0
-351 430 0
352 -353 354 0
352 353 -354 0
-352 353 354 0
-352 -353 -354 0
-353 325 331 0
-353 331 332 0
-353 325 332 0
353 -325 -332 0
353 -331 -332 0
353 -325 -331 0
-354 -355 -356 0
-354 355 356 0
354 355 -356 0
354 -355 356 0
355 -422 -431 0
-355 422 0
-355 431 0
356 357 -358 0
356 -357 358 0
-356 -357 -358 0
-356 357 358 0
357 -421 -432 0
-357 421 0
-357 432 0
358 -420 -433 0
-358 420 0
-358 433 0
-359 324 334 0
-359 334 335 0
-359 324 335 0
359 -334 -335 0
359 -324 -334 0
359 -324 -335 0
360 -323 -338 0
-360 323 0
-360 338 0
361 -362 363 0
361 362 -363 0
-361 362 363 0
-361 -362 -363 0
-362 343 341 0
-362 341 344 0
-362 343 344 0
362 -341 -344 0
362 -343 -341 0
362 -343 -344 0
-363 -364 -377 0
-363 364 377 0
363 364 -377 0
363 -364 377 0
-364 -365 -376 0
-364 365 376 0
364 365 -376 0
364 -365 376 0
-365 366 375 0
-365 -366 -375 0
365 -366 375 0
365 366 -375 0
-366 367 374 0
-366 -367 -374 0
366 -367 374 0
366 367 -374 0
-367 368 373 0
-367 -368 -373 0
367 -368 373 0
367 368 -373 0
-368 -369 -370 0
-368 369 370 0
368 369 -370 0
368 -369 370 0
369 -423 -431 0
-369 423 0
-369 431 0
370 371 -372 0
370 -371 372 0
-370 -371 -372 0
-370 371 372 0
371 -422 -432 0
-371 422 0
-371 432 0
372 -421 -433 0
-372 421 0
-372 433 0
-373 355 358 0
-373 357 358 0
-373 355 357 0
373 -355 -357 0
373 -357 -358 0
373 -355 -358 0
-374 350 351 0
-374 348 351 0
-374 348 350 0
374 -348 -351 0
374 -348 -350 0
374 -350 -351 0
-375 347 353 0
-375 353 354 0
-375 347 354 0
375 -347 -354 0
375 -353 -354 0
375 -347 -353 0
376 -346 -359 0
-376 346 0
-376 359 0
377 -345 -360 0
-377 345 0
-377 360 0
378 -379 380 0
378 379 -380 0
-378 379 380 0
-378 -379 -380 0
-379 362 364 0
-379 364 377 0
-379 362 377 0
379 -364 -377 0
379 -362 -364 0
379 -362 -377 0
-380 -381 -392 0
-380 381 392 0
380 381 -392 0
380 -381 392 0
-381 -382 -391 0
-381 382 391 0
381 382 -391 0
381 -382 391 0
-382 -383 -390 0
-382 383 390 0
382 383 -390 0
382 -383 390 0
-383 -384 -389 0
-383 384 389 0
383 384 -389 0
383 -384 389 0
-384 385 388 0
-384 -385 -388 0
384 -385 388 0
384 385 -388 0
385 386 -387 0
385 -386 387 0
-385 -386 -387 0
-385 386 387 0
386 -423 -432 0
-386 423 0
-386 432 0
387 -422 -433 0
-387 422 0
-387 433 0
-388 432 372 0
-388 422 369 0
-388 369 372 0
-388 432 369 0
-388 422 372 0
388 -369 -372 0
388 -422 -432 -372 0
388 -422 -432 -369 0
389 -368 -373 0
-389 368 0
-389 373 0
390 -367 -374 0
-390 367 0
-390 374 0
391 -366 -375 0
-391 366 0
-391 375 0
392 -365 -376 0
-392 365 0
-392 376 0
393 -394 395 0
393 394 -395 0
-393 394 395 0
-393 -394 -395 0
-394 379 381 0
-394 381 392 0
-394 379 392 0
394 -381 -392 0
394 -379 -381 0
394 -379 -392 0
-395 -396 -404 0
-395 396 404 0
395 396 -404 0
395 -396 404 0
-396 -397 -403 0
-396 397 403 0
396 397 -403 0
396 -397 403 0
-397 -398 -402 0
-397 398 402 0
397 398 -402 0
397 -398 402 0
-398 -399 -401 0
-398 399 401 0
398 399 -401 0
398 -399 401 0
-399 400 0
399 -400 0
400 422 -423 -433 0
400 -423 432 -433 0
-400 433 0
-400 423 0
-400 -422 -432 0
401 -385 -388 0
-401 385 0
-401 388 0
402 -384 -389 0
-402 384 0
-402 389 0
403 -383 -390 0
-403 383 0
-403 390 0
404 -382 -391 0
-404 382 0
-404 391 0
405 -406 407 0
405 406 -407 0
-405 406 407 0
-405 -406 -407 0
-406 394 396 0
-406 396 404 0
-406 394 404 0
406 -396 -404 0
406 -394 -396 0
406 -394 -404 0
-407 -408 -413 0
-407 408 413 0
407 408 -413 0
407 -408 413 0
-408 -409 -412 0
-408 409 412 0
408 409 -412 0
408 -409 412 0
-409 -410 -411 0
-409 410 411 0
409 410 -411 0
409 -410 411 0
410 -399 -401 0
-410 399 0
-410 401 0
411 -422 -423 -432 -433 0
-411 433 0
-411 422 0
-411 432 0
-411 423 0
412 -398 -402 0
-412 398 0
-412 402 0
413 -397 -403 0
-413 397 0
-413 403 0
-434 0
2 0
3 0
6 0
13 0
24 0
39 0
60 0
85 0
116 0
152 0
189 0
226 0
259 0
290 0
317 0
340 0
361 0
378 0
393 0
405 0

