c Result of efficient AIG-to-CNF conversion using package CNF
p cnf 146 542
2 -134 -140 0
-2 134 0
-2 140 0
3 4 -5 0
3 -4 5 0
-3 -4 -5 0
-3 4 5 0
4 -135 -140 0
-4 135 0
-4 140 0
5 -134 -141 0
-5 134 0
-5 141 0
6 -7 8 0
6 7 -8 0
-6 7 8 0
-6 -7 -8 0
7 -134 -135 -140 -141 0
-7 141 0
-7 134 0
-7 140 0
-7 135 0
-8 -9 -10 0
-8 9 10 0
8 9 -10 0
8 -9 10 0
9 -136 -140 0
-9 136 0
-9 140 0
10 11 -12 0
10 -11 12 0
-10 -11 -12 0
-10 11 12 0
11 -135 -141 0
-11 135 0
-11 141 0
12 -134 -142 0
-12 134 0
-12 142 0
13 -14 15 0
13 14 -15 0
-13 14 15 0
-13 -14 -15 0
14 -7 -8 0
-14 7 0
-14 8 0
-15 16 21 0
-15 -16 -21 0
15 -16 21 0
15 16 -21 0
-16 -17 -18 0
-16 17 18 0
16 17 -18 0
16 -17 18 0
17 -136 -141 0
-17 136 0
-17 141 0
18 19 -20 0
18 -19 20 0
-18 -19 -20 0
-18 19 20 0
19 -135 -142 0
-19 135 0
-19 142 0
20 -134 -143 0
-20 134 0
-20 143 0
-21 -22 -23 0
-21 22 23 0
21 22 -23 0
21 -22 23 0
-22 141 12 0
-22 135 9 0
-22 9 12 0
-22 141 9 0
-22 135 12 0
22 -9 -12 0
22 -135 -141 -12 0
22 -135 -141 -9 0
23 -137 -140 0
-23 137 0
-23 140 0
24 -25 26 0
24 25 -26 0
-24 25 26 0
-24 -25 -26 0
25 -14 -15 0
-25 14 0
-25 15 0
-26 27 38 0
-26 -27 -38 0
26 -27 38 0
26 27 -38 0
-27 -28 -31 0
-27 28 31 0
27 28 -31 0
27 -28 31 0
-28 -29 -30 0
-28 29 30 0
28 29 -30 0
28 -29 30 0
29 -138 -140 0
-29 138 0
-29 140 0
30 -137 -141 0
-30 137 0
-30 141 0
31 -32 37 0
31 32 -37 0
-31 32 37 0
-31 -32 -37 0
32 -33 34 0
32 33 -34 0
-32 33 34 0
-32 -33 -34 0
33 -136 -142 0
-33 136 0
-33 142 0
-34 -35 -36 0
-34 35 36 0
34 35 -36 0
34 -35 36 0
35 -135 -143 0
-35 135 0
-35 143 0
36 -134 -144 0
-36 134 0
-36 144 0
-37 17 20 0
-37 19 20 0
-37 17 19 0
37 -17 -19 0
37 -19 -20 0
37 -17 -20 0
-38 16 22 0
-38 22 23 0
-38 16 23 0
38 -22 -23 0
38 -16 -22 0
38 -16 -23 0
39 -40 41 0
39 40 -41 0
-39 40 41 0
-39 -40 -41 0
40 -25 -26 0
-40 25 0
-40 26 0
-41 -42 -59 0
-41 42 59 0
41 42 -59 0
41 -42 59 0
-42 43 52 0
-42 -43 -52 0
42 -43 52 0
42 43 -52 0
-43 -44 -49 0
-43 44 49 0
43 44 -49 0
43 -44 49 0
-44 45 46 0
-44 -45 -46 0
44 -45 46 0
44 45 -46 0
45 -136 -143 0
-45 136 0
-45 143 0
-46 -47 -48 0
-46 47 48 0
46 47 -48 0
46 -47 48 0
47 -135 -144 0
-47 135 0
-47 144 0
48 -134 -145 0
-48 134 0
-48 145 0
49 -50 51 0
49 50 -51 0
-49 50 51 0
-49 -50 -51 0
50 -137 -138 -140 -141 0
-50 141 0
-50 137 0
-50 140 0
-50 138 0
-51 33 36 0
-51 35 36 0
-51 33 35 0
51 -33 -35 0
51 -35 -36 0
51 -33 -36 0
-52 -53 -54 0
-52 53 54 0
52 53 -54 0
52 -53 54 0
-53 28 37 0
-53 28 32 0
-53 32 37 0
53 -32 -37 0
53 -28 -37 0
53 -28 -32 0
54 55 -56 0
54 -55 56 0
-54 -55 -56 0
-54 55 56 0
55 -139 -140 0
-55 139 0
-55 140 0
56 57 -58 0
56 -57 58 0
-56 -57 -58 0
-56 57 58 0
57 -138 -141 0
-57 138 0
-57 141 0
58 -137 -142 0
-58 137 0
-58 142 0
59 -27 -38 0
-59 27 0
-59 38 0
60 -61 63 0
60 61 -63 0
-60 61 63 0
-60 -61 -63 0
-61 62 0
61 -62 0
-62 42 0
-62 40 59 0
62 -40 -42 0
62 -42 -59 0
-63 64 79 0
-63 -64 -79 0
63 -64 79 0
63 64 -79 0
-64 65 74 0
-64 -65 -74 0
64 -65 74 0
64 65 -74 0
-65 -66 -71 0
-65 66 71 0
65 66 -71 0
65 -66 71 0
-66 -67 -68 0
-66 67 68 0
66 67 -68 0
66 -67 68 0
67 -137 -143 0
-67 137 0
-67 143 0
68 69 -70 0
68 -69 70 0
-68 -69 -70 0
-68 69 70 0
69 -136 -144 0
-69 136 0
-69 144 0
70 -135 -145 0
-70 135 0
-70 145 0
71 -72 73 0
71 72 -73 0
-71 72 73 0
-71 -72 -73 0
-72 55 58 0
-72 57 58 0
-72 55 57 0
72 -55 -57 0
72 -57 -58 0
72 -55 -58 0
-73 45 48 0
-73 47 48 0
-73 45 47 0
73 -45 -47 0
73 -47 -48 0
73 -45 -48 0
-74 -75 -76 0
-74 75 76 0
74 75 -76 0
74 -75 76 0
-75 44 51 0
-75 44 50 0
-75 50 51 0
75 -50 -51 0
75 -44 -51 0
75 -44 -50 0
76 77 -78 0
76 -77 78 0
-76 -77 -78 0
-76 77 78 0
77 -139 -141 0
-77 139 0
-77 141 0
78 -138 -142 0
-78 138 0
-78 142 0
-79 43 53 0
-79 53 54 0
-79 43 54 0
79 -53 -54 0
79 -43 -53 0
79 -43 -54 0
80 -81 82 0
80 81 -82 0
-80 81 82 0
-80 -81 -82 0
-81 61 64 0
-81 64 79 0
-81 61 79 0
81 -61 -79 0
81 -64 -79 0
81 -61 -64 0
-82 83 96 0
-82 -83 -96 0
82 -83 96 0
82 83 -96 0
83 -84 89 0
83 84 -89 0
-83 84 89 0
-83 -84 -89 0
-84 85 86 0
-84 -85 -86 0
84 -85 86 0
84 85 -86 0
85 -138 -139 -141 -142 0
-85 142 0
-85 138 0
-85 141 0
-85 139 0
-86 -87 -88 0
-86 87 88 0
86 87 -88 0
86 -87 88 0
-87 67 70 0
-87 69 70 0
-87 67 69 0
87 -67 -69 0
87 -69 -70 0
87 -67 -70 0
88 -139 -142 0
-88 139 0
-88 142 0
-89 -90 -91 0
-89 90 91 0
89 90 -91 0
89 -90 91 0
-90 66 72 0
-90 72 73 0
-90 66 73 0
90 -66 -73 0
90 -72 -73 0
90 -66 -72 0
91 92 -93 0
91 -92 93 0
-91 -92 -93 0
-91 92 93 0
92 -138 -143 0
-92 138 0
-92 143 0
93 94 -95 0
93 -94 95 0
-93 -94 -95 0
-93 94 95 0
94 -137 -144 0
-94 137 0
-94 144 0
95 -136 -145 0
-95 136 0
-95 145 0
-96 65 75 0
-96 75 76 0
-96 65 76 0
96 -75 -76 0
96 -65 -75 0
96 -65 -76 0
97 -98 99 0
97 98 -99 0
-97 98 99 0
-97 -98 -99 0
-98 81 96 0
-98 81 83 0
-98 83 96 0
98 -83 -96 0
98 -81 -96 0
98 -81 -83 0
-99 100 109 0
-99 -100 -109 0
99 -100 109 0
99 100 -109 0
100 -101 108 0
100 101 -108 0
-100 101 108 0
-100 -101 -108 0
-101 102 107 0
-101 -102 -107 0
101 -102 107 0
101 102 -107 0
-102 -103 -104 0
-102 103 104 0
102 103 -104 0
102 -103 104 0
103 -139 -143 0
-103 139 0
-103 143 0
104 105 -106 0
104 -105 106 0
-104 -105 -106 0
-104 105 106 0
105 -138 -144 0
-105 138 0
-105 144 0
106 -137 -145 0
-106 137 0
-106 145 0
-107 92 95 0
-107 94 95 0
-107 92 94 0
107 -92 -94 0
107 -94 -95 0
107 -92 -95 0
-108 87 88 0
-108 85 88 0
-108 85 87 0
108 -85 -88 0
108 -85 -87 0
108 -87 -88 0
-109 84 90 0
-109 90 91 0
-109 84 91 0
109 -90 -91 0
109 -84 -90 0
109 -84 -91 0
110 -111 112 0
110 111 -112 0
-110 111 112 0
-110 -111 -112 0
-111 98 109 0
-111 98 100 0
-111 100 109 0
111 -100 -109 0
111 -98 -109 0
111 -98 -100 0
-112 113 114 0
-112 -113 -114 0
112 -113 114 0
112 113 -114 0
113 -101 -108 0
-113 101 0
-113 108 0
-114 -115 -120 0
-114 115 120 0
114 115 -120 0
114 -115 120 0
-115 116 119 0
-115 -116 -119 0
115 -116 119 0
115 116 -119 0
116 117 -118 0
116 -117 118 0
-116 -117 -118 0
-116 117 118 0
117 -139 -144 0
-117 139 0
-117 144 0
118 -138 -145 0
-118 138 0
-118 145 0
-119 103 106 0
-119 105 106 0
-119 103 105 0
119 -103 -105 0
119 -105 -106 0
119 -103 -106 0
120 -102 -107 0
-120 102 0
-120 107 0
121 -122 123 0
121 122 -123 0
-121 122 123 0
-121 -122 -123 0
-122 113 111 0
-122 111 114 0
-122 113 114 0
122 -111 -114 0
122 -113 -111 0
122 -113 -114 0
-123 -124 -128 0
-123 124 128 0
123 124 -128 0
123 -124 128 0
-124 -125 -127 0
-124 125 127 0
124 125 -127 0
124 -125 127 0
-125 126 0
125 -126 0
126 138 -139 -145 0
126 -139 144 -145 0
-126 145 0
-126 139 0
-126 -138 -144 0
127 -116 -119 0
-127 116 0
-127 119 0
128 -115 -120 0
-128 115 0
-128 120 0
129 -130 131 0
129 130 -131 0
-129 130 131 0
-129 -130 -131 0
-130 122 124 0
-130 124 128 0
-130 122 128 0
130 -124 -128 0
130 -122 -124 0
130 -122 -128 0
-131 -132 -133 0
-131 132 133 0
131 132 -133 0
131 -132 133 0
132 -125 -127 0
-132 125 0
-132 127 0
133 -138 -139 -144 -145 0
-133 145 0
-133 138 0
-133 144 0
-133 139 0
-146 0
2 0
3 0
6 0
13 0
24 0
39 0
60 0
80 0
97 0
110 0
121 0
129 0

