c Result of efficient AIG-to-CNF conversion using package CNF
p cnf 308 1217
2 -290 -299 0
-2 290 0
-2 299 0
-3 -4 -5 0
-3 4 5 0
3 4 -5 0
3 -4 5 0
4 -291 -299 0
-4 291 0
-4 299 0
5 -290 -300 0
-5 290 0
-5 300 0
6 7 -8 0
6 -7 8 0
-6 -7 -8 0
-6 7 8 0
7 -292 -299 0
-7 292 0
-7 299 0
8 -9 10 0
8 9 -10 0
-8 9 10 0
-8 -9 -10 0
9 -291 -300 0
-9 291 0
-9 300 0
-10 -11 -12 0
-10 11 12 0
10 11 -12 0
10 -11 12 0
11 -290 -301 0
-11 290 0
-11 301 0
12 -290 -291 -299 -300 0
-12 300 0
-12 290 0
-12 299 0
-12 291 0
13 14 -15 0
13 -14 15 0
-13 -14 -15 0
-13 14 15 0
14 -293 -299 0
-14 293 0
-14 299 0
15 -16 17 0
15 16 -17 0
-15 16 17 0
-15 -16 -17 0
16 -292 -300 0
-16 292 0
-16 300 0
-17 -18 -19 0
-17 18 19 0
17 18 -19 0
17 -18 19 0
18 -292 -299 -8 0
-18 292 0
-18 299 0
-18 8 0
19 20 -21 0
19 -20 21 0
-19 -20 -21 0
-19 20 21 0
20 -291 -301 0
-20 291 0
-20 301 0
21 -22 23 0
21 22 -23 0
-21 22 23 0
-21 -22 -23 0
22 -290 -302 0
-22 290 0
-22 302 0
-23 9 12 0
-23 11 12 0
-23 9 11 0
23 -9 -11 0
23 -11 -12 0
23 -9 -12 0
24 25 -26 0
24 -25 26 0
-24 -25 -26 0
-24 25 26 0
25 -294 -299 0
-25 294 0
-25 299 0
26 -27 28 0
26 27 -28 0
-26 27 28 0
-26 -27 -28 0
27 -293 -300 0
-27 293 0
-27 300 0
-28 29 30 0
-28 -29 -30 0
28 -29 30 0
28 29 -30 0
29 -293 -299 -15 0
-29 293 0
-29 299 0
-29 15 0
-30 31 32 0
-30 -31 -32 0
30 -31 32 0
30 31 -32 0
31 -292 -301 0
-31 292 0
-31 301 0
-32 33 38 0
-32 -33 -38 0
32 -33 38 0
32 33 -38 0
-33 -34 -35 0
-33 34 35 0
33 34 -35 0
33 -34 35 0
34 -291 -302 0
-34 291 0
-34 302 0
35 -36 37 0
35 36 -37 0
-35 36 37 0
-35 -36 -37 0
36 -290 -303 0
-36 290 0
-36 303 0
-37 22 23 0
-37 20 22 0
-37 20 23 0
37 -20 -22 0
37 -22 -23 0
37 -20 -23 0
-38 18 19 0
-38 16 19 0
-38 18 16 0
38 -18 -16 0
38 -16 -19 0
38 -18 -19 0
39 40 -41 0
39 -40 41 0
-39 -40 -41 0
-39 40 41 0
40 -295 -299 0
-40 295 0
-40 299 0
41 -42 43 0
41 42 -43 0
-41 42 43 0
-41 -42 -43 0
42 -294 -300 0
-42 294 0
-42 300 0
-43 44 45 0
-43 -44 -45 0
43 -44 45 0
43 44 -45 0
44 -294 -299 -26 0
-44 294 0
-44 299 0
-44 26 0
-45 46 47 0
-45 -46 -47 0
45 -46 47 0
45 46 -47 0
46 -293 -301 0
-46 293 0
-46 301 0
-47 48 57 0
-47 -48 -57 0
47 -48 57 0
47 48 -57 0
-48 49 50 0
-48 -49 -50 0
48 -49 50 0
48 49 -50 0
49 -292 -302 0
-49 292 0
-49 302 0
-50 51 56 0
-50 -51 -56 0
50 -51 56 0
50 51 -56 0
-51 -52 -53 0
-51 52 53 0
51 52 -53 0
51 -52 53 0
52 -291 -303 0
-52 291 0
-52 303 0
53 -54 55 0
53 54 -55 0
-53 54 55 0
-53 -54 -55 0
54 -290 -304 0
-54 290 0
-54 304 0
-55 36 37 0
-55 34 36 0
-55 34 37 0
55 -34 -36 0
55 -36 -37 0
55 -34 -37 0
-56 31 33 0
-56 33 38 0
-56 31 38 0
56 -33 -38 0
56 -31 -33 0
56 -31 -38 0
-57 27 30 0
-57 29 27 0
-57 29 30 0
57 -29 -27 0
57 -27 -30 0
57 -29 -30 0
58 59 -60 0
58 -59 60 0
-58 -59 -60 0
-58 59 60 0
59 -296 -299 0
-59 296 0
-59 299 0
60 -61 62 0
60 61 -62 0
-60 61 62 0
-60 -61 -62 0
61 -295 -300 0
-61 295 0
-61 300 0
-62 63 64 0
-62 -63 -64 0
62 -63 64 0
62 63 -64 0
63 -295 -299 -41 0
-63 295 0
-63 299 0
-63 41 0
-64 65 66 0
-64 -65 -66 0
64 -65 66 0
64 65 -66 0
65 -294 -301 0
-65 294 0
-65 301 0
-66 67 80 0
-66 -67 -80 0
66 -67 80 0
66 67 -80 0
-67 68 69 0
-67 -68 -69 0
67 -68 69 0
67 68 -69 0
68 -293 -302 0
-68 293 0
-68 302 0
-69 70 79 0
-69 -70 -79 0
69 -70 79 0
69 70 -79 0
-70 71 72 0
-70 -71 -72 0
70 -71 72 0
70 71 -72 0
71 -292 -303 0
-71 292 0
-71 303 0
-72 73 78 0
-72 -73 -78 0
72 -73 78 0
72 73 -78 0
-73 -74 -75 0
-73 74 75 0
73 74 -75 0
73 -74 75 0
74 -291 -304 0
-74 291 0
-74 304 0
75 -76 77 0
75 76 -77 0
-75 76 77 0
-75 -76 -77 0
76 -290 -305 0
-76 290 0
-76 305 0
-77 54 55 0
-77 52 54 0
-77 52 55 0
77 -52 -54 0
77 -54 -55 0
77 -52 -55 0
-78 49 51 0
-78 51 56 0
-78 49 56 0
78 -51 -56 0
78 -49 -51 0
78 -49 -56 0
-79 46 48 0
-79 48 57 0
-79 46 57 0
79 -48 -57 0
79 -46 -48 0
79 -46 -57 0
-80 42 45 0
-80 44 42 0
-80 44 45 0
80 -44 -42 0
80 -42 -45 0
80 -44 -45 0
81 82 -83 0
81 -82 83 0
-81 -82 -83 0
-81 82 83 0
82 -297 -299 0
-82 297 0
-82 299 0
83 -84 85 0
83 84 -85 0
-83 84 85 0
-83 -84 -85 0
84 -296 -300 0
-84 296 0
-84 300 0
-85 86 87 0
-85 -86 -87 0
85 -86 87 0
85 86 -87 0
86 -296 -299 -60 0
-86 296 0
-86 299 0
-86 60 0
-87 88 89 0
-87 -88 -89 0
87 -88 89 0
87 88 -89 0
88 -295 -301 0
-88 295 0
-88 301 0
-89 90 107 0
-89 -90 -107 0
89 -90 107 0
89 90 -107 0
-90 91 92 0
-90 -91 -92 0
90 -91 92 0
90 91 -92 0
91 -294 -302 0
-91 294 0
-91 302 0
-92 93 106 0
-92 -93 -106 0
92 -93 106 0
92 93 -106 0
-93 94 95 0
-93 -94 -95 0
93 -94 95 0
93 94 -95 0
94 -293 -303 0
-94 293 0
-94 303 0
-95 96 105 0
-95 -96 -105 0
95 -96 105 0
95 96 -105 0
-96 97 98 0
-96 -97 -98 0
96 -97 98 0
96 97 -98 0
97 -292 -304 0
-97 292 0
-97 304 0
-98 99 104 0
-98 -99 -104 0
98 -99 104 0
98 99 -104 0
-99 -100 -101 0
-99 100 101 0
99 100 -101 0
99 -100 101 0
100 -291 -305 0
-100 291 0
-100 305 0
101 -102 103 0
101 102 -103 0
-101 102 103 0
-101 -102 -103 0
102 -290 -306 0
-102 290 0
-102 306 0
-103 76 77 0
-103 74 76 0
-103 74 77 0
103 -74 -76 0
103 -76 -77 0
103 -74 -77 0
-104 71 73 0
-104 73 78 0
-104 71 78 0
104 -73 -78 0
104 -71 -73 0
104 -71 -78 0
-105 68 70 0
-105 70 79 0
-105 68 79 0
105 -70 -79 0
105 -68 -70 0
105 -68 -79 0
-106 65 67 0
-106 67 80 0
-106 65 80 0
106 -67 -80 0
106 -65 -67 0
106 -65 -80 0
-107 61 64 0
-107 63 61 0
-107 63 64 0
107 -63 -61 0
107 -61 -64 0
107 -63 -64 0
108 109 -110 0
108 -109 110 0
-108 -109 -110 0
-108 109 110 0
109 -298 -299 0
-109 298 0
-109 299 0
110 111 -112 0
110 -111 112 0
-110 -111 -112 0
-110 111 112 0
111 -297 -300 0
-111 297 0
-111 300 0
112 113 -114 0
112 -113 114 0
-112 -113 -114 0
-112 113 114 0
113 -297 -299 -83 0
-113 297 0
-113 299 0
-113 83 0
114 -115 116 0
114 115 -116 0
-114 115 116 0
-114 -115 -116 0
115 -296 -301 0
-115 296 0
-115 301 0
-116 117 138 0
-116 -117 -138 0
116 -117 138 0
116 117 -138 0
-117 118 119 0
-117 -118 -119 0
117 -118 119 0
117 118 -119 0
118 -295 -302 0
-118 295 0
-118 302 0
-119 120 137 0
-119 -120 -137 0
119 -120 137 0
119 120 -137 0
-120 121 122 0
-120 -121 -122 0
120 -121 122 0
120 121 -122 0
121 -294 -303 0
-121 294 0
-121 303 0
-122 123 136 0
-122 -123 -136 0
122 -123 136 0
122 123 -136 0
-123 124 125 0
-123 -124 -125 0
123 -124 125 0
123 124 -125 0
124 -293 -304 0
-124 293 0
-124 304 0
-125 126 135 0
-125 -126 -135 0
125 -126 135 0
125 126 -135 0
-126 127 128 0
-126 -127 -128 0
126 -127 128 0
126 127 -128 0
127 -292 -305 0
-127 292 0
-127 305 0
-128 129 134 0
-128 -129 -134 0
128 -129 134 0
128 129 -134 0
-129 -130 -131 0
-129 130 131 0
129 130 -131 0
129 -130 131 0
130 -291 -306 0
-130 291 0
-130 306 0
131 -132 133 0
131 132 -133 0
-131 132 133 0
-131 -132 -133 0
132 -290 -307 0
-132 290 0
-132 307 0
-133 102 103 0
-133 100 102 0
-133 100 103 0
133 -100 -102 0
133 -102 -103 0
133 -100 -103 0
-134 97 99 0
-134 99 104 0
-134 97 104 0
134 -99 -104 0
134 -97 -99 0
134 -97 -104 0
-135 94 96 0
-135 96 105 0
-135 94 105 0
135 -96 -105 0
135 -94 -96 0
135 -94 -105 0
-136 91 93 0
-136 93 106 0
-136 91 106 0
136 -93 -106 0
136 -91 -93 0
136 -91 -106 0
-137 88 90 0
-137 90 107 0
-137 88 107 0
137 -90 -107 0
137 -88 -90 0
137 -88 -107 0
-138 84 87 0
-138 86 84 0
-138 86 87 0
138 -86 -84 0
138 -84 -87 0
138 -86 -87 0
139 -140 141 0
139 140 -141 0
-139 140 141 0
-139 -140 -141 0
140 -298 -300 0
-140 298 0
-140 300 0
-141 142 143 0
-141 -142 -143 0
141 -142 143 0
141 142 -143 0
142 -297 -301 0
-142 297 0
-142 301 0
-143 144 145 0
-143 -144 -145 0
143 -144 145 0
143 144 -145 0
144 -298 -299 -110 0
-144 298 0
-144 299 0
-144 110 0
-145 146 147 0
-145 -146 -147 0
145 -146 147 0
145 146 -147 0
146 -296 -302 0
-146 296 0
-146 302 0
-147 148 169 0
-147 -148 -169 0
147 -148 169 0
147 148 -169 0
-148 149 150 0
-148 -149 -150 0
148 -149 150 0
148 149 -150 0
149 -295 -303 0
-149 295 0
-149 303 0
-150 151 168 0
-150 -151 -168 0
150 -151 168 0
150 151 -168 0
-151 152 153 0
-151 -152 -153 0
151 -152 153 0
151 152 -153 0
152 -294 -304 0
-152 294 0
-152 304 0
-153 154 167 0
-153 -154 -167 0
153 -154 167 0
153 154 -167 0
-154 155 156 0
-154 -155 -156 0
154 -155 156 0
154 155 -156 0
155 -293 -305 0
-155 293 0
-155 305 0
-156 157 166 0
-156 -157 -166 0
156 -157 166 0
156 157 -166 0
-157 158 159 0
-157 -158 -159 0
157 -158 159 0
157 158 -159 0
158 -292 -306 0
-158 292 0
-158 306 0
-159 160 165 0
-159 -160 -165 0
159 -160 165 0
159 160 -165 0
-160 161 162 0
-160 -161 -162 0
160 -161 162 0
160 161 -162 0
161 -291 -307 0
-161 291 0
-161 307 0
-162 163 164 0
-162 -163 -164 0
162 -163 164 0
162 163 -164 0
-163 132 133 0
-163 130 132 0
-163 130 133 0
163 -130 -132 0
163 -132 -133 0
163 -130 -133 0
-164 127 129 0
-164 129 134 0
-164 127 134 0
164 -129 -134 0
164 -127 -129 0
164 -127 -134 0
-165 124 126 0
-165 126 135 0
-165 124 135 0
165 -126 -135 0
165 -124 -126 0
165 -124 -135 0
-166 121 123 0
-166 123 136 0
-166 121 136 0
166 -123 -136 0
166 -121 -123 0
166 -121 -136 0
-167 118 120 0
-167 120 137 0
-167 118 137 0
167 -120 -137 0
167 -118 -120 0
167 -118 -137 0
-168 115 117 0
-168 117 138 0
-168 115 138 0
168 -117 -138 0
168 -115 -117 0
168 -115 -138 0
-169 113 114 0
-169 111 114 0
-169 113 111 0
169 -113 -111 0
169 -111 -114 0
169 -113 -114 0
170 171 -172 0
170 -171 172 0
-170 -171 -172 0
-170 171 172 0
171 -298 -300 -141 0
-171 298 0
-171 300 0
-171 141 0
172 173 -174 0
172 -173 174 0
-172 -173 -174 0
-172 173 174 0
173 -298 -301 0
-173 298 0
-173 301 0
174 -175 176 0
174 175 -176 0
-174 175 176 0
-174 -175 -176 0
175 -297 -302 0
-175 297 0
-175 302 0
-176 177 198 0
-176 -177 -198 0
176 -177 198 0
176 177 -198 0
-177 178 179 0
-177 -178 -179 0
177 -178 179 0
177 178 -179 0
178 -296 -303 0
-178 296 0
-178 303 0
-179 180 197 0
-179 -180 -197 0
179 -180 197 0
179 180 -197 0
-180 181 182 0
-180 -181 -182 0
180 -181 182 0
180 181 -182 0
181 -295 -304 0
-181 295 0
-181 304 0
-182 183 196 0
-182 -183 -196 0
182 -183 196 0
182 183 -196 0
-183 184 185 0
-183 -184 -185 0
183 -184 185 0
183 184 -185 0
184 -294 -305 0
-184 294 0
-184 305 0
-185 186 195 0
-185 -186 -195 0
185 -186 195 0
185 186 -195 0
-186 187 188 0
-186 -187 -188 0
186 -187 188 0
186 187 -188 0
187 -293 -306 0
-187 293 0
-187 306 0
-188 189 194 0
-188 -189 -194 0
188 -189 194 0
188 189 -194 0
-189 190 191 0
-189 -190 -191 0
189 -190 191 0
189 190 -191 0
190 -292 -307 0
-190 292 0
-190 307 0
-191 192 193 0
-191 -192 -193 0
191 -192 193 0
191 192 -193 0
-192 161 163 0
-192 163 164 0
-192 161 164 0
192 -163 -164 0
192 -161 -163 0
192 -161 -164 0
-193 158 160 0
-193 160 165 0
-193 158 165 0
193 -160 -165 0
193 -158 -160 0
193 -158 -165 0
-194 155 157 0
-194 157 166 0
-194 155 166 0
194 -157 -166 0
194 -155 -157 0
194 -155 -166 0
-195 152 154 0
-195 154 167 0
-195 152 167 0
195 -154 -167 0
195 -152 -154 0
195 -152 -167 0
-196 149 151 0
-196 151 168 0
-196 149 168 0
196 -151 -168 0
196 -149 -151 0
196 -149 -168 0
-197 146 148 0
-197 148 169 0
-197 146 169 0
197 -148 -169 0
197 -146 -148 0
197 -146 -169 0
-198 142 145 0
-198 144 142 0
-198 144 145 0
198 -144 -142 0
198 -142 -145 0
198 -144 -145 0
199 200 -201 0
199 -200 201 0
-199 -200 -201 0
-199 200 201 0
-200 171 174 0
-200 173 174 0
-200 171 173 0
200 -171 -173 0
200 -173 -174 0
200 -171 -174 0
201 202 -203 0
201 -202 203 0
-201 -202 -203 0
-201 202 203 0
202 -298 -302 0
-202 298 0
-202 302 0
203 -204 205 0
203 204 -205 0
-203 204 205 0
-203 -204 -205 0
204 -297 -303 0
-204 297 0
-204 303 0
-205 206 223 0
-205 -206 -223 0
205 -206 223 0
205 206 -223 0
-206 207 208 0
-206 -207 -208 0
206 -207 208 0
206 207 -208 0
207 -296 -304 0
-207 296 0
-207 304 0
-208 209 222 0
-208 -209 -222 0
208 -209 222 0
208 209 -222 0
-209 210 211 0
-209 -210 -211 0
209 -210 211 0
209 210 -211 0
210 -295 -305 0
-210 295 0
-210 305 0
-211 212 221 0
-211 -212 -221 0
211 -212 221 0
211 212 -221 0
-212 213 214 0
-212 -213 -214 0
212 -213 214 0
212 213 -214 0
213 -294 -306 0
-213 294 0
-213 306 0
-214 215 220 0
-214 -215 -220 0
214 -215 220 0
214 215 -220 0
-215 216 217 0
-215 -216 -217 0
215 -216 217 0
215 216 -217 0
216 -293 -307 0
-216 293 0
-216 307 0
-217 218 219 0
-217 -218 -219 0
217 -218 219 0
217 218 -219 0
-218 190 192 0
-218 192 193 0
-218 190 193 0
218 -192 -193 0
218 -190 -192 0
218 -190 -193 0
-219 187 189 0
-219 189 194 0
-219 187 194 0
219 -189 -194 0
219 -187 -189 0
219 -187 -194 0
-220 184 186 0
-220 186 195 0
-220 184 195 0
220 -186 -195 0
220 -184 -186 0
220 -184 -195 0
-221 181 183 0
-221 183 196 0
-221 181 196 0
221 -183 -196 0
221 -181 -183 0
221 -181 -196 0
-222 178 180 0
-222 180 197 0
-222 178 197 0
222 -180 -197 0
222 -178 -180 0
222 -178 -197 0
-223 175 177 0
-223 177 198 0
-223 175 198 0
223 -177 -198 0
223 -175 -177 0
223 -175 -198 0
224 225 -226 0
224 -225 226 0
-224 -225 -226 0
-224 225 226 0
-225 202 203 0
-225 200 202 0
-225 200 203 0
225 -200 -202 0
225 -202 -203 0
225 -200 -203 0
226 227 -228 0
226 -227 228 0
-226 -227 -228 0
-226 227 228 0
227 -298 -303 0
-227 298 0
-227 303 0
228 -229 230 0
228 229 -230 0
-228 229 230 0
-228 -229 -230 0
229 -297 -304 0
-229 297 0
-229 304 0
-230 231 244 0
-230 -231 -244 0
230 -231 244 0
230 231 -244 0
-231 232 233 0
-231 -232 -233 0
231 -232 233 0
231 232 -233 0
232 -296 -305 0
-232 296 0
-232 305 0
-233 234 243 0
-233 -234 -243 0
233 -234 243 0
233 234 -243 0
-234 235 236 0
-234 -235 -236 0
234 -235 236 0
234 235 -236 0
235 -295 -306 0
-235 295 0
-235 306 0
-236 237 242 0
-236 -237 -242 0
236 -237 242 0
236 237 -242 0
-237 238 239 0
-237 -238 -239 0
237 -238 239 0
237 238 -239 0
238 -294 -307 0
-238 294 0
-238 307 0
-239 240 241 0
-239 -240 -241 0
239 -240 241 0
239 240 -241 0
-240 216 218 0
-240 218 219 0
-240 216 219 0
240 -218 -219 0
240 -216 -218 0
240 -216 -219 0
-241 213 215 0
-241 215 220 0
-241 213 220 0
241 -215 -220 0
241 -213 -215 0
241 -213 -220 0
-242 210 212 0
-242 212 221 0
-242 210 221 0
242 -212 -221 0
242 -210 -212 0
242 -210 -221 0
-243 207 209 0
-243 209 222 0
-243 207 222 0
243 -209 -222 0
243 -207 -209 0
243 -207 -222 0
-244 204 206 0
-244 206 223 0
-244 204 223 0
244 -206 -223 0
244 -204 -206 0
244 -204 -223 0
245 246 -247 0
245 -246 247 0
-245 -246 -247 0
-245 246 247 0
-246 227 228 0
-246 225 227 0
-246 225 228 0
246 -225 -227 0
246 -227 -228 0
246 -225 -228 0
247 248 -249 0
247 -248 249 0
-247 -248 -249 0
-247 248 249 0
248 -298 -304 0
-248 298 0
-248 304 0
249 -250 251 0
249 250 -251 0
-249 250 251 0
-249 -250 -251 0
250 -297 -305 0
-250 297 0
-250 305 0
-251 252 261 0
-251 -252 -261 0
251 -252 261 0
251 252 -261 0
-252 253 254 0
-252 -253 -254 0
252 -253 254 0
252 253 -254 0
253 -296 -306 0
-253 296 0
-253 306 0
-254 255 260 0
-254 -255 -260 0
254 -255 260 0
254 255 -260 0
-255 256 257 0
-255 -256 -257 0
255 -256 257 0
255 256 -257 0
256 -295 -307 0
-256 295 0
-256 307 0
-257 258 259 0
-257 -258 -259 0
257 -258 259 0
257 258 -259 0
-258 238 240 0
-258 240 241 0
-258 238 241 0
258 -240 -241 0
258 -238 -240 0
258 -238 -241 0
-259 235 237 0
-259 237 242 0
-259 235 242 0
259 -237 -242 0
259 -235 -237 0
259 -235 -242 0
-260 232 234 0
-260 234 243 0
-260 232 243 0
260 -234 -243 0
260 -232 -234 0
260 -232 -243 0
-261 229 231 0
-261 231 244 0
-261 229 244 0
261 -231 -244 0
261 -229 -231 0
261 -229 -244 0
262 263 -264 0
262 -263 264 0
-262 -263 -264 0
-262 263 264 0
-263 248 249 0
-263 246 248 0
-263 246 249 0
263 -246 -248 0
263 -248 -249 0
263 -246 -249 0
264 265 -266 0
264 -265 266 0
-264 -265 -266 0
-264 265 266 0
265 -298 -305 0
-265 298 0
-265 305 0
266 -267 268 0
266 267 -268 0
-266 267 268 0
-266 -267 -268 0
267 -297 -306 0
-267 297 0
-267 306 0
-268 269 274 0
-268 -269 -274 0
268 -269 274 0
268 269 -274 0
-269 270 271 0
-269 -270 -271 0
269 -270 271 0
269 270 -271 0
270 -296 -307 0
-270 296 0
-270 307 0
-271 272 273 0
-271 -272 -273 0
271 -272 273 0
271 272 -273 0
-272 256 258 0
-272 258 259 0
-272 256 259 0
272 -258 -259 0
272 -256 -258 0
272 -256 -259 0
-273 253 255 0
-273 255 260 0
-273 253 260 0
273 -255 -260 0
273 -253 -255 0
273 -253 -260 0
-274 250 252 0
-274 252 261 0
-274 250 261 0
274 -252 -261 0
274 -250 -252 0
274 -250 -261 0
275 276 -277 0
275 -276 277 0
-275 -276 -277 0
-275 276 277 0
-276 265 266 0
-276 263 265 0
-276 263 266 0
276 -263 -265 0
276 -265 -266 0
276 -263 -266 0
277 278 -279 0
277 -278 279 0
-277 -278 -279 0
-277 278 279 0
278 -298 -306 0
-278 298 0
-278 306 0
279 -280 281 0
279 280 -281 0
-279 280 281 0
-279 -280 -281 0
280 -297 -307 0
-280 297 0
-280 307 0
-281 282 283 0
-281 -282 -283 0
281 -282 283 0
281 282 -283 0
-282 270 272 0
-282 272 273 0
-282 270 273 0
282 -272 -273 0
282 -270 -272 0
282 -270 -273 0
-283 267 269 0
-283 269 274 0
-283 267 274 0
283 -269 -274 0
283 -267 -269 0
283 -267 -274 0
284 285 -286 0
284 -285 286 0
-284 -285 -286 0
-284 285 286 0
-285 278 279 0
-285 276 278 0
-285 276 279 0
285 -276 -278 0
285 -278 -279 0
285 -276 -279 0
286 -287 288 0
286 287 -288 0
-286 287 288 0
-286 -287 -288 0
287 -298 -307 0
-287 298 0
-287 307 0
-288 280 282 0
-288 282 283 0
-288 280 283 0
288 -282 -283 0
288 -280 -282 0
288 -280 -283 0
-289 285 288 0
-289 285 287 0
-289 287 288 0
289 -287 -288 0
289 -285 -288 0
289 -285 -287 0
-308 0
2 0
3 0
6 0
13 0
24 0
39 0
58 0
81 0
108 0
139 0
170 0
199 0
224 0
245 0
262 0
275 0
284 0
289 0

