c Result of efficient AIG-to-CNF conversion using package CNF
p cnf 324 1279
-2 3 0
2 -3 0
-3 4 0
3 -4 0
-4 5 0
4 -5 0
-5 6 0
5 -6 0
-6 7 0
6 -7 0
-7 8 0
7 -8 0
-8 9 0
8 -9 0
9 -308 -316 0
-9 308 0
-9 316 0
-10 11 0
10 -11 0
-11 12 0
11 -12 0
-12 13 0
12 -13 0
-13 14 0
13 -14 0
-14 15 0
14 -15 0
-15 16 0
15 -16 0
-16 308 17 0
-16 317 17 0
-16 -308 -317 -17 0
16 308 -17 0
16 -308 -317 17 0
16 317 -17 0
17 -309 -316 0
-17 309 0
-17 316 0
-18 19 0
18 -19 0
-19 20 0
19 -20 0
-20 21 0
20 -21 0
-21 22 0
21 -22 0
-22 23 0
22 -23 0
-23 308 24 0
-23 -308 -318 -24 0
-23 318 24 0
23 308 -24 0
23 318 -24 0
23 -308 -318 24 0
-24 317 26 0
-24 -317 -25 -27 0
-24 -317 25 27 0
24 317 -26 0
24 -317 -25 27 0
24 -317 25 -27 0
25 -308 -309 -316 0
-25 308 0
-25 309 0
-25 316 0
26 -310 -316 0
-26 310 0
-26 316 0
27 309 -26 0
27 -309 26 0
-27 -309 -26 0
-27 309 26 0
-28 29 0
28 -29 0
-29 30 0
29 -30 0
-30 31 0
30 -31 0
-31 32 0
31 -32 0
-32 308 33 0
-32 -308 -319 -33 0
-32 319 33 0
32 308 -33 0
32 319 -33 0
32 -308 -319 33 0
-33 318 35 0
-33 -318 -34 -39 0
-33 -318 34 39 0
33 318 -35 0
33 -318 -34 39 0
33 -318 34 -39 0
34 -308 -24 0
-34 308 0
-34 24 0
-35 317 36 0
-35 -317 37 38 0
-35 -317 -37 -38 0
35 317 -36 0
35 -317 37 -38 0
35 -317 -37 38 0
36 -311 -316 0
-36 311 0
-36 316 0
37 310 -36 0
37 -310 36 0
-37 -310 -36 0
-37 310 36 0
-38 316 0
-38 309 0
-38 308 310 0
38 -308 -309 -316 0
38 -309 -310 -316 0
39 -309 35 0
39 309 -35 0
-39 309 35 0
-39 -309 -35 0
-40 41 0
40 -41 0
-41 42 0
41 -42 0
-42 43 0
42 -43 0
-43 308 44 0
-43 -308 -320 -44 0
-43 320 44 0
43 308 -44 0
43 320 -44 0
43 -308 -320 44 0
-44 319 46 0
-44 -319 -45 -56 0
-44 -319 45 56 0
44 319 -46 0
44 -319 -45 56 0
44 -319 45 -56 0
45 -308 -33 0
-45 308 0
-45 33 0
-46 318 47 0
-46 -318 52 53 0
-46 -318 -52 -53 0
46 318 -47 0
46 -318 52 -53 0
46 -318 -52 53 0
-47 317 48 0
-47 -317 49 50 0
-47 -317 -49 -50 0
47 317 -48 0
47 -317 49 -50 0
47 -317 -49 50 0
48 -312 -316 0
-48 312 0
-48 316 0
49 311 -48 0
49 -311 48 0
-49 -311 -48 0
-49 311 48 0
-50 27 51 0
-50 25 51 0
-50 37 51 0
50 -51 0
50 -25 -27 -37 0
-51 316 0
-51 310 0
-51 309 311 0
51 -309 -310 -316 0
51 -310 -311 -316 0
52 -310 47 0
52 310 -47 0
-52 310 47 0
-52 -310 -47 0
-53 54 55 0
53 -54 0
53 -55 0
54 -309 -35 0
-54 309 0
-54 35 0
55 -34 -39 0
-55 34 0
-55 39 0
56 -309 46 0
56 309 -46 0
-56 309 46 0
-56 -309 -46 0
-57 58 0
57 -58 0
-58 59 0
58 -59 0
-59 308 60 0
-59 -308 -321 -60 0
-59 321 60 0
59 308 -60 0
59 321 -60 0
59 -308 -321 60 0
-60 320 62 0
-60 309 61 62 0
-60 -309 -61 62 0
-60 309 -320 -61 -62 0
-60 -309 -320 61 -62 0
60 320 -62 0
60 -309 -61 -62 0
60 309 61 -62 0
60 309 -320 -61 62 0
60 -309 -320 61 62 0
61 -308 -44 0
-61 308 0
-61 44 0
-62 319 63 0
-62 -319 74 75 0
-62 -319 -74 -75 0
62 319 -63 0
62 -319 74 -75 0
62 -319 -74 75 0
-63 318 64 0
-63 -318 70 71 0
-63 -318 -70 -71 0
63 318 -64 0
63 -318 70 -71 0
63 -318 -70 71 0
-64 317 65 0
-64 -317 66 67 0
-64 -317 -66 -67 0
64 317 -65 0
64 -317 66 -67 0
64 -317 -66 67 0
65 -313 -316 0
-65 313 0
-65 316 0
66 312 -65 0
66 -312 65 0
-66 -312 -65 0
-66 312 65 0
-67 68 69 0
67 -68 0
67 -69 0
68 -311 -312 -316 0
-68 311 0
-68 312 0
-68 316 0
69 -49 -50 0
-69 49 0
-69 50 0
70 -311 64 0
70 311 -64 0
-70 311 64 0
-70 -311 -64 0
-71 72 73 0
71 -72 0
71 -73 0
72 -310 -47 0
-72 310 0
-72 47 0
73 -52 -53 0
-73 52 0
-73 53 0
74 -310 63 0
74 310 -63 0
-74 310 63 0
-74 -310 -63 0
-75 76 77 0
75 -76 0
75 -77 0
76 -309 -46 0
-76 309 0
-76 46 0
77 -45 -56 0
-77 45 0
-77 56 0
-78 79 0
78 -79 0
-79 308 80 0
-79 -308 -322 -80 0
-79 322 80 0
79 308 -80 0
79 322 -80 0
79 -308 -322 80 0
-80 321 82 0
-80 -321 -81 -104 0
-80 -321 81 104 0
80 321 -82 0
80 -321 -81 104 0
80 -321 81 -104 0
81 -308 -60 0
-81 308 0
-81 60 0
-82 320 83 0
-82 -310 83 -100 0
-82 310 83 100 0
-82 -310 -320 -83 100 0
-82 310 -320 -83 -100 0
82 320 -83 0
82 310 -320 83 -100 0
82 310 -83 100 0
82 -310 -83 -100 0
82 -310 -320 83 100 0
-83 319 84 0
-83 -319 96 97 0
-83 -319 -96 -97 0
83 319 -84 0
83 -319 96 -97 0
83 -319 -96 97 0
-84 318 85 0
-84 -318 91 92 0
-84 -318 -91 -92 0
84 318 -85 0
84 -318 91 -92 0
84 -318 -91 92 0
-85 317 86 0
-85 -317 87 88 0
-85 -317 -87 -88 0
85 317 -86 0
85 -317 87 -88 0
85 -317 -87 88 0
86 -314 -316 0
-86 314 0
-86 316 0
87 313 -86 0
87 -313 86 0
-87 -313 -86 0
-87 313 86 0
-88 50 89 0
-88 89 90 0
88 -89 0
88 -50 -90 0
-89 316 0
-89 312 0
-89 311 313 0
89 -311 -312 -316 0
89 -312 -313 -316 0
90 -49 -66 0
-90 49 0
-90 66 0
91 -312 85 0
91 312 -85 0
-91 312 85 0
-91 -312 -85 0
-92 53 93 0
-92 93 95 0
92 -93 0
92 -53 -95 0
-93 94 70 0
-93 72 94 0
93 -94 0
93 -72 -70 0
94 -311 -64 0
-94 311 0
-94 64 0
95 -52 -70 0
-95 52 0
-95 70 0
96 -311 84 0
96 311 -84 0
-96 311 84 0
-96 -311 -84 0
-97 45 98 0
-97 98 99 0
97 -98 0
97 -45 -99 0
-98 76 63 0
-98 310 76 0
-98 310 63 0
98 -310 -76 0
98 -76 -63 0
98 -310 -63 0
99 -56 -74 0
-99 56 0
-99 74 0
-100 101 102 0
100 -101 0
100 -102 0
101 -309 -62 0
-101 309 0
-101 62 0
102 -61 -103 0
-102 61 0
-102 103 0
103 -309 62 0
103 309 -62 0
-103 309 62 0
-103 -309 -62 0
104 -309 82 0
104 309 -82 0
-104 309 82 0
-104 -309 -82 0
-105 308 106 0
-105 -308 -323 -106 0
-105 323 106 0
105 308 -106 0
105 323 -106 0
105 -308 -323 106 0
-106 322 108 0
-106 309 107 108 0
-106 -309 -107 108 0
-106 309 -322 -107 -108 0
-106 -309 -322 107 -108 0
106 322 -108 0
106 -309 -107 -108 0
106 309 107 -108 0
106 309 -322 -107 108 0
106 -309 -322 107 108 0
107 -308 -80 0
-107 308 0
-107 80 0
-108 321 109 0
-108 -321 131 132 0
-108 -321 -131 -132 0
108 321 -109 0
108 -321 131 -132 0
108 -321 -131 132 0
-109 320 110 0
-109 -320 126 127 0
-109 -320 -126 -127 0
109 320 -110 0
109 -320 126 -127 0
109 -320 -126 127 0
-110 319 111 0
-110 -319 122 123 0
-110 -319 -122 -123 0
110 319 -111 0
110 -319 122 -123 0
110 -319 -122 123 0
-111 318 112 0
-111 -318 118 119 0
-111 -318 -118 -119 0
111 318 -112 0
111 -318 118 -119 0
111 -318 -118 119 0
-112 317 113 0
-112 -317 114 115 0
-112 -317 -114 -115 0
112 317 -113 0
112 -317 114 -115 0
112 -317 -114 115 0
113 -315 -316 0
-113 315 0
-113 316 0
114 314 -113 0
114 -314 113 0
-114 -314 -113 0
-114 314 113 0
-115 116 117 0
115 -116 0
115 -117 0
116 -313 -314 -316 0
-116 313 0
-116 314 0
-116 316 0
117 -87 -88 0
-117 87 0
-117 88 0
118 -313 112 0
118 313 -112 0
-118 313 112 0
-118 -313 -112 0
-119 120 121 0
119 -120 0
119 -121 0
120 -312 -85 0
-120 312 0
-120 85 0
121 -91 -92 0
-121 91 0
-121 92 0
122 -312 111 0
122 312 -111 0
-122 312 111 0
-122 -312 -111 0
-123 124 125 0
123 -124 0
123 -125 0
124 -311 -84 0
-124 311 0
-124 84 0
125 -96 -97 0
-125 96 0
-125 97 0
126 -311 110 0
126 311 -110 0
-126 311 110 0
-126 -311 -110 0
-127 128 129 0
127 -128 0
127 -129 0
128 -310 -83 0
-128 310 0
-128 83 0
129 -130 -100 0
-129 130 0
-129 100 0
130 -310 83 0
130 310 -83 0
-130 310 83 0
-130 -310 -83 0
131 -310 109 0
131 310 -109 0
-131 310 109 0
-131 -310 -109 0
-132 133 134 0
132 -133 0
132 -134 0
133 -309 -82 0
-133 309 0
-133 82 0
134 -81 -104 0
-134 81 0
-134 104 0
-135 323 137 0
-135 -323 -136 -167 0
-135 -323 136 167 0
135 323 -137 0
135 -323 -136 167 0
135 -323 136 -167 0
136 -308 -106 0
-136 308 0
-136 106 0
-137 322 138 0
-137 -310 138 -163 0
-137 310 138 163 0
-137 -310 -322 -138 163 0
-137 310 -322 -138 -163 0
137 322 -138 0
137 310 -322 138 -163 0
137 310 -138 163 0
137 -310 -138 -163 0
137 -310 -322 138 163 0
-138 321 139 0
-138 -311 139 -160 0
-138 311 139 160 0
-138 -311 -321 -139 160 0
-138 311 -321 -139 -160 0
138 321 -139 0
138 311 -321 139 -160 0
138 311 -139 160 0
138 -311 -139 -160 0
138 -311 -321 139 160 0
-139 320 140 0
-139 -312 140 -158 0
-139 312 140 158 0
-139 -312 -320 -140 158 0
-139 312 -320 -140 -158 0
139 320 -140 0
139 312 -320 140 -158 0
139 312 -140 158 0
139 -312 -140 -158 0
139 -312 -320 140 158 0
-140 319 141 0
-140 -313 141 -153 0
-140 313 141 153 0
-140 -313 -319 -141 153 0
-140 313 -319 -141 -153 0
140 319 -141 0
140 313 -319 141 -153 0
140 313 -141 153 0
140 -313 -141 -153 0
140 -313 -319 141 153 0
-141 318 142 0
-141 -318 147 148 0
-141 -318 -147 -148 0
141 318 -142 0
141 -318 147 -148 0
141 -318 -147 148 0
142 315 -317 -143 0
142 -315 -317 143 0
-142 317 0
-142 -315 -143 0
-142 315 143 0
-143 90 145 0
-143 144 145 0
-143 50 145 0
143 -145 0
143 -50 -90 -144 0
144 -87 -114 0
-144 87 0
-144 114 0
-145 89 146 0
-145 146 144 0
145 -146 0
145 -89 -144 0
-146 316 0
-146 314 0
-146 313 315 0
146 -313 -314 -316 0
146 -314 -315 -316 0
147 314 -142 0
147 -314 142 0
-147 -314 -142 0
-147 314 142 0
-148 95 150 0
-148 149 150 0
-148 53 150 0
148 -150 0
148 -53 -95 -149 0
149 -91 -118 0
-149 91 0
-149 118 0
-150 93 151 152 0
-150 151 152 149 0
150 -152 0
150 -151 0
150 -93 -149 0
151 -313 -112 0
-151 313 0
-151 112 0
152 -120 -118 0
-152 120 0
-152 118 0
-153 99 155 0
-153 45 155 0
-153 154 155 0
153 -155 0
153 -45 -99 -154 0
154 -96 -122 0
-154 96 0
-154 122 0
-155 98 156 157 0
-155 156 157 154 0
155 -157 0
155 -156 0
155 -98 -154 0
156 -312 -111 0
-156 312 0
-156 111 0
157 -124 -122 0
-157 124 0
-157 122 0
-158 311 128 159 0
-158 128 110 159 0
-158 311 110 159 0
158 -311 -128 0
158 -128 -110 0
158 -159 0
158 -311 -110 0
159 -130 -100 -126 0
-159 130 0
-159 100 0
-159 126 0
-160 104 161 0
-160 81 161 0
-160 131 161 0
160 -161 0
160 -81 -104 -131 0
-161 162 131 0
-161 133 162 0
161 -162 0
161 -133 -131 0
162 -310 -109 0
-162 310 0
-162 109 0
-163 164 165 0
163 -164 0
163 -165 0
164 -309 -108 0
-164 309 0
-164 108 0
165 -107 -166 0
-165 107 0
-165 166 0
166 -309 108 0
166 309 -108 0
-166 309 108 0
-166 -309 -108 0
167 -309 137 0
167 309 -137 0
-167 309 137 0
-167 -309 -137 0
-168 323 169 0
-168 -323 201 202 0
-168 -323 -201 -202 0
168 323 -169 0
168 -323 201 -202 0
168 -323 -201 202 0
-169 322 170 0
-169 -322 196 197 0
-169 -322 -196 -197 0
169 322 -170 0
169 -322 196 -197 0
169 -322 -196 197 0
-170 321 171 0
-170 -321 191 192 0
-170 -321 -191 -192 0
170 321 -171 0
170 -321 191 -192 0
170 -321 -191 192 0
-171 320 172 0
-171 -320 186 187 0
-171 -320 -186 -187 0
171 320 -172 0
171 -320 186 -187 0
171 -320 -186 187 0
-172 319 173 0
-172 -319 181 182 0
-172 -319 -181 -182 0
172 319 -173 0
172 -319 181 -182 0
172 -319 -181 182 0
-173 318 174 0
-173 -318 176 178 0
-173 -318 -176 -178 0
173 318 -174 0
173 -318 176 -178 0
173 -318 -176 178 0
174 -317 -175 0
-174 317 0
-174 175 0
175 -315 -143 0
-175 315 0
-175 143 0
176 -315 177 0
-176 315 0
-176 -177 0
177 -315 -174 0
-177 315 0
-177 174 0
-178 179 180 0
178 -179 0
178 -180 0
179 -314 -142 0
-179 314 0
-179 142 0
180 -147 -148 0
-180 147 0
-180 148 0
181 -314 173 0
181 314 -173 0
-181 314 173 0
-181 -314 -173 0
-182 183 184 0
182 -183 0
182 -184 0
183 -313 -141 0
-183 313 0
-183 141 0
184 -185 -153 0
-184 185 0
-184 153 0
185 -313 141 0
185 313 -141 0
-185 313 141 0
-185 -313 -141 0
186 -313 172 0
186 313 -172 0
-186 313 172 0
-186 -313 -172 0
-187 188 189 0
187 -188 0
187 -189 0
188 -312 -140 0
-188 312 0
-188 140 0
189 -190 -158 0
-189 190 0
-189 158 0
190 -312 140 0
190 312 -140 0
-190 312 140 0
-190 -312 -140 0
191 -312 171 0
191 312 -171 0
-191 312 171 0
-191 -312 -171 0
-192 193 194 0
192 -193 0
192 -194 0
193 -311 -139 0
-193 311 0
-193 139 0
194 -195 -160 0
-194 195 0
-194 160 0
195 -311 139 0
195 311 -139 0
-195 311 139 0
-195 -311 -139 0
196 -311 170 0
196 311 -170 0
-196 311 170 0
-196 -311 -170 0
-197 198 199 0
197 -198 0
197 -199 0
198 -310 -138 0
-198 310 0
-198 138 0
199 -200 -163 0
-199 200 0
-199 163 0
200 -310 138 0
200 310 -138 0
-200 310 138 0
-200 -310 -138 0
201 -310 169 0
201 310 -169 0
-201 310 169 0
-201 -310 -169 0
-202 203 204 0
202 -203 0
202 -204 0
203 -309 -137 0
-203 309 0
-203 137 0
204 -136 -167 0
-204 136 0
-204 167 0
-205 323 206 0
-205 -311 206 -225 0
-205 311 206 225 0
-205 -311 -323 -206 225 0
-205 311 -323 -206 -225 0
205 323 -206 0
205 311 -323 206 -225 0
205 311 -206 225 0
205 -311 -206 -225 0
205 -311 -323 206 225 0
-206 322 207 0
-206 -312 207 -222 0
-206 312 207 222 0
-206 -312 -322 -207 222 0
-206 312 -322 -207 -222 0
206 322 -207 0
206 312 -322 207 -222 0
206 312 -207 222 0
206 -312 -207 -222 0
206 -312 -322 207 222 0
-207 321 208 0
-207 -313 208 -219 0
-207 313 208 219 0
-207 -313 -321 -208 219 0
-207 313 -321 -208 -219 0
207 321 -208 0
207 313 -321 208 -219 0
207 313 -208 219 0
207 -313 -208 -219 0
207 -313 -321 208 219 0
-208 320 209 0
-208 -314 209 -215 0
-208 314 209 215 0
-208 -314 -320 -209 215 0
-208 314 -320 -209 -215 0
208 320 -209 0
208 314 -320 209 -215 0
208 314 -209 215 0
208 -314 -209 -215 0
208 -314 -320 209 215 0
-209 319 210 0
-209 315 -319 -210 -213 0
-209 315 210 213 0
-209 -315 210 -213 0
-209 -315 -319 -210 213 0
209 319 -210 0
209 -315 -210 -213 0
209 315 -210 213 0
209 -315 -319 210 213 0
209 315 -319 210 -213 0
210 -318 -177 0
210 -318 -212 0
210 -318 -211 0
-210 318 0
-210 177 211 212 0
211 -179 -176 0
-211 179 0
-211 176 0
212 -147 -148 -176 0
-212 147 0
-212 148 0
-212 176 0
-213 314 183 214 0
-213 183 173 214 0
-213 314 173 214 0
213 -314 -183 0
213 -183 -173 0
213 -214 0
213 -314 -173 0
214 -185 -153 -181 0
-214 185 0
-214 153 0
-214 181 0
-215 158 216 0
-215 216 218 0
215 -216 0
215 -158 -218 0
-216 217 186 0
-216 188 217 0
216 -217 0
216 -188 -186 0
217 -313 -172 0
-217 313 0
-217 172 0
218 -190 -186 0
-218 190 0
-218 186 0
-219 160 220 0
-219 220 221 0
219 -220 0
219 -160 -221 0
-220 193 171 0
-220 312 193 0
-220 312 171 0
220 -312 -193 0
220 -193 -171 0
220 -312 -171 0
221 -195 -191 0
-221 195 0
-221 191 0
-222 163 223 0
-222 223 224 0
222 -223 0
222 -163 -224 0
-223 198 170 0
-223 311 198 0
-223 311 170 0
223 -311 -198 0
223 -198 -170 0
223 -311 -170 0
224 -200 -196 0
-224 200 0
-224 196 0
-225 136 226 0
-225 226 227 0
225 -226 0
225 -136 -227 0
-226 203 169 0
-226 310 203 0
-226 310 169 0
226 -310 -203 0
226 -203 -169 0
226 -310 -169 0
227 -167 -201 0
-227 167 0
-227 201 0
-228 323 229 0
-228 -323 251 252 0
-228 -323 -251 -252 0
228 323 -229 0
228 -323 251 -252 0
228 -323 -251 252 0
-229 322 230 0
-229 -322 246 247 0
-229 -322 -246 -247 0
229 322 -230 0
229 -322 246 -247 0
229 -322 -246 247 0
-230 321 231 0
-230 -321 241 242 0
-230 -321 -241 -242 0
230 321 -231 0
230 -321 241 -242 0
230 -321 -241 242 0
-231 320 232 0
-231 -320 236 237 0
-231 -320 -236 -237 0
231 320 -232 0
231 -320 236 -237 0
231 -320 -236 237 0
232 -319 -233 0
232 -319 -234 0
-232 319 0
-232 233 234 0
233 -315 -210 0
-233 315 0
-233 210 0
234 -235 -213 0
-234 235 0
-234 213 0
235 315 -210 0
235 -315 210 0
-235 -315 -210 0
-235 315 210 0
236 315 -232 0
236 -315 232 0
-236 -315 -232 0
-236 315 232 0
-237 238 239 0
237 -238 0
237 -239 0
238 -314 -209 0
-238 314 0
-238 209 0
239 -240 -215 0
-239 240 0
-239 215 0
240 -314 209 0
240 314 -209 0
-240 314 209 0
-240 -314 -209 0
241 -314 231 0
241 314 -231 0
-241 314 231 0
-241 -314 -231 0
-242 243 244 0
242 -243 0
242 -244 0
243 -313 -208 0
-243 313 0
-243 208 0
244 -245 -219 0
-244 245 0
-244 219 0
245 -313 208 0
245 313 -208 0
-245 313 208 0
-245 -313 -208 0
246 -313 230 0
246 313 -230 0
-246 313 230 0
-246 -313 -230 0
-247 248 249 0
247 -248 0
247 -249 0
248 -312 -207 0
-248 312 0
-248 207 0
249 -250 -222 0
-249 250 0
-249 222 0
250 -312 207 0
250 312 -207 0
-250 312 207 0
-250 -312 -207 0
251 -312 229 0
251 312 -229 0
-251 312 229 0
-251 -312 -229 0
-252 253 254 0
252 -253 0
252 -254 0
253 -311 -206 0
-253 311 0
-253 206 0
254 -255 -225 0
-254 255 0
-254 225 0
255 -311 206 0
255 311 -206 0
-255 311 206 0
-255 -311 -206 0
-256 323 257 0
-256 -313 257 -275 0
-256 313 257 275 0
-256 -313 -323 -257 275 0
-256 313 -323 -257 -275 0
256 323 -257 0
256 313 -323 257 -275 0
256 313 -257 275 0
256 -313 -257 -275 0
256 -313 -323 257 275 0
-257 322 258 0
-257 -314 258 -270 0
-257 314 258 270 0
-257 -314 -322 -258 270 0
-257 314 -322 -258 -270 0
257 322 -258 0
257 314 -322 258 -270 0
257 314 -258 270 0
257 -314 -258 -270 0
257 -314 -322 258 270 0
-258 321 259 0
-258 315 -321 -259 -265 0
-258 315 259 265 0
-258 -315 259 -265 0
-258 -315 -321 -259 265 0
258 321 -259 0
258 -315 -259 -265 0
258 315 -259 265 0
258 -315 -321 259 265 0
258 315 -321 259 -265 0
259 -320 -260 0
259 -320 -158 -264 0
-259 320 0
-259 158 260 0
-259 260 264 0
-260 238 261 262 0
-260 261 236 262 0
260 -262 0
260 -261 0
260 -238 -236 0
261 -315 -232 0
-261 315 0
-261 232 0
262 -216 -263 0
-262 216 0
-262 263 0
263 -240 -236 0
-263 240 0
-263 236 0
264 -218 -263 0
-264 218 0
-264 263 0
-265 221 267 0
-265 266 267 0
-265 160 267 0
265 -267 0
265 -160 -221 -266 0
266 -245 -241 0
-266 245 0
-266 241 0
-267 243 268 269 0
-267 268 241 269 0
267 -269 0
267 -268 0
267 -243 -241 0
268 -314 -231 0
-268 314 0
-268 231 0
269 -220 -266 0
-269 220 0
-269 266 0
-270 224 272 0
-270 271 272 0
-270 163 272 0
270 -272 0
270 -163 -224 -271 0
271 -250 -246 0
-271 250 0
-271 246 0
-272 248 273 274 0
-272 273 246 274 0
272 -274 0
272 -273 0
272 -248 -246 0
273 -313 -230 0
-273 313 0
-273 230 0
274 -223 -271 0
-274 223 0
-274 271 0
-275 227 277 0
-275 136 277 0
-275 276 277 0
275 -277 0
275 -136 -227 -276 0
276 -255 -251 0
-276 255 0
-276 251 0
-277 253 278 279 0
-277 278 251 279 0
277 -279 0
277 -278 0
277 -253 -251 0
278 -312 -229 0
-278 312 0
-278 229 0
279 -226 -276 0
-279 226 0
-279 276 0
-280 323 281 0
-280 -314 281 -290 0
-280 314 281 290 0
-280 -314 -323 -281 290 0
-280 314 -323 -281 -290 0
280 323 -281 0
280 314 -323 281 -290 0
280 314 -281 290 0
280 -314 -281 -290 0
280 -314 -323 281 290 0
-281 322 282 0
-281 315 -322 -282 -286 0
-281 315 282 286 0
-281 -315 282 -286 0
-281 -315 -322 -282 286 0
281 322 -282 0
281 -315 -282 -286 0
281 315 -282 286 0
281 -315 -322 282 286 0
281 315 -322 282 -286 0
282 -321 -283 0
282 -321 -284 0
-282 321 0
-282 283 284 0
283 -315 -259 0
-283 315 0
-283 259 0
284 -285 -265 0
-284 285 0
-284 265 0
285 315 -259 0
285 -315 259 0
-285 -315 -259 0
-285 315 259 0
-286 287 288 0
286 -287 0
286 -288 0
287 -314 -258 0
-287 314 0
-287 258 0
288 -289 -270 0
-288 289 0
-288 270 0
289 -314 258 0
289 314 -258 0
-289 314 258 0
-289 -314 -258 0
-290 291 292 0
290 -291 0
290 -292 0
291 -313 -257 0
-291 313 0
-291 257 0
292 -293 -275 0
-292 293 0
-292 275 0
293 -313 257 0
293 313 -257 0
-293 313 257 0
-293 -313 -257 0
-294 323 295 0
-294 315 -323 -295 -300 0
-294 315 295 300 0
-294 -315 295 -300 0
-294 -315 -323 -295 300 0
294 323 -295 0
294 -315 -295 -300 0
294 315 -295 300 0
294 -315 -323 295 300 0
294 315 -323 295 -300 0
295 -322 -296 0
295 -322 -270 -299 0
-295 322 0
-295 270 296 0
-295 296 299 0
-296 297 298 0
-296 287 297 0
296 -297 0
296 -287 -298 0
297 -315 -282 0
-297 315 0
-297 282 0
298 315 -282 0
298 -315 282 0
-298 -315 -282 0
-298 315 282 0
299 -289 -298 0
-299 289 0
-299 298 0
-300 293 302 0
-300 275 302 0
-300 301 302 0
300 -302 0
300 -293 -275 -301 0
301 -314 281 0
301 314 -281 0
-301 314 281 0
-301 -314 -281 0
-302 303 301 0
-302 291 303 0
302 -303 0
302 -291 -301 0
303 -314 -281 0
-303 314 0
-303 281 0
304 -323 -305 0
304 -323 -306 0
-304 323 0
-304 305 306 0
305 -315 -295 0
-305 315 0
-305 295 0
306 -307 -300 0
-306 307 0
-306 300 0
307 315 -295 0
307 -315 295 0
-307 -315 -295 0
-307 315 295 0
-324 0
2 0
10 0
18 0
28 0
40 0
57 0
78 0
105 0
135 0
168 0
205 0
228 0
256 0
280 0
294 0
304 0

