c Result of efficient AIG-to-CNF conversion using package CNF
p cnf 797 3209
-2 3 0
2 -3 0
-3 4 0
3 -4 0
-4 5 0
4 -5 0
-5 6 0
5 -6 0
-6 7 0
6 -7 0
-7 8 0
7 -8 0
-8 9 0
8 -9 0
-9 10 0
9 -10 0
-10 11 0
10 -11 0
-11 12 0
11 -12 0
-12 13 0
12 -13 0
13 -773 -785 0
-13 773 0
-13 785 0
-14 15 0
14 -15 0
-15 16 0
15 -16 0
-16 17 0
16 -17 0
-17 18 0
17 -18 0
-18 19 0
18 -19 0
-19 20 0
19 -20 0
-20 21 0
20 -21 0
-21 22 0
21 -22 0
-22 23 0
22 -23 0
-23 24 0
23 -24 0
-24 773 25 0
-24 786 25 0
-24 -773 -786 -25 0
24 773 -25 0
24 -773 -786 25 0
24 786 -25 0
25 -774 -785 0
-25 774 0
-25 785 0
-26 27 0
26 -27 0
-27 28 0
27 -28 0
-28 29 0
28 -29 0
-29 30 0
29 -30 0
-30 31 0
30 -31 0
-31 32 0
31 -32 0
-32 33 0
32 -33 0
-33 34 0
33 -34 0
-34 35 0
34 -35 0
-35 773 36 0
-35 -773 -787 -36 0
-35 787 36 0
35 773 -36 0
35 787 -36 0
35 -773 -787 36 0
-36 786 38 0
-36 -786 -37 -39 0
-36 -786 37 39 0
36 786 -38 0
36 -786 -37 39 0
36 -786 37 -39 0
37 -773 -774 -785 0
-37 773 0
-37 774 0
-37 785 0
38 -775 -785 0
-38 775 0
-38 785 0
39 774 -38 0
39 -774 38 0
-39 -774 -38 0
-39 774 38 0
-40 41 0
40 -41 0
-41 42 0
41 -42 0
-42 43 0
42 -43 0
-43 44 0
43 -44 0
-44 45 0
44 -45 0
-45 46 0
45 -46 0
-46 47 0
46 -47 0
-47 48 0
47 -48 0
-48 773 49 0
-48 -773 -788 -49 0
-48 788 49 0
48 773 -49 0
48 788 -49 0
48 -773 -788 49 0
-49 787 51 0
-49 -787 -50 -55 0
-49 -787 50 55 0
49 787 -51 0
49 -787 -50 55 0
49 -787 50 -55 0
50 -773 -36 0
-50 773 0
-50 36 0
-51 786 52 0
-51 -786 53 54 0
-51 -786 -53 -54 0
51 786 -52 0
51 -786 53 -54 0
51 -786 -53 54 0
52 -776 -785 0
-52 776 0
-52 785 0
53 775 -52 0
53 -775 52 0
-53 -775 -52 0
-53 775 52 0
-54 785 0
-54 774 0
-54 773 775 0
54 -773 -774 -785 0
54 -774 -775 -785 0
55 -774 51 0
55 774 -51 0
-55 774 51 0
-55 -774 -51 0
-56 57 0
56 -57 0
-57 58 0
57 -58 0
-58 59 0
58 -59 0
-59 60 0
59 -60 0
-60 61 0
60 -61 0
-61 62 0
61 -62 0
-62 63 0
62 -63 0
-63 773 64 0
-63 -773 -789 -64 0
-63 789 64 0
63 773 -64 0
63 789 -64 0
63 -773 -789 64 0
-64 788 66 0
-64 -788 -65 -76 0
-64 -788 65 76 0
64 788 -66 0
64 -788 -65 76 0
64 -788 65 -76 0
65 -773 -49 0
-65 773 0
-65 49 0
-66 787 67 0
-66 -787 72 73 0
-66 -787 -72 -73 0
66 787 -67 0
66 -787 72 -73 0
66 -787 -72 73 0
-67 786 68 0
-67 -786 69 70 0
-67 -786 -69 -70 0
67 786 -68 0
67 -786 69 -70 0
67 -786 -69 70 0
68 -777 -785 0
-68 777 0
-68 785 0
69 776 -68 0
69 -776 68 0
-69 -776 -68 0
-69 776 68 0
-70 39 71 0
-70 37 71 0
-70 53 71 0
70 -71 0
70 -37 -39 -53 0
-71 785 0
-71 775 0
-71 774 776 0
71 -774 -775 -785 0
71 -775 -776 -785 0
72 -775 67 0
72 775 -67 0
-72 775 67 0
-72 -775 -67 0
-73 74 75 0
73 -74 0
73 -75 0
74 -774 -51 0
-74 774 0
-74 51 0
75 -50 -55 0
-75 50 0
-75 55 0
76 -774 66 0
76 774 -66 0
-76 774 66 0
-76 -774 -66 0
-77 78 0
77 -78 0
-78 79 0
78 -79 0
-79 80 0
79 -80 0
-80 81 0
80 -81 0
-81 82 0
81 -82 0
-82 83 0
82 -83 0
-83 773 84 0
-83 -773 -790 -84 0
-83 790 84 0
83 773 -84 0
83 790 -84 0
83 -773 -790 84 0
-84 789 86 0
-84 774 85 86 0
-84 -774 -85 86 0
-84 774 -789 -85 -86 0
-84 -774 -789 85 -86 0
84 789 -86 0
84 -774 -85 -86 0
84 774 85 -86 0
84 774 -789 -85 86 0
84 -774 -789 85 86 0
85 -773 -64 0
-85 773 0
-85 64 0
-86 788 87 0
-86 -788 98 99 0
-86 -788 -98 -99 0
86 788 -87 0
86 -788 98 -99 0
86 -788 -98 99 0
-87 787 88 0
-87 -787 94 95 0
-87 -787 -94 -95 0
87 787 -88 0
87 -787 94 -95 0
87 -787 -94 95 0
-88 786 89 0
-88 -786 90 91 0
-88 -786 -90 -91 0
88 786 -89 0
88 -786 90 -91 0
88 -786 -90 91 0
89 -778 -785 0
-89 778 0
-89 785 0
90 777 -89 0
90 -777 89 0
-90 -777 -89 0
-90 777 89 0
-91 92 93 0
91 -92 0
91 -93 0
92 -776 -777 -785 0
-92 776 0
-92 777 0
-92 785 0
93 -69 -70 0
-93 69 0
-93 70 0
94 -776 88 0
94 776 -88 0
-94 776 88 0
-94 -776 -88 0
-95 96 97 0
95 -96 0
95 -97 0
96 -775 -67 0
-96 775 0
-96 67 0
97 -72 -73 0
-97 72 0
-97 73 0
98 -775 87 0
98 775 -87 0
-98 775 87 0
-98 -775 -87 0
-99 100 101 0
99 -100 0
99 -101 0
100 -774 -66 0
-100 774 0
-100 66 0
101 -65 -76 0
-101 65 0
-101 76 0
-102 103 0
102 -103 0
-103 104 0
103 -104 0
-104 105 0
104 -105 0
-105 106 0
105 -106 0
-106 107 0
106 -107 0
-107 773 108 0
-107 -773 -791 -108 0
-107 791 108 0
107 773 -108 0
107 791 -108 0
107 -773 -791 108 0
-108 790 110 0
-108 -790 -109 -132 0
-108 -790 109 132 0
108 790 -110 0
108 -790 -109 132 0
108 -790 109 -132 0
109 -773 -84 0
-109 773 0
-109 84 0
-110 789 111 0
-110 -775 111 -128 0
-110 775 111 128 0
-110 -775 -789 -111 128 0
-110 775 -789 -111 -128 0
110 789 -111 0
110 775 -789 111 -128 0
110 775 -111 128 0
110 -775 -111 -128 0
110 -775 -789 111 128 0
-111 788 112 0
-111 -788 123 124 0
-111 -788 -123 -124 0
111 788 -112 0
111 -788 123 -124 0
111 -788 -123 124 0
-112 787 113 0
-112 -787 119 120 0
-112 -787 -119 -120 0
112 787 -113 0
112 -787 119 -120 0
112 -787 -119 120 0
-113 786 114 0
-113 -786 115 116 0
-113 -786 -115 -116 0
113 786 -114 0
113 -786 115 -116 0
113 -786 -115 116 0
114 -779 -785 0
-114 779 0
-114 785 0
115 778 -114 0
115 -778 114 0
-115 -778 -114 0
-115 778 114 0
-116 70 117 0
-116 117 118 0
116 -117 0
116 -70 -118 0
-117 785 0
-117 777 0
-117 776 778 0
117 -776 -777 -785 0
117 -777 -778 -785 0
118 -69 -90 0
-118 69 0
-118 90 0
119 -777 113 0
119 777 -113 0
-119 777 113 0
-119 -777 -113 0
-120 73 121 0
-120 121 122 0
120 -121 0
120 -73 -122 0
-121 96 88 0
-121 776 96 0
-121 776 88 0
121 -776 -96 0
121 -96 -88 0
121 -776 -88 0
122 -72 -94 0
-122 72 0
-122 94 0
123 -776 112 0
123 776 -112 0
-123 776 112 0
-123 -776 -112 0
-124 65 125 0
-124 125 127 0
124 -125 0
124 -65 -127 0
-125 126 98 0
-125 100 126 0
125 -126 0
125 -100 -98 0
126 -775 -87 0
-126 775 0
-126 87 0
127 -76 -98 0
-127 76 0
-127 98 0
-128 129 130 0
128 -129 0
128 -130 0
129 -774 -86 0
-129 774 0
-129 86 0
130 -85 -131 0
-130 85 0
-130 131 0
131 -774 86 0
131 774 -86 0
-131 774 86 0
-131 -774 -86 0
132 -774 110 0
132 774 -110 0
-132 774 110 0
-132 -774 -110 0
-133 134 0
133 -134 0
-134 135 0
134 -135 0
-135 136 0
135 -136 0
-136 137 0
136 -137 0
-137 773 138 0
-137 -773 -792 -138 0
-137 792 138 0
137 773 -138 0
137 792 -138 0
137 -773 -792 138 0
-138 791 140 0
-138 774 139 140 0
-138 -774 -139 140 0
-138 774 -791 -139 -140 0
-138 -774 -791 139 -140 0
138 791 -140 0
138 -774 -139 -140 0
138 774 139 -140 0
138 774 -791 -139 140 0
138 -774 -791 139 140 0
139 -773 -108 0
-139 773 0
-139 108 0
-140 790 141 0
-140 -790 163 164 0
-140 -790 -163 -164 0
140 790 -141 0
140 -790 163 -164 0
140 -790 -163 164 0
-141 789 142 0
-141 -789 158 159 0
-141 -789 -158 -159 0
141 789 -142 0
141 -789 158 -159 0
141 -789 -158 159 0
-142 788 143 0
-142 -788 154 155 0
-142 -788 -154 -155 0
142 788 -143 0
142 -788 154 -155 0
142 -788 -154 155 0
-143 787 144 0
-143 -787 150 151 0
-143 -787 -150 -151 0
143 787 -144 0
143 -787 150 -151 0
143 -787 -150 151 0
-144 786 145 0
-144 -786 146 147 0
-144 -786 -146 -147 0
144 786 -145 0
144 -786 146 -147 0
144 -786 -146 147 0
145 -780 -785 0
-145 780 0
-145 785 0
146 779 -145 0
146 -779 145 0
-146 -779 -145 0
-146 779 145 0
-147 148 149 0
147 -148 0
147 -149 0
148 -778 -779 -785 0
-148 778 0
-148 779 0
-148 785 0
149 -115 -116 0
-149 115 0
-149 116 0
150 -778 144 0
150 778 -144 0
-150 778 144 0
-150 -778 -144 0
-151 152 153 0
151 -152 0
151 -153 0
152 -777 -113 0
-152 777 0
-152 113 0
153 -119 -120 0
-153 119 0
-153 120 0
154 -777 143 0
154 777 -143 0
-154 777 143 0
-154 -777 -143 0
-155 156 157 0
155 -156 0
155 -157 0
156 -776 -112 0
-156 776 0
-156 112 0
157 -123 -124 0
-157 123 0
-157 124 0
158 -776 142 0
158 776 -142 0
-158 776 142 0
-158 -776 -142 0
-159 160 161 0
159 -160 0
159 -161 0
160 -775 -111 0
-160 775 0
-160 111 0
161 -162 -128 0
-161 162 0
-161 128 0
162 -775 111 0
162 775 -111 0
-162 775 111 0
-162 -775 -111 0
163 -775 141 0
163 775 -141 0
-163 775 141 0
-163 -775 -141 0
-164 165 166 0
164 -165 0
164 -166 0
165 -774 -110 0
-165 774 0
-165 110 0
166 -109 -132 0
-166 109 0
-166 132 0
-167 168 0
167 -168 0
-168 169 0
168 -169 0
-169 170 0
169 -170 0
-170 773 171 0
-170 -773 -793 -171 0
-170 793 171 0
170 773 -171 0
170 793 -171 0
170 -773 -793 171 0
-171 792 173 0
-171 -792 -172 -206 0
-171 -792 172 206 0
171 792 -173 0
171 -792 -172 206 0
171 -792 172 -206 0
172 -773 -138 0
-172 773 0
-172 138 0
-173 791 174 0
-173 -775 174 -202 0
-173 775 174 202 0
-173 -775 -791 -174 202 0
-173 775 -791 -174 -202 0
173 791 -174 0
173 775 -791 174 -202 0
173 775 -174 202 0
173 -775 -174 -202 0
173 -775 -791 174 202 0
-174 790 175 0
-174 -776 175 -199 0
-174 776 175 199 0
-174 -776 -790 -175 199 0
-174 776 -790 -175 -199 0
174 790 -175 0
174 776 -790 175 -199 0
174 776 -175 199 0
174 -776 -175 -199 0
174 -776 -790 175 199 0
-175 789 176 0
-175 -777 176 -196 0
-175 777 176 196 0
-175 -777 -789 -176 196 0
-175 777 -789 -176 -196 0
175 789 -176 0
175 777 -789 176 -196 0
175 777 -176 196 0
175 -777 -176 -196 0
175 -777 -789 176 196 0
-176 788 177 0
-176 -778 177 -191 0
-176 778 177 191 0
-176 -778 -788 -177 191 0
-176 778 -788 -177 -191 0
176 788 -177 0
176 778 -788 177 -191 0
176 778 -177 191 0
176 -778 -177 -191 0
176 -778 -788 177 191 0
-177 787 178 0
-177 -787 185 186 0
-177 -787 -185 -186 0
177 787 -178 0
177 -787 185 -186 0
177 -787 -185 186 0
-178 786 179 0
-178 -786 180 181 0
-178 -786 -180 -181 0
178 786 -179 0
178 -786 180 -181 0
178 -786 -180 181 0
179 -781 -785 0
-179 781 0
-179 785 0
180 780 -179 0
180 -780 179 0
-180 -780 -179 0
-180 780 179 0
-181 118 183 0
-181 182 183 0
-181 70 183 0
181 -183 0
181 -70 -118 -182 0
182 -115 -146 0
-182 115 0
-182 146 0
-183 117 184 0
-183 184 182 0
183 -184 0
183 -117 -182 0
-184 785 0
-184 779 0
-184 778 780 0
184 -778 -779 -785 0
184 -779 -780 -785 0
185 -779 178 0
185 779 -178 0
-185 779 178 0
-185 -779 -178 0
-186 122 188 0
-186 187 188 0
-186 73 188 0
186 -188 0
186 -73 -122 -187 0
187 -119 -150 0
-187 119 0
-187 150 0
-188 152 189 190 0
-188 189 150 190 0
188 -190 0
188 -189 0
188 -152 -150 0
189 -778 -144 0
-189 778 0
-189 144 0
190 -121 -187 0
-190 121 0
-190 187 0
-191 127 193 0
-191 65 193 0
-191 192 193 0
191 -193 0
191 -65 -127 -192 0
192 -123 -154 0
-192 123 0
-192 154 0
-193 125 194 195 0
-193 194 195 192 0
193 -195 0
193 -194 0
193 -125 -192 0
194 -777 -143 0
-194 777 0
-194 143 0
195 -156 -154 0
-195 156 0
-195 154 0
-196 162 197 0
-196 128 197 0
-196 158 197 0
196 -197 0
196 -162 -128 -158 0
-197 198 158 0
-197 160 198 0
197 -198 0
197 -160 -158 0
198 -776 -142 0
-198 776 0
-198 142 0
-199 132 200 0
-199 109 200 0
-199 163 200 0
199 -200 0
199 -109 -132 -163 0
-200 201 163 0
-200 165 201 0
200 -201 0
200 -165 -163 0
201 -775 -141 0
-201 775 0
-201 141 0
-202 203 204 0
202 -203 0
202 -204 0
203 -774 -140 0
-203 774 0
-203 140 0
204 -139 -205 0
-204 139 0
-204 205 0
205 -774 140 0
205 774 -140 0
-205 774 140 0
-205 -774 -140 0
206 -774 173 0
206 774 -173 0
-206 774 173 0
-206 -774 -173 0
-207 208 0
207 -208 0
-208 209 0
208 -209 0
-209 773 210 0
-209 -773 -794 -210 0
-209 794 210 0
209 773 -210 0
209 794 -210 0
209 -773 -794 210 0
-210 793 212 0
-210 774 211 212 0
-210 -774 -211 212 0
-210 774 -793 -211 -212 0
-210 -774 -793 211 -212 0
210 793 -212 0
210 -774 -211 -212 0
210 774 211 -212 0
210 774 -793 -211 212 0
210 -774 -793 211 212 0
211 -773 -171 0
-211 773 0
-211 171 0
-212 792 213 0
-212 -792 248 249 0
-212 -792 -248 -249 0
212 792 -213 0
212 -792 248 -249 0
212 -792 -248 249 0
-213 791 214 0
-213 -791 243 244 0
-213 -791 -243 -244 0
213 791 -214 0
213 -791 243 -244 0
213 -791 -243 244 0
-214 790 215 0
-214 -790 238 239 0
-214 -790 -238 -239 0
214 790 -215 0
214 -790 238 -239 0
214 -790 -238 239 0
-215 789 216 0
-215 -789 233 234 0
-215 -789 -233 -234 0
215 789 -216 0
215 -789 233 -234 0
215 -789 -233 234 0
-216 788 217 0
-216 -788 228 229 0
-216 -788 -228 -229 0
216 788 -217 0
216 -788 228 -229 0
216 -788 -228 229 0
-217 787 218 0
-217 -787 224 225 0
-217 -787 -224 -225 0
217 787 -218 0
217 -787 224 -225 0
217 -787 -224 225 0
-218 786 219 0
-218 -786 220 221 0
-218 -786 -220 -221 0
218 786 -219 0
218 -786 220 -221 0
218 -786 -220 221 0
219 -782 -785 0
-219 782 0
-219 785 0
220 781 -219 0
220 -781 219 0
-220 -781 -219 0
-220 781 219 0
-221 222 223 0
221 -222 0
221 -223 0
222 -780 -781 -785 0
-222 780 0
-222 781 0
-222 785 0
223 -180 -181 0
-223 180 0
-223 181 0
224 -780 218 0
224 780 -218 0
-224 780 218 0
-224 -780 -218 0
-225 226 227 0
225 -226 0
225 -227 0
226 -779 -178 0
-226 779 0
-226 178 0
227 -185 -186 0
-227 185 0
-227 186 0
228 -779 217 0
228 779 -217 0
-228 779 217 0
-228 -779 -217 0
-229 230 231 0
229 -230 0
229 -231 0
230 -778 -177 0
-230 778 0
-230 177 0
231 -232 -191 0
-231 232 0
-231 191 0
232 -778 177 0
232 778 -177 0
-232 778 177 0
-232 -778 -177 0
233 -778 216 0
233 778 -216 0
-233 778 216 0
-233 -778 -216 0
-234 235 236 0
234 -235 0
234 -236 0
235 -777 -176 0
-235 777 0
-235 176 0
236 -237 -196 0
-236 237 0
-236 196 0
237 -777 176 0
237 777 -176 0
-237 777 176 0
-237 -777 -176 0
238 -777 215 0
238 777 -215 0
-238 777 215 0
-238 -777 -215 0
-239 240 241 0
239 -240 0
239 -241 0
240 -776 -175 0
-240 776 0
-240 175 0
241 -242 -199 0
-241 242 0
-241 199 0
242 -776 175 0
242 776 -175 0
-242 776 175 0
-242 -776 -175 0
243 -776 214 0
243 776 -214 0
-243 776 214 0
-243 -776 -214 0
-244 245 246 0
244 -245 0
244 -246 0
245 -775 -174 0
-245 775 0
-245 174 0
246 -247 -202 0
-246 247 0
-246 202 0
247 -775 174 0
247 775 -174 0
-247 775 174 0
-247 -775 -174 0
248 -775 213 0
248 775 -213 0
-248 775 213 0
-248 -775 -213 0
-249 250 251 0
249 -250 0
249 -251 0
250 -774 -173 0
-250 774 0
-250 173 0
251 -172 -206 0
-251 172 0
-251 206 0
-252 253 0
252 -253 0
-253 773 254 0
-253 -773 -795 -254 0
-253 795 254 0
253 773 -254 0
253 795 -254 0
253 -773 -795 254 0
-254 794 256 0
-254 774 255 256 0
-254 -774 -255 256 0
-254 774 -794 -255 -256 0
-254 -774 -794 255 -256 0
254 794 -256 0
254 -774 -255 -256 0
254 774 255 -256 0
254 774 -794 -255 256 0
254 -774 -794 255 256 0
255 -773 -210 0
-255 773 0
-255 210 0
-256 793 257 0
-256 -775 257 -293 0
-256 775 257 293 0
-256 -775 -793 -257 293 0
-256 775 -793 -257 -293 0
256 793 -257 0
256 775 -793 257 -293 0
256 775 -257 293 0
256 -775 -257 -293 0
256 -775 -793 257 293 0
-257 792 258 0
-257 -776 258 -289 0
-257 776 258 289 0
-257 -776 -792 -258 289 0
-257 776 -792 -258 -289 0
257 792 -258 0
257 776 -792 258 -289 0
257 776 -258 289 0
257 -776 -258 -289 0
257 -776 -792 258 289 0
-258 791 259 0
-258 -777 259 -285 0
-258 777 259 285 0
-258 -777 -791 -259 285 0
-258 777 -791 -259 -285 0
258 791 -259 0
258 777 -791 259 -285 0
258 777 -259 285 0
258 -777 -259 -285 0
258 -777 -791 259 285 0
-259 790 260 0
-259 -778 260 -281 0
-259 778 260 281 0
-259 -778 -790 -260 281 0
-259 778 -790 -260 -281 0
259 790 -260 0
259 778 -790 260 -281 0
259 778 -260 281 0
259 -778 -260 -281 0
259 -778 -790 260 281 0
-260 789 261 0
-260 -779 261 -277 0
-260 779 261 277 0
-260 -779 -789 -261 277 0
-260 779 -789 -261 -277 0
260 789 -261 0
260 779 -789 261 -277 0
260 779 -261 277 0
260 -779 -261 -277 0
260 -779 -789 261 277 0
-261 788 262 0
-261 -780 262 -273 0
-261 780 262 273 0
-261 -780 -788 -262 273 0
-261 780 -788 -262 -273 0
261 788 -262 0
261 780 -788 262 -273 0
261 780 -262 273 0
261 -780 -262 -273 0
261 -780 -788 262 273 0
-262 787 263 0
-262 -787 269 270 0
-262 -787 -269 -270 0
262 787 -263 0
262 -787 269 -270 0
262 -787 -269 270 0
-263 786 264 0
-263 -786 265 266 0
-263 -786 -265 -266 0
263 786 -264 0
263 -786 265 -266 0
263 -786 -265 266 0
264 -783 -785 0
-264 783 0
-264 785 0
265 782 -264 0
265 -782 264 0
-265 -782 -264 0
-265 782 264 0
-266 181 267 0
-266 267 268 0
266 -267 0
266 -181 -268 0
-267 785 0
-267 781 0
-267 780 782 0
267 -780 -781 -785 0
267 -781 -782 -785 0
268 -180 -220 0
-268 180 0
-268 220 0
269 -781 263 0
269 781 -263 0
-269 781 263 0
-269 -781 -263 0
-270 186 271 0
-270 271 272 0
270 -271 0
270 -186 -272 0
-271 226 218 0
-271 780 226 0
-271 780 218 0
271 -780 -226 0
271 -226 -218 0
271 -780 -218 0
272 -185 -224 0
-272 185 0
-272 224 0
-273 191 274 0
-273 274 276 0
273 -274 0
273 -191 -276 0
-274 275 228 0
-274 230 275 0
274 -275 0
274 -230 -228 0
275 -779 -217 0
-275 779 0
-275 217 0
276 -232 -228 0
-276 232 0
-276 228 0
-277 196 278 0
-277 278 280 0
277 -278 0
277 -196 -280 0
-278 279 233 0
-278 235 279 0
278 -279 0
278 -235 -233 0
279 -778 -216 0
-279 778 0
-279 216 0
280 -237 -233 0
-280 237 0
-280 233 0
-281 199 282 0
-281 282 284 0
281 -282 0
281 -199 -284 0
-282 283 238 0
-282 240 283 0
282 -283 0
282 -240 -238 0
283 -777 -215 0
-283 777 0
-283 215 0
284 -242 -238 0
-284 242 0
-284 238 0
-285 202 286 0
-285 286 288 0
285 -286 0
285 -202 -288 0
-286 287 243 0
-286 245 287 0
286 -287 0
286 -245 -243 0
287 -776 -214 0
-287 776 0
-287 214 0
288 -247 -243 0
-288 247 0
-288 243 0
-289 172 290 0
-289 290 292 0
289 -290 0
289 -172 -292 0
-290 291 248 0
-290 250 291 0
290 -291 0
290 -250 -248 0
291 -775 -213 0
-291 775 0
-291 213 0
292 -206 -248 0
-292 206 0
-292 248 0
-293 294 295 0
293 -294 0
293 -295 0
294 -774 -212 0
-294 774 0
-294 212 0
295 -211 -296 0
-295 211 0
-295 296 0
296 -774 212 0
296 774 -212 0
-296 774 212 0
-296 -774 -212 0
-297 773 298 0
-297 -773 -796 -298 0
-297 796 298 0
297 773 -298 0
297 796 -298 0
297 -773 -796 298 0
-298 795 300 0
-298 774 299 300 0
-298 -774 -299 300 0
-298 774 -795 -299 -300 0
-298 -774 -795 299 -300 0
298 795 -300 0
298 -774 -299 -300 0
298 774 299 -300 0
298 774 -795 -299 300 0
298 -774 -795 299 300 0
299 -773 -254 0
-299 773 0
-299 254 0
-300 794 301 0
-300 -794 348 349 0
-300 -794 -348 -349 0
300 794 -301 0
300 -794 348 -349 0
300 -794 -348 349 0
-301 793 302 0
-301 -793 343 344 0
-301 -793 -343 -344 0
301 793 -302 0
301 -793 343 -344 0
301 -793 -343 344 0
-302 792 303 0
-302 -792 338 339 0
-302 -792 -338 -339 0
302 792 -303 0
302 -792 338 -339 0
302 -792 -338 339 0
-303 791 304 0
-303 -791 333 334 0
-303 -791 -333 -334 0
303 791 -304 0
303 -791 333 -334 0
303 -791 -333 334 0
-304 790 305 0
-304 -790 328 329 0
-304 -790 -328 -329 0
304 790 -305 0
304 -790 328 -329 0
304 -790 -328 329 0
-305 789 306 0
-305 -789 323 324 0
-305 -789 -323 -324 0
305 789 -306 0
305 -789 323 -324 0
305 -789 -323 324 0
-306 788 307 0
-306 -788 318 319 0
-306 -788 -318 -319 0
306 788 -307 0
306 -788 318 -319 0
306 -788 -318 319 0
-307 787 308 0
-307 -787 314 315 0
-307 -787 -314 -315 0
307 787 -308 0
307 -787 314 -315 0
307 -787 -314 315 0
-308 786 309 0
-308 -786 310 311 0
-308 -786 -310 -311 0
308 786 -309 0
308 -786 310 -311 0
308 -786 -310 311 0
309 -784 -785 0
-309 784 0
-309 785 0
310 783 -309 0
310 -783 309 0
-310 -783 -309 0
-310 783 309 0
-311 312 313 0
311 -312 0
311 -313 0
312 -782 -783 -785 0
-312 782 0
-312 783 0
-312 785 0
313 -265 -266 0
-313 265 0
-313 266 0
314 -782 308 0
314 782 -308 0
-314 782 308 0
-314 -782 -308 0
-315 316 317 0
315 -316 0
315 -317 0
316 -781 -263 0
-316 781 0
-316 263 0
317 -269 -270 0
-317 269 0
-317 270 0
318 -781 307 0
318 781 -307 0
-318 781 307 0
-318 -781 -307 0
-319 320 321 0
319 -320 0
319 -321 0
320 -780 -262 0
-320 780 0
-320 262 0
321 -322 -273 0
-321 322 0
-321 273 0
322 -780 262 0
322 780 -262 0
-322 780 262 0
-322 -780 -262 0
323 -780 306 0
323 780 -306 0
-323 780 306 0
-323 -780 -306 0
-324 325 326 0
324 -325 0
324 -326 0
325 -779 -261 0
-325 779 0
-325 261 0
326 -327 -277 0
-326 327 0
-326 277 0
327 -779 261 0
327 779 -261 0
-327 779 261 0
-327 -779 -261 0
328 -779 305 0
328 779 -305 0
-328 779 305 0
-328 -779 -305 0
-329 330 331 0
329 -330 0
329 -331 0
330 -778 -260 0
-330 778 0
-330 260 0
331 -332 -281 0
-331 332 0
-331 281 0
332 -778 260 0
332 778 -260 0
-332 778 260 0
-332 -778 -260 0
333 -778 304 0
333 778 -304 0
-333 778 304 0
-333 -778 -304 0
-334 335 336 0
334 -335 0
334 -336 0
335 -777 -259 0
-335 777 0
-335 259 0
336 -337 -285 0
-336 337 0
-336 285 0
337 -777 259 0
337 777 -259 0
-337 777 259 0
-337 -777 -259 0
338 -777 303 0
338 777 -303 0
-338 777 303 0
-338 -777 -303 0
-339 340 341 0
339 -340 0
339 -341 0
340 -776 -258 0
-340 776 0
-340 258 0
341 -342 -289 0
-341 342 0
-341 289 0
342 -776 258 0
342 776 -258 0
-342 776 258 0
-342 -776 -258 0
343 -776 302 0
343 776 -302 0
-343 776 302 0
-343 -776 -302 0
-344 345 346 0
344 -345 0
344 -346 0
345 -775 -257 0
-345 775 0
-345 257 0
346 -347 -293 0
-346 347 0
-346 293 0
347 -775 257 0
347 775 -257 0
-347 775 257 0
-347 -775 -257 0
348 -775 301 0
348 775 -301 0
-348 775 301 0
-348 -775 -301 0
-349 350 351 0
349 -350 0
349 -351 0
350 -774 -256 0
-350 774 0
-350 256 0
351 -255 -352 0
-351 255 0
-351 352 0
352 -774 256 0
352 774 -256 0
-352 774 256 0
-352 -774 -256 0
-353 796 355 0
-353 -796 -354 -412 0
-353 -796 354 412 0
353 796 -355 0
353 -796 -354 412 0
353 -796 354 -412 0
354 -773 -298 0
-354 773 0
-354 298 0
-355 795 356 0
-355 -775 356 -408 0
-355 775 356 408 0
-355 -775 -795 -356 408 0
-355 775 -795 -356 -408 0
355 795 -356 0
355 775 -795 356 -408 0
355 775 -356 408 0
355 -775 -356 -408 0
355 -775 -795 356 408 0
-356 794 357 0
-356 -776 357 -406 0
-356 776 357 406 0
-356 -776 -794 -357 406 0
-356 776 -794 -357 -406 0
356 794 -357 0
356 776 -794 357 -406 0
356 776 -357 406 0
356 -776 -357 -406 0
356 -776 -794 357 406 0
-357 793 358 0
-357 -777 358 -404 0
-357 777 358 404 0
-357 -777 -793 -358 404 0
-357 777 -793 -358 -404 0
357 793 -358 0
357 777 -793 358 -404 0
357 777 -358 404 0
357 -777 -358 -404 0
357 -777 -793 358 404 0
-358 792 359 0
-358 -778 359 -398 0
-358 778 359 398 0
-358 -778 -792 -359 398 0
-358 778 -792 -359 -398 0
358 792 -359 0
358 778 -792 359 -398 0
358 778 -359 398 0
358 -778 -359 -398 0
358 -778 -792 359 398 0
-359 791 360 0
-359 -779 360 -392 0
-359 779 360 392 0
-359 -779 -791 -360 392 0
-359 779 -791 -360 -392 0
359 791 -360 0
359 779 -791 360 -392 0
359 779 -360 392 0
359 -779 -360 -392 0
359 -779 -791 360 392 0
-360 790 361 0
-360 -780 361 -386 0
-360 780 361 386 0
-360 -780 -790 -361 386 0
-360 780 -790 -361 -386 0
360 790 -361 0
360 780 -790 361 -386 0
360 780 -361 386 0
360 -780 -361 -386 0
360 -780 -790 361 386 0
-361 789 362 0
-361 -781 362 -380 0
-361 781 362 380 0
-361 -781 -789 -362 380 0
-361 781 -789 -362 -380 0
361 789 -362 0
361 781 -789 362 -380 0
361 781 -362 380 0
361 -781 -362 -380 0
361 -781 -789 362 380 0
-362 788 363 0
-362 -782 363 -375 0
-362 782 363 375 0
-362 -782 -788 -363 375 0
-362 782 -788 -363 -375 0
362 788 -363 0
362 782 -788 363 -375 0
362 782 -363 375 0
362 -782 -363 -375 0
362 -782 -788 363 375 0
-363 787 364 0
-363 -787 369 370 0
-363 -787 -369 -370 0
363 787 -364 0
363 -787 369 -370 0
363 -787 -369 370 0
364 784 -786 -365 0
364 -784 -786 365 0
-364 786 0
-364 -784 -365 0
-364 784 365 0
-365 268 367 0
-365 366 367 0
-365 181 367 0
365 -367 0
365 -181 -268 -366 0
366 -265 -310 0
-366 265 0
-366 310 0
-367 267 368 0
-367 368 366 0
367 -368 0
367 -267 -366 0
-368 785 0
-368 783 0
-368 782 784 0
368 -782 -783 -785 0
368 -783 -784 -785 0
369 783 -364 0
369 -783 364 0
-369 -783 -364 0
-369 783 364 0
-370 272 372 0
-370 371 372 0
-370 186 372 0
370 -372 0
370 -186 -272 -371 0
371 -269 -314 0
-371 269 0
-371 314 0
-372 271 373 374 0
-372 373 374 371 0
372 -374 0
372 -373 0
372 -271 -371 0
373 -782 -308 0
-373 782 0
-373 308 0
374 -316 -314 0
-374 316 0
-374 314 0
-375 276 377 0
-375 376 377 0
-375 191 377 0
375 -377 0
375 -191 -276 -376 0
376 -322 -318 0
-376 322 0
-376 318 0
-377 320 378 379 0
-377 378 318 379 0
377 -379 0
377 -378 0
377 -320 -318 0
378 -781 -307 0
-378 781 0
-378 307 0
379 -274 -376 0
-379 274 0
-379 376 0
-380 196 381 0
-380 381 385 0
380 -381 0
380 -196 -385 0
-381 278 382 383 0
-381 382 383 384 0
381 -383 0
381 -382 0
381 -278 -384 0
382 -780 -306 0
-382 780 0
-382 306 0
383 -325 -323 0
-383 325 0
-383 323 0
384 -327 -323 0
-384 327 0
-384 323 0
385 -280 -384 0
-385 280 0
-385 384 0
-386 199 387 0
-386 387 391 0
386 -387 0
386 -199 -391 0
-387 282 388 389 0
-387 388 389 390 0
387 -389 0
387 -388 0
387 -282 -390 0
388 -779 -305 0
-388 779 0
-388 305 0
389 -330 -328 0
-389 330 0
-389 328 0
390 -332 -328 0
-390 332 0
-390 328 0
391 -284 -390 0
-391 284 0
-391 390 0
-392 202 393 0
-392 393 397 0
392 -393 0
392 -202 -397 0
-393 286 394 395 0
-393 394 395 396 0
393 -395 0
393 -394 0
393 -286 -396 0
394 -778 -304 0
-394 778 0
-394 304 0
395 -335 -333 0
-395 335 0
-395 333 0
396 -337 -333 0
-396 337 0
-396 333 0
397 -288 -396 0
-397 288 0
-397 396 0
-398 172 399 0
-398 399 403 0
398 -399 0
398 -172 -403 0
-399 340 400 401 0
-399 400 338 401 0
399 -401 0
399 -400 0
399 -340 -338 0
400 -777 -303 0
-400 777 0
-400 303 0
401 -290 -402 0
-401 290 0
-401 402 0
402 -342 -338 0
-402 342 0
-402 338 0
403 -292 -402 0
-403 292 0
-403 402 0
-404 776 345 405 0
-404 345 302 405 0
-404 776 302 405 0
404 -776 -345 0
404 -345 -302 0
404 -405 0
404 -776 -302 0
405 -347 -293 -343 0
-405 347 0
-405 293 0
-405 343 0
-406 775 350 407 0
-406 350 301 407 0
-406 775 301 407 0
406 -775 -350 0
406 -350 -301 0
406 -407 0
406 -775 -301 0
407 -255 -352 -348 0
-407 255 0
-407 352 0
-407 348 0
-408 409 410 0
408 -409 0
408 -410 0
409 -774 -300 0
-409 774 0
-409 300 0
410 -299 -411 0
-410 299 0
-410 411 0
411 -774 300 0
411 774 -300 0
-411 774 300 0
-411 -774 -300 0
412 -774 355 0
412 774 -355 0
-412 774 355 0
-412 -774 -355 0
-413 796 414 0
-413 -796 470 471 0
-413 -796 -470 -471 0
413 796 -414 0
413 -796 470 -471 0
413 -796 -470 471 0
-414 795 415 0
-414 -795 465 466 0
-414 -795 -465 -466 0
414 795 -415 0
414 -795 465 -466 0
414 -795 -465 466 0
-415 794 416 0
-415 -794 460 461 0
-415 -794 -460 -461 0
415 794 -416 0
415 -794 460 -461 0
415 -794 -460 461 0
-416 793 417 0
-416 -793 455 456 0
-416 -793 -455 -456 0
416 793 -417 0
416 -793 455 -456 0
416 -793 -455 456 0
-417 792 418 0
-417 -792 450 451 0
-417 -792 -450 -451 0
417 792 -418 0
417 -792 450 -451 0
417 -792 -450 451 0
-418 791 419 0
-418 -791 445 446 0
-418 -791 -445 -446 0
418 791 -419 0
418 -791 445 -446 0
418 -791 -445 446 0
-419 790 420 0
-419 -790 440 441 0
-419 -790 -440 -441 0
419 790 -420 0
419 -790 440 -441 0
419 -790 -440 441 0
-420 789 421 0
-420 -789 435 436 0
-420 -789 -435 -436 0
420 789 -421 0
420 -789 435 -436 0
420 -789 -435 436 0
-421 788 422 0
-421 -788 430 431 0
-421 -788 -430 -431 0
421 788 -422 0
421 -788 430 -431 0
421 -788 -430 431 0
-422 787 423 0
-422 -787 425 427 0
-422 -787 -425 -427 0
422 787 -423 0
422 -787 425 -427 0
422 -787 -425 427 0
423 -786 -424 0
-423 786 0
-423 424 0
424 -784 -365 0
-424 784 0
-424 365 0
425 -784 426 0
-425 784 0
-425 -426 0
426 -784 -423 0
-426 784 0
-426 423 0
-427 428 429 0
427 -428 0
427 -429 0
428 -783 -364 0
-428 783 0
-428 364 0
429 -369 -370 0
-429 369 0
-429 370 0
430 -783 422 0
430 783 -422 0
-430 783 422 0
-430 -783 -422 0
-431 432 433 0
431 -432 0
431 -433 0
432 -782 -363 0
-432 782 0
-432 363 0
433 -434 -375 0
-433 434 0
-433 375 0
434 -782 363 0
434 782 -363 0
-434 782 363 0
-434 -782 -363 0
435 -782 421 0
435 782 -421 0
-435 782 421 0
-435 -782 -421 0
-436 437 438 0
436 -437 0
436 -438 0
437 -781 -362 0
-437 781 0
-437 362 0
438 -439 -380 0
-438 439 0
-438 380 0
439 -781 362 0
439 781 -362 0
-439 781 362 0
-439 -781 -362 0
440 -781 420 0
440 781 -420 0
-440 781 420 0
-440 -781 -420 0
-441 442 443 0
441 -442 0
441 -443 0
442 -780 -361 0
-442 780 0
-442 361 0
443 -444 -386 0
-443 444 0
-443 386 0
444 -780 361 0
444 780 -361 0
-444 780 361 0
-444 -780 -361 0
445 -780 419 0
445 780 -419 0
-445 780 419 0
-445 -780 -419 0
-446 447 448 0
446 -447 0
446 -448 0
447 -779 -360 0
-447 779 0
-447 360 0
448 -449 -392 0
-448 449 0
-448 392 0
449 -779 360 0
449 779 -360 0
-449 779 360 0
-449 -779 -360 0
450 -779 418 0
450 779 -418 0
-450 779 418 0
-450 -779 -418 0
-451 452 453 0
451 -452 0
451 -453 0
452 -778 -359 0
-452 778 0
-452 359 0
453 -454 -398 0
-453 454 0
-453 398 0
454 -778 359 0
454 778 -359 0
-454 778 359 0
-454 -778 -359 0
455 -778 417 0
455 778 -417 0
-455 778 417 0
-455 -778 -417 0
-456 457 458 0
456 -457 0
456 -458 0
457 -777 -358 0
-457 777 0
-457 358 0
458 -459 -404 0
-458 459 0
-458 404 0
459 -777 358 0
459 777 -358 0
-459 777 358 0
-459 -777 -358 0
460 -777 416 0
460 777 -416 0
-460 777 416 0
-460 -777 -416 0
-461 462 463 0
461 -462 0
461 -463 0
462 -776 -357 0
-462 776 0
-462 357 0
463 -464 -406 0
-463 464 0
-463 406 0
464 -776 357 0
464 776 -357 0
-464 776 357 0
-464 -776 -357 0
465 -776 415 0
465 776 -415 0
-465 776 415 0
-465 -776 -415 0
-466 467 468 0
466 -467 0
466 -468 0
467 -775 -356 0
-467 775 0
-467 356 0
468 -469 -408 0
-468 469 0
-468 408 0
469 -775 356 0
469 775 -356 0
-469 775 356 0
-469 -775 -356 0
470 -775 414 0
470 775 -414 0
-470 775 414 0
-470 -775 -414 0
-471 472 473 0
471 -472 0
471 -473 0
472 -774 -355 0
-472 774 0
-472 355 0
473 -354 -412 0
-473 354 0
-473 412 0
-474 796 475 0
-474 -776 475 -513 0
-474 776 475 513 0
-474 -776 -796 -475 513 0
-474 776 -796 -475 -513 0
474 796 -475 0
474 776 -796 475 -513 0
474 776 -475 513 0
474 -776 -475 -513 0
474 -776 -796 475 513 0
-475 795 476 0
-475 -777 476 -510 0
-475 777 476 510 0
-475 -777 -795 -476 510 0
-475 777 -795 -476 -510 0
475 795 -476 0
475 777 -795 476 -510 0
475 777 -476 510 0
475 -777 -476 -510 0
475 -777 -795 476 510 0
-476 794 477 0
-476 -778 477 -506 0
-476 778 477 506 0
-476 -778 -794 -477 506 0
-476 778 -794 -477 -506 0
476 794 -477 0
476 778 -794 477 -506 0
476 778 -477 506 0
476 -778 -477 -506 0
476 -778 -794 477 506 0
-477 793 478 0
-477 -779 478 -503 0
-477 779 478 503 0
-477 -779 -793 -478 503 0
-477 779 -793 -478 -503 0
477 793 -478 0
477 779 -793 478 -503 0
477 779 -478 503 0
477 -779 -478 -503 0
477 -779 -793 478 503 0
-478 792 479 0
-478 -780 479 -499 0
-478 780 479 499 0
-478 -780 -792 -479 499 0
-478 780 -792 -479 -499 0
478 792 -479 0
478 780 -792 479 -499 0
478 780 -479 499 0
478 -780 -479 -499 0
478 -780 -792 479 499 0
-479 791 480 0
-479 -781 480 -495 0
-479 781 480 495 0
-479 -781 -791 -480 495 0
-479 781 -791 -480 -495 0
479 791 -480 0
479 781 -791 480 -495 0
479 781 -480 495 0
479 -781 -480 -495 0
479 -781 -791 480 495 0
-480 790 481 0
-480 -782 481 -492 0
-480 782 481 492 0
-480 -782 -790 -481 492 0
-480 782 -790 -481 -492 0
480 790 -481 0
480 782 -790 481 -492 0
480 782 -481 492 0
480 -782 -481 -492 0
480 -782 -790 481 492 0
-481 789 482 0
-481 -783 482 -489 0
-481 783 482 489 0
-481 -783 -789 -482 489 0
-481 783 -789 -482 -489 0
481 789 -482 0
481 783 -789 482 -489 0
481 783 -482 489 0
481 -783 -482 -489 0
481 -783 -789 482 489 0
-482 788 483 0
-482 784 -788 -483 -486 0
-482 784 483 486 0
-482 -784 483 -486 0
-482 -784 -788 -483 486 0
482 788 -483 0
482 -784 -483 -486 0
482 784 -483 486 0
482 -784 -788 483 486 0
482 784 -788 483 -486 0
483 -787 -426 0
483 -787 -485 0
483 -787 -484 0
-483 787 0
-483 426 484 485 0
484 -428 -425 0
-484 428 0
-484 425 0
485 -369 -370 -425 0
-485 369 0
-485 370 0
-485 425 0
-486 434 487 0
-486 375 487 0
-486 430 487 0
486 -487 0
486 -434 -375 -430 0
-487 488 430 0
-487 432 488 0
487 -488 0
487 -432 -430 0
488 -783 -422 0
-488 783 0
-488 422 0
-489 380 490 0
-489 490 491 0
489 -490 0
489 -380 -491 0
-490 437 421 0
-490 782 437 0
-490 782 421 0
490 -782 -437 0
490 -437 -421 0
490 -782 -421 0
491 -439 -435 0
-491 439 0
-491 435 0
-492 386 493 0
-492 493 494 0
492 -493 0
492 -386 -494 0
-493 442 420 0
-493 781 442 0
-493 781 420 0
493 -781 -442 0
493 -442 -420 0
493 -781 -420 0
494 -444 -440 0
-494 444 0
-494 440 0
-495 392 496 0
-495 496 498 0
495 -496 0
495 -392 -498 0
-496 497 445 0
-496 447 497 0
496 -497 0
496 -447 -445 0
497 -780 -419 0
-497 780 0
-497 419 0
498 -449 -445 0
-498 449 0
-498 445 0
-499 398 500 0
-499 500 502 0
499 -500 0
499 -398 -502 0
-500 501 450 0
-500 452 501 0
500 -501 0
500 -452 -450 0
501 -779 -418 0
-501 779 0
-501 418 0
502 -454 -450 0
-502 454 0
-502 450 0
-503 404 504 0
-503 504 505 0
503 -504 0
503 -404 -505 0
-504 457 417 0
-504 778 457 0
-504 778 417 0
504 -778 -457 0
504 -457 -417 0
504 -778 -417 0
505 -459 -455 0
-505 459 0
-505 455 0
-506 406 507 0
-506 507 509 0
506 -507 0
506 -406 -509 0
-507 508 460 0
-507 462 508 0
507 -508 0
507 -462 -460 0
508 -777 -416 0
-508 777 0
-508 416 0
509 -464 -460 0
-509 464 0
-509 460 0
-510 408 511 0
-510 511 512 0
510 -511 0
510 -408 -512 0
-511 467 415 0
-511 776 467 0
-511 776 415 0
511 -776 -467 0
511 -467 -415 0
511 -776 -415 0
512 -469 -465 0
-512 469 0
-512 465 0
-513 354 514 0
-513 514 515 0
513 -514 0
513 -354 -515 0
-514 472 414 0
-514 775 472 0
-514 775 414 0
514 -775 -472 0
514 -472 -414 0
514 -775 -414 0
515 -412 -470 0
-515 412 0
-515 470 0
-516 796 517 0
-516 -796 563 564 0
-516 -796 -563 -564 0
516 796 -517 0
516 -796 563 -564 0
516 -796 -563 564 0
-517 795 518 0
-517 -795 558 559 0
-517 -795 -558 -559 0
517 795 -518 0
517 -795 558 -559 0
517 -795 -558 559 0
-518 794 519 0
-518 -794 553 554 0
-518 -794 -553 -554 0
518 794 -519 0
518 -794 553 -554 0
518 -794 -553 554 0
-519 793 520 0
-519 -793 548 549 0
-519 -793 -548 -549 0
519 793 -520 0
519 -793 548 -549 0
519 -793 -548 549 0
-520 792 521 0
-520 -792 543 544 0
-520 -792 -543 -544 0
520 792 -521 0
520 -792 543 -544 0
520 -792 -543 544 0
-521 791 522 0
-521 -791 538 539 0
-521 -791 -538 -539 0
521 791 -522 0
521 -791 538 -539 0
521 -791 -538 539 0
-522 790 523 0
-522 -790 533 534 0
-522 -790 -533 -534 0
522 790 -523 0
522 -790 533 -534 0
522 -790 -533 534 0
-523 789 524 0
-523 -789 528 529 0
-523 -789 -528 -529 0
523 789 -524 0
523 -789 528 -529 0
523 -789 -528 529 0
524 -788 -525 0
524 -788 -526 0
-524 788 0
-524 525 526 0
525 -784 -483 0
-525 784 0
-525 483 0
526 -527 -486 0
-526 527 0
-526 486 0
527 784 -483 0
527 -784 483 0
-527 -784 -483 0
-527 784 483 0
528 784 -524 0
528 -784 524 0
-528 -784 -524 0
-528 784 524 0
-529 530 531 0
529 -530 0
529 -531 0
530 -783 -482 0
-530 783 0
-530 482 0
531 -532 -489 0
-531 532 0
-531 489 0
532 -783 482 0
532 783 -482 0
-532 783 482 0
-532 -783 -482 0
533 -783 523 0
533 783 -523 0
-533 783 523 0
-533 -783 -523 0
-534 535 536 0
534 -535 0
534 -536 0
535 -782 -481 0
-535 782 0
-535 481 0
536 -537 -492 0
-536 537 0
-536 492 0
537 -782 481 0
537 782 -481 0
-537 782 481 0
-537 -782 -481 0
538 -782 522 0
538 782 -522 0
-538 782 522 0
-538 -782 -522 0
-539 540 541 0
539 -540 0
539 -541 0
540 -781 -480 0
-540 781 0
-540 480 0
541 -542 -495 0
-541 542 0
-541 495 0
542 -781 480 0
542 781 -480 0
-542 781 480 0
-542 -781 -480 0
543 -781 521 0
543 781 -521 0
-543 781 521 0
-543 -781 -521 0
-544 545 546 0
544 -545 0
544 -546 0
545 -780 -479 0
-545 780 0
-545 479 0
546 -547 -499 0
-546 547 0
-546 499 0
547 -780 479 0
547 780 -479 0
-547 780 479 0
-547 -780 -479 0
548 -780 520 0
548 780 -520 0
-548 780 520 0
-548 -780 -520 0
-549 550 551 0
549 -550 0
549 -551 0
550 -779 -478 0
-550 779 0
-550 478 0
551 -552 -503 0
-551 552 0
-551 503 0
552 -779 478 0
552 779 -478 0
-552 779 478 0
-552 -779 -478 0
553 -779 519 0
553 779 -519 0
-553 779 519 0
-553 -779 -519 0
-554 555 556 0
554 -555 0
554 -556 0
555 -778 -477 0
-555 778 0
-555 477 0
556 -557 -506 0
-556 557 0
-556 506 0
557 -778 477 0
557 778 -477 0
-557 778 477 0
-557 -778 -477 0
558 -778 518 0
558 778 -518 0
-558 778 518 0
-558 -778 -518 0
-559 560 561 0
559 -560 0
559 -561 0
560 -777 -476 0
-560 777 0
-560 476 0
561 -562 -510 0
-561 562 0
-561 510 0
562 -777 476 0
562 777 -476 0
-562 777 476 0
-562 -777 -476 0
563 -777 517 0
563 777 -517 0
-563 777 517 0
-563 -777 -517 0
-564 565 566 0
564 -565 0
564 -566 0
565 -776 -475 0
-565 776 0
-565 475 0
566 -567 -513 0
-566 567 0
-566 513 0
567 -776 475 0
567 776 -475 0
-567 776 475 0
-567 -776 -475 0
-568 796 569 0
-568 -778 569 -619 0
-568 778 569 619 0
-568 -778 -796 -569 619 0
-568 778 -796 -569 -619 0
568 796 -569 0
568 778 -796 569 -619 0
568 778 -569 619 0
568 -778 -569 -619 0
568 -778 -796 569 619 0
-569 795 570 0
-569 -779 570 -614 0
-569 779 570 614 0
-569 -779 -795 -570 614 0
-569 779 -795 -570 -614 0
569 795 -570 0
569 779 -795 570 -614 0
569 779 -570 614 0
569 -779 -570 -614 0
569 -779 -795 570 614 0
-570 794 571 0
-570 -780 571 -609 0
-570 780 571 609 0
-570 -780 -794 -571 609 0
-570 780 -794 -571 -609 0
570 794 -571 0
570 780 -794 571 -609 0
570 780 -571 609 0
570 -780 -571 -609 0
570 -780 -794 571 609 0
-571 793 572 0
-571 -781 572 -604 0
-571 781 572 604 0
-571 -781 -793 -572 604 0
-571 781 -793 -572 -604 0
571 793 -572 0
571 781 -793 572 -604 0
571 781 -572 604 0
571 -781 -572 -604 0
571 -781 -793 572 604 0
-572 792 573 0
-572 -782 573 -597 0
-572 782 573 597 0
-572 -782 -792 -573 597 0
-572 782 -792 -573 -597 0
572 792 -573 0
572 782 -792 573 -597 0
572 782 -573 597 0
572 -782 -573 -597 0
572 -782 -792 573 597 0
-573 791 574 0
-573 -783 574 -590 0
-573 783 574 590 0
-573 -783 -791 -574 590 0
-573 783 -791 -574 -590 0
573 791 -574 0
573 783 -791 574 -590 0
573 783 -574 590 0
573 -783 -574 -590 0
573 -783 -791 574 590 0
-574 790 575 0
-574 784 -790 -575 -583 0
-574 784 575 583 0
-574 -784 575 -583 0
-574 -784 -790 -575 583 0
574 790 -575 0
574 -784 -575 -583 0
574 784 -575 583 0
574 -784 -790 575 583 0
574 784 -790 575 -583 0
575 -789 -576 0
575 -789 -196 -582 0
-575 789 0
-575 196 576 0
-575 576 582 0
-576 381 577 579 0
-576 577 579 581 0
576 -577 0
576 -579 0
576 -381 -581 0
-577 578 528 0
-577 530 578 0
577 -578 0
577 -530 -528 0
578 -784 -524 0
-578 784 0
-578 524 0
579 -490 -580 0
-579 490 0
-579 580 0
580 -532 -528 0
-580 532 0
-580 528 0
581 -491 -580 0
-581 491 0
-581 580 0
582 -385 -581 0
-582 385 0
-582 581 0
-583 391 586 0
-583 584 586 0
-583 199 586 0
583 -586 0
583 -199 -391 -584 0
584 -494 -585 0
-584 494 0
-584 585 0
585 -537 -533 0
-585 537 0
-585 533 0
-586 387 587 589 0
-586 587 589 584 0
586 -587 0
586 -589 0
586 -387 -584 0
-587 588 533 0
-587 535 588 0
587 -588 0
587 -535 -533 0
588 -783 -523 0
-588 783 0
-588 523 0
589 -493 -585 0
-589 493 0
-589 585 0
-590 397 593 0
-590 591 593 0
-590 202 593 0
590 -593 0
590 -202 -397 -591 0
591 -498 -592 0
-591 498 0
-591 592 0
592 -542 -538 0
-592 542 0
-592 538 0
-593 393 594 0
-593 594 591 0
593 -594 0
593 -393 -591 0
-594 496 595 596 0
-594 595 596 592 0
594 -596 0
594 -595 0
594 -496 -592 0
595 -782 -522 0
-595 782 0
-595 522 0
596 -540 -538 0
-596 540 0
-596 538 0
-597 403 600 0
-597 172 600 0
-597 598 600 0
597 -600 0
597 -172 -403 -598 0
598 -502 -599 0
-598 502 0
-598 599 0
599 -547 -543 0
-599 547 0
-599 543 0
-600 399 601 603 0
-600 601 603 598 0
600 -601 0
600 -603 0
600 -399 -598 0
-601 602 543 0
-601 545 602 0
601 -602 0
601 -545 -543 0
602 -781 -521 0
-602 781 0
-602 521 0
603 -500 -599 0
-603 500 0
-603 599 0
-604 505 606 0
-604 605 606 0
-604 404 606 0
604 -606 0
604 -404 -505 -605 0
605 -552 -548 0
-605 552 0
-605 548 0
-606 504 607 608 0
-606 607 608 605 0
606 -608 0
606 -607 0
606 -504 -605 0
607 -780 -520 0
-607 780 0
-607 520 0
608 -550 -548 0
-608 550 0
-608 548 0
-609 509 611 0
-609 610 611 0
-609 406 611 0
609 -611 0
609 -406 -509 -610 0
610 -557 -553 0
-610 557 0
-610 553 0
-611 555 612 613 0
-611 612 553 613 0
611 -613 0
611 -612 0
611 -555 -553 0
612 -779 -519 0
-612 779 0
-612 519 0
613 -507 -610 0
-613 507 0
-613 610 0
-614 512 616 0
-614 615 616 0
-614 408 616 0
614 -616 0
614 -408 -512 -615 0
615 -562 -558 0
-615 562 0
-615 558 0
-616 560 617 618 0
-616 617 558 618 0
616 -618 0
616 -617 0
616 -560 -558 0
617 -778 -518 0
-617 778 0
-617 518 0
618 -511 -615 0
-618 511 0
-618 615 0
-619 515 621 0
-619 354 621 0
-619 620 621 0
619 -621 0
619 -354 -515 -620 0
620 -567 -563 0
-620 567 0
-620 563 0
-621 565 622 623 0
-621 622 563 623 0
621 -623 0
621 -622 0
621 -565 -563 0
622 -777 -517 0
-622 777 0
-622 517 0
623 -514 -620 0
-623 514 0
-623 620 0
-624 796 625 0
-624 -796 656 657 0
-624 -796 -656 -657 0
624 796 -625 0
624 -796 656 -657 0
624 -796 -656 657 0
-625 795 626 0
-625 -795 651 652 0
-625 -795 -651 -652 0
625 795 -626 0
625 -795 651 -652 0
625 -795 -651 652 0
-626 794 627 0
-626 -794 646 647 0
-626 -794 -646 -647 0
626 794 -627 0
626 -794 646 -647 0
626 -794 -646 647 0
-627 793 628 0
-627 -782 628 -642 0
-627 782 628 642 0
-627 -782 -793 -628 642 0
-627 782 -793 -628 -642 0
627 793 -628 0
627 782 -793 628 -642 0
627 782 -628 642 0
627 -782 -628 -642 0
627 -782 -793 628 642 0
-628 792 629 0
-628 -783 629 -638 0
-628 783 629 638 0
-628 -783 -792 -629 638 0
-628 783 -792 -629 -638 0
628 792 -629 0
628 783 -792 629 -638 0
628 783 -629 638 0
628 -783 -629 -638 0
628 -783 -792 629 638 0
-629 791 630 0
-629 784 -791 -630 -634 0
-629 784 630 634 0
-629 -784 630 -634 0
-629 -784 -791 -630 634 0
629 791 -630 0
629 -784 -630 -634 0
629 784 -630 634 0
629 -784 -791 630 634 0
629 784 -791 630 -634 0
630 -790 -631 0
630 -790 -632 0
-630 790 0
-630 631 632 0
631 -784 -575 0
-631 784 0
-631 575 0
632 -633 -583 0
-632 633 0
-632 583 0
633 784 -575 0
633 -784 575 0
-633 -784 -575 0
-633 784 575 0
-634 635 636 0
634 -635 0
634 -636 0
635 -783 -574 0
-635 783 0
-635 574 0
636 -637 -590 0
-636 637 0
-636 590 0
637 -783 574 0
637 783 -574 0
-637 783 574 0
-637 -783 -574 0
-638 639 640 0
638 -639 0
638 -640 0
639 -782 -573 0
-639 782 0
-639 573 0
640 -641 -597 0
-640 641 0
-640 597 0
641 -782 573 0
641 782 -573 0
-641 782 573 0
-641 -782 -573 0
-642 643 644 0
642 -643 0
642 -644 0
643 -781 -572 0
-643 781 0
-643 572 0
644 -645 -604 0
-644 645 0
-644 604 0
645 -781 572 0
645 781 -572 0
-645 781 572 0
-645 -781 -572 0
646 -781 627 0
646 781 -627 0
-646 781 627 0
-646 -781 -627 0
-647 648 649 0
647 -648 0
647 -649 0
648 -780 -571 0
-648 780 0
-648 571 0
649 -650 -609 0
-649 650 0
-649 609 0
650 -780 571 0
650 780 -571 0
-650 780 571 0
-650 -780 -571 0
651 -780 626 0
651 780 -626 0
-651 780 626 0
-651 -780 -626 0
-652 653 654 0
652 -653 0
652 -654 0
653 -779 -570 0
-653 779 0
-653 570 0
654 -655 -614 0
-654 655 0
-654 614 0
655 -779 570 0
655 779 -570 0
-655 779 570 0
-655 -779 -570 0
656 -779 625 0
656 779 -625 0
-656 779 625 0
-656 -779 -625 0
-657 658 659 0
657 -658 0
657 -659 0
658 -778 -569 0
-658 778 0
-658 569 0
659 -660 -619 0
-659 660 0
-659 619 0
660 -778 569 0
660 778 -569 0
-660 778 569 0
-660 -778 -569 0
-661 796 662 0
-661 -780 662 -688 0
-661 780 662 688 0
-661 -780 -796 -662 688 0
-661 780 -796 -662 -688 0
661 796 -662 0
661 780 -796 662 -688 0
661 780 -662 688 0
661 -780 -662 -688 0
661 -780 -796 662 688 0
-662 795 663 0
-662 -781 663 -684 0
-662 781 663 684 0
-662 -781 -795 -663 684 0
-662 781 -795 -663 -684 0
662 795 -663 0
662 781 -795 663 -684 0
662 781 -663 684 0
662 -781 -663 -684 0
662 -781 -795 663 684 0
-663 794 664 0
-663 -782 664 -680 0
-663 782 664 680 0
-663 -782 -794 -664 680 0
-663 782 -794 -664 -680 0
663 794 -664 0
663 782 -794 664 -680 0
663 782 -664 680 0
663 -782 -664 -680 0
663 -782 -794 664 680 0
-664 793 665 0
-664 -783 665 -675 0
-664 783 665 675 0
-664 -783 -793 -665 675 0
-664 783 -793 -665 -675 0
664 793 -665 0
664 783 -793 665 -675 0
664 783 -665 675 0
664 -783 -665 -675 0
664 -783 -793 665 675 0
-665 792 666 0
-665 784 -792 -666 -671 0
-665 784 666 671 0
-665 -784 666 -671 0
-665 -784 -792 -666 671 0
665 792 -666 0
665 -784 -666 -671 0
665 784 -666 671 0
665 -784 -792 666 671 0
665 784 -792 666 -671 0
666 -791 -667 0
666 -791 -590 -670 0
-666 791 0
-666 590 667 0
-666 667 670 0
-667 668 669 0
-667 635 668 0
667 -668 0
667 -635 -669 0
668 -784 -630 0
-668 784 0
-668 630 0
669 784 -630 0
669 -784 630 0
-669 -784 -630 0
-669 784 630 0
670 -637 -669 0
-670 637 0
-670 669 0
-671 641 673 0
-671 597 673 0
-671 672 673 0
671 -673 0
671 -641 -597 -672 0
672 -783 629 0
672 783 -629 0
-672 783 629 0
-672 -783 -629 0
-673 674 672 0
-673 639 674 0
673 -674 0
673 -639 -672 0
674 -783 -629 0
-674 783 0
-674 629 0
-675 604 676 0
-675 676 679 0
675 -676 0
675 -604 -679 0
-676 677 678 0
-676 643 677 0
676 -677 0
676 -643 -678 0
677 -782 -628 0
-677 782 0
-677 628 0
678 -782 628 0
678 782 -628 0
-678 782 628 0
-678 -782 -628 0
679 -645 -678 0
-679 645 0
-679 678 0
-680 609 681 0
-680 681 683 0
680 -681 0
680 -609 -683 0
-681 682 646 0
-681 648 682 0
681 -682 0
681 -648 -646 0
682 -781 -627 0
-682 781 0
-682 627 0
683 -650 -646 0
-683 650 0
-683 646 0
-684 614 685 0
-684 685 687 0
684 -685 0
684 -614 -687 0
-685 686 651 0
-685 653 686 0
685 -686 0
685 -653 -651 0
686 -780 -626 0
-686 780 0
-686 626 0
687 -655 -651 0
-687 655 0
-687 651 0
-688 619 689 0
-688 689 691 0
688 -689 0
688 -619 -691 0
-689 690 656 0
-689 658 690 0
689 -690 0
689 -658 -656 0
690 -779 -625 0
-690 779 0
-690 625 0
691 -660 -656 0
-691 660 0
-691 656 0
-692 796 693 0
-692 -796 713 714 0
-692 -796 -713 -714 0
692 796 -693 0
692 -796 713 -714 0
692 -796 -713 714 0
-693 795 694 0
-693 -795 708 709 0
-693 -795 -708 -709 0
693 795 -694 0
693 -795 708 -709 0
693 -795 -708 709 0
-694 794 695 0
-694 -783 695 -704 0
-694 783 695 704 0
-694 -783 -794 -695 704 0
-694 783 -794 -695 -704 0
694 794 -695 0
694 783 -794 695 -704 0
694 783 -695 704 0
694 -783 -695 -704 0
694 -783 -794 695 704 0
-695 793 696 0
-695 784 -793 -696 -700 0
-695 784 696 700 0
-695 -784 696 -700 0
-695 -784 -793 -696 700 0
695 793 -696 0
695 -784 -696 -700 0
695 784 -696 700 0
695 -784 -793 696 700 0
695 784 -793 696 -700 0
696 -792 -697 0
696 -792 -698 0
-696 792 0
-696 697 698 0
697 -784 -666 0
-697 784 0
-697 666 0
698 -699 -671 0
-698 699 0
-698 671 0
699 784 -666 0
699 -784 666 0
-699 -784 -666 0
-699 784 666 0
-700 701 702 0
700 -701 0
700 -702 0
701 -783 -665 0
-701 783 0
-701 665 0
702 -703 -675 0
-702 703 0
-702 675 0
703 -783 665 0
703 783 -665 0
-703 783 665 0
-703 -783 -665 0
-704 705 706 0
704 -705 0
704 -706 0
705 -782 -664 0
-705 782 0
-705 664 0
706 -707 -680 0
-706 707 0
-706 680 0
707 -782 664 0
707 782 -664 0
-707 782 664 0
-707 -782 -664 0
708 -782 694 0
708 782 -694 0
-708 782 694 0
-708 -782 -694 0
-709 710 711 0
709 -710 0
709 -711 0
710 -781 -663 0
-710 781 0
-710 663 0
711 -712 -684 0
-711 712 0
-711 684 0
712 -781 663 0
712 781 -663 0
-712 781 663 0
-712 -781 -663 0
713 -781 693 0
713 781 -693 0
-713 781 693 0
-713 -781 -693 0
-714 715 716 0
714 -715 0
714 -716 0
715 -780 -662 0
-715 780 0
-715 662 0
716 -717 -688 0
-716 717 0
-716 688 0
717 -780 662 0
717 780 -662 0
-717 780 662 0
-717 -780 -662 0
-718 796 719 0
-718 -782 719 -739 0
-718 782 719 739 0
-718 -782 -796 -719 739 0
-718 782 -796 -719 -739 0
718 796 -719 0
718 782 -796 719 -739 0
718 782 -719 739 0
718 -782 -719 -739 0
718 -782 -796 719 739 0
-719 795 720 0
-719 -783 720 -734 0
-719 783 720 734 0
-719 -783 -795 -720 734 0
-719 783 -795 -720 -734 0
719 795 -720 0
719 783 -795 720 -734 0
719 783 -720 734 0
719 -783 -720 -734 0
719 -783 -795 720 734 0
-720 794 721 0
-720 784 -794 -721 -728 0
-720 784 721 728 0
-720 -784 721 -728 0
-720 -784 -794 -721 728 0
720 794 -721 0
720 -784 -721 -728 0
720 784 -721 728 0
720 -784 -794 721 728 0
720 784 -794 721 -728 0
721 -793 -722 0
721 -793 -604 -727 0
-721 793 0
-721 604 722 0
-721 722 727 0
-722 701 723 725 0
-722 723 724 725 0
722 -725 0
722 -723 0
722 -701 -724 0
723 -784 -696 0
-723 784 0
-723 696 0
724 784 -696 0
724 -784 696 0
-724 -784 -696 0
-724 784 696 0
725 -676 -726 0
-725 676 0
-725 726 0
726 -703 -724 0
-726 703 0
-726 724 0
727 -679 -726 0
-727 679 0
-727 726 0
-728 683 731 0
-728 729 731 0
-728 609 731 0
728 -731 0
728 -609 -683 -729 0
729 -707 -730 0
-729 707 0
-729 730 0
730 -783 695 0
730 783 -695 0
-730 783 695 0
-730 -783 -695 0
-731 705 732 733 0
-731 732 730 733 0
731 -733 0
731 -732 0
731 -705 -730 0
732 -783 -695 0
-732 783 0
-732 695 0
733 -681 -729 0
-733 681 0
-733 729 0
-734 687 736 0
-734 735 736 0
-734 614 736 0
734 -736 0
734 -614 -687 -735 0
735 -712 -708 0
-735 712 0
-735 708 0
-736 710 737 738 0
-736 737 708 738 0
736 -738 0
736 -737 0
736 -710 -708 0
737 -782 -694 0
-737 782 0
-737 694 0
738 -685 -735 0
-738 685 0
-738 735 0
-739 691 741 0
-739 740 741 0
-739 619 741 0
739 -741 0
739 -619 -691 -740 0
740 -717 -713 0
-740 717 0
-740 713 0
-741 715 742 743 0
-741 742 713 743 0
741 -743 0
741 -742 0
741 -715 -713 0
742 -781 -693 0
-742 781 0
-742 693 0
743 -689 -740 0
-743 689 0
-743 740 0
-744 796 745 0
-744 -783 745 -754 0
-744 783 745 754 0
-744 -783 -796 -745 754 0
-744 783 -796 -745 -754 0
744 796 -745 0
744 783 -796 745 -754 0
744 783 -745 754 0
744 -783 -745 -754 0
744 -783 -796 745 754 0
-745 795 746 0
-745 784 -795 -746 -750 0
-745 784 746 750 0
-745 -784 746 -750 0
-745 -784 -795 -746 750 0
745 795 -746 0
745 -784 -746 -750 0
745 784 -746 750 0
745 -784 -795 746 750 0
745 784 -795 746 -750 0
746 -794 -747 0
746 -794 -748 0
-746 794 0
-746 747 748 0
747 -784 -721 0
-747 784 0
-747 721 0
748 -749 -728 0
-748 749 0
-748 728 0
749 784 -721 0
749 -784 721 0
-749 -784 -721 0
-749 784 721 0
-750 751 752 0
750 -751 0
750 -752 0
751 -783 -720 0
-751 783 0
-751 720 0
752 -753 -734 0
-752 753 0
-752 734 0
753 -783 720 0
753 783 -720 0
-753 783 720 0
-753 -783 -720 0
-754 755 756 0
754 -755 0
754 -756 0
755 -782 -719 0
-755 782 0
-755 719 0
756 -757 -739 0
-756 757 0
-756 739 0
757 -782 719 0
757 782 -719 0
-757 782 719 0
-757 -782 -719 0
-758 796 759 0
-758 784 -796 -759 -764 0
-758 784 759 764 0
-758 -784 759 -764 0
-758 -784 -796 -759 764 0
758 796 -759 0
758 -784 -759 -764 0
758 784 -759 764 0
758 -784 -796 759 764 0
758 784 -796 759 -764 0
759 -795 -760 0
759 -795 -763 0
759 -795 -761 0
-759 795 0
-759 760 761 763 0
760 -784 -746 0
-760 784 0
-760 746 0
761 -751 -762 0
-761 751 0
-761 762 0
762 784 -746 0
762 -784 746 0
-762 -784 -746 0
-762 784 746 0
763 -753 -734 -762 0
-763 753 0
-763 734 0
-763 762 0
-764 757 766 0
-764 739 766 0
-764 765 766 0
764 -766 0
764 -757 -739 -765 0
765 -783 745 0
765 783 -745 0
-765 783 745 0
-765 -783 -745 0
-766 767 768 0
766 -767 0
766 -768 0
767 -783 -745 0
-767 783 0
-767 745 0
768 -755 -765 0
-768 755 0
-768 765 0
769 -796 -770 0
769 -796 -771 0
-769 796 0
-769 770 771 0
770 -784 -759 0
-770 784 0
-770 759 0
771 -772 -764 0
-771 772 0
-771 764 0
772 784 -759 0
772 -784 759 0
-772 -784 -759 0
-772 784 759 0
-797 0
2 0
14 0
26 0
40 0
56 0
77 0
102 0
133 0
167 0
207 0
252 0
297 0
353 0
413 0
474 0
516 0
568 0
624 0
661 0
692 0
718 0
744 0
758 0
769 0

