c Result of efficient AIG-to-CNF conversion using package CNF
p cnf 954 3865
-2 3 0
2 -3 0
-3 4 0
3 -4 0
-4 5 0
4 -5 0
-5 6 0
5 -6 0
-6 7 0
6 -7 0
-7 8 0
7 -8 0
-8 9 0
8 -9 0
-9 10 0
9 -10 0
-10 11 0
10 -11 0
-11 12 0
11 -12 0
-12 13 0
12 -13 0
-13 14 0
13 -14 0
14 -928 -941 0
-14 928 0
-14 941 0
-15 16 0
15 -16 0
-16 17 0
16 -17 0
-17 18 0
17 -18 0
-18 19 0
18 -19 0
-19 20 0
19 -20 0
-20 21 0
20 -21 0
-21 22 0
21 -22 0
-22 23 0
22 -23 0
-23 24 0
23 -24 0
-24 25 0
24 -25 0
-25 26 0
25 -26 0
-26 928 27 0
-26 942 27 0
-26 -928 -942 -27 0
26 928 -27 0
26 -928 -942 27 0
26 942 -27 0
27 -929 -941 0
-27 929 0
-27 941 0
-28 29 0
28 -29 0
-29 30 0
29 -30 0
-30 31 0
30 -31 0
-31 32 0
31 -32 0
-32 33 0
32 -33 0
-33 34 0
33 -34 0
-34 35 0
34 -35 0
-35 36 0
35 -36 0
-36 37 0
36 -37 0
-37 38 0
37 -38 0
-38 928 39 0
-38 -928 -943 -39 0
-38 943 39 0
38 928 -39 0
38 943 -39 0
38 -928 -943 39 0
-39 942 41 0
-39 -942 -40 -42 0
-39 -942 40 42 0
39 942 -41 0
39 -942 -40 42 0
39 -942 40 -42 0
40 -928 -929 -941 0
-40 928 0
-40 929 0
-40 941 0
41 -930 -941 0
-41 930 0
-41 941 0
42 929 -41 0
42 -929 41 0
-42 -929 -41 0
-42 929 41 0
-43 44 0
43 -44 0
-44 45 0
44 -45 0
-45 46 0
45 -46 0
-46 47 0
46 -47 0
-47 48 0
47 -48 0
-48 49 0
48 -49 0
-49 50 0
49 -50 0
-50 51 0
50 -51 0
-51 52 0
51 -52 0
-52 928 53 0
-52 -928 -944 -53 0
-52 944 53 0
52 928 -53 0
52 944 -53 0
52 -928 -944 53 0
-53 943 55 0
-53 -943 -54 -59 0
-53 -943 54 59 0
53 943 -55 0
53 -943 -54 59 0
53 -943 54 -59 0
54 -928 -39 0
-54 928 0
-54 39 0
-55 942 56 0
-55 -942 57 58 0
-55 -942 -57 -58 0
55 942 -56 0
55 -942 57 -58 0
55 -942 -57 58 0
56 -931 -941 0
-56 931 0
-56 941 0
57 930 -56 0
57 -930 56 0
-57 -930 -56 0
-57 930 56 0
-58 941 0
-58 929 0
-58 928 930 0
58 -928 -929 -941 0
58 -929 -930 -941 0
59 -929 55 0
59 929 -55 0
-59 929 55 0
-59 -929 -55 0
-60 61 0
60 -61 0
-61 62 0
61 -62 0
-62 63 0
62 -63 0
-63 64 0
63 -64 0
-64 65 0
64 -65 0
-65 66 0
65 -66 0
-66 67 0
66 -67 0
-67 68 0
67 -68 0
-68 928 69 0
-68 -928 -945 -69 0
-68 945 69 0
68 928 -69 0
68 945 -69 0
68 -928 -945 69 0
-69 944 71 0
-69 -944 -70 -81 0
-69 -944 70 81 0
69 944 -71 0
69 -944 -70 81 0
69 -944 70 -81 0
70 -928 -53 0
-70 928 0
-70 53 0
-71 943 72 0
-71 -943 77 78 0
-71 -943 -77 -78 0
71 943 -72 0
71 -943 77 -78 0
71 -943 -77 78 0
-72 942 73 0
-72 -942 74 75 0
-72 -942 -74 -75 0
72 942 -73 0
72 -942 74 -75 0
72 -942 -74 75 0
73 -932 -941 0
-73 932 0
-73 941 0
74 931 -73 0
74 -931 73 0
-74 -931 -73 0
-74 931 73 0
-75 42 76 0
-75 40 76 0
-75 57 76 0
75 -76 0
75 -40 -42 -57 0
-76 941 0
-76 930 0
-76 929 931 0
76 -929 -930 -941 0
76 -930 -931 -941 0
77 -930 72 0
77 930 -72 0
-77 930 72 0
-77 -930 -72 0
-78 79 80 0
78 -79 0
78 -80 0
79 -929 -55 0
-79 929 0
-79 55 0
80 -54 -59 0
-80 54 0
-80 59 0
81 -929 71 0
81 929 -71 0
-81 929 71 0
-81 -929 -71 0
-82 83 0
82 -83 0
-83 84 0
83 -84 0
-84 85 0
84 -85 0
-85 86 0
85 -86 0
-86 87 0
86 -87 0
-87 88 0
87 -88 0
-88 89 0
88 -89 0
-89 928 90 0
-89 -928 -946 -90 0
-89 946 90 0
89 928 -90 0
89 946 -90 0
89 -928 -946 90 0
-90 945 92 0
-90 929 91 92 0
-90 -929 -91 92 0
-90 929 -945 -91 -92 0
-90 -929 -945 91 -92 0
90 945 -92 0
90 -929 -91 -92 0
90 929 91 -92 0
90 929 -945 -91 92 0
90 -929 -945 91 92 0
91 -928 -69 0
-91 928 0
-91 69 0
-92 944 93 0
-92 -944 104 105 0
-92 -944 -104 -105 0
92 944 -93 0
92 -944 104 -105 0
92 -944 -104 105 0
-93 943 94 0
-93 -943 100 101 0
-93 -943 -100 -101 0
93 943 -94 0
93 -943 100 -101 0
93 -943 -100 101 0
-94 942 95 0
-94 -942 96 97 0
-94 -942 -96 -97 0
94 942 -95 0
94 -942 96 -97 0
94 -942 -96 97 0
95 -933 -941 0
-95 933 0
-95 941 0
96 932 -95 0
96 -932 95 0
-96 -932 -95 0
-96 932 95 0
-97 98 99 0
97 -98 0
97 -99 0
98 -931 -932 -941 0
-98 931 0
-98 932 0
-98 941 0
99 -74 -75 0
-99 74 0
-99 75 0
100 -931 94 0
100 931 -94 0
-100 931 94 0
-100 -931 -94 0
-101 102 103 0
101 -102 0
101 -103 0
102 -930 -72 0
-102 930 0
-102 72 0
103 -77 -78 0
-103 77 0
-103 78 0
104 -930 93 0
104 930 -93 0
-104 930 93 0
-104 -930 -93 0
-105 106 107 0
105 -106 0
105 -107 0
106 -929 -71 0
-106 929 0
-106 71 0
107 -70 -81 0
-107 70 0
-107 81 0
-108 109 0
108 -109 0
-109 110 0
109 -110 0
-110 111 0
110 -111 0
-111 112 0
111 -112 0
-112 113 0
112 -113 0
-113 114 0
113 -114 0
-114 928 115 0
-114 -928 -947 -115 0
-114 947 115 0
114 928 -115 0
114 947 -115 0
114 -928 -947 115 0
-115 946 117 0
-115 -946 -116 -139 0
-115 -946 116 139 0
115 946 -117 0
115 -946 -116 139 0
115 -946 116 -139 0
116 -928 -90 0
-116 928 0
-116 90 0
-117 945 118 0
-117 -930 118 -135 0
-117 930 118 135 0
-117 -930 -945 -118 135 0
-117 930 -945 -118 -135 0
117 945 -118 0
117 930 -945 118 -135 0
117 930 -118 135 0
117 -930 -118 -135 0
117 -930 -945 118 135 0
-118 944 119 0
-118 -944 131 132 0
-118 -944 -131 -132 0
118 944 -119 0
118 -944 131 -132 0
118 -944 -131 132 0
-119 943 120 0
-119 -943 126 127 0
-119 -943 -126 -127 0
119 943 -120 0
119 -943 126 -127 0
119 -943 -126 127 0
-120 942 121 0
-120 -942 122 123 0
-120 -942 -122 -123 0
120 942 -121 0
120 -942 122 -123 0
120 -942 -122 123 0
121 -934 -941 0
-121 934 0
-121 941 0
122 933 -121 0
122 -933 121 0
-122 -933 -121 0
-122 933 121 0
-123 75 124 0
-123 124 125 0
123 -124 0
123 -75 -125 0
-124 941 0
-124 932 0
-124 931 933 0
124 -931 -932 -941 0
124 -932 -933 -941 0
125 -74 -96 0
-125 74 0
-125 96 0
126 -932 120 0
126 932 -120 0
-126 932 120 0
-126 -932 -120 0
-127 78 128 0
-127 128 130 0
127 -128 0
127 -78 -130 0
-128 129 100 0
-128 102 129 0
128 -129 0
128 -102 -100 0
129 -931 -94 0
-129 931 0
-129 94 0
130 -77 -100 0
-130 77 0
-130 100 0
131 -931 119 0
131 931 -119 0
-131 931 119 0
-131 -931 -119 0
-132 70 133 0
-132 133 134 0
132 -133 0
132 -70 -134 0
-133 106 93 0
-133 930 106 0
-133 930 93 0
133 -930 -106 0
133 -106 -93 0
133 -930 -93 0
134 -81 -104 0
-134 81 0
-134 104 0
-135 136 137 0
135 -136 0
135 -137 0
136 -929 -92 0
-136 929 0
-136 92 0
137 -91 -138 0
-137 91 0
-137 138 0
138 -929 92 0
138 929 -92 0
-138 929 92 0
-138 -929 -92 0
139 -929 117 0
139 929 -117 0
-139 929 117 0
-139 -929 -117 0
-140 141 0
140 -141 0
-141 142 0
141 -142 0
-142 143 0
142 -143 0
-143 144 0
143 -144 0
-144 145 0
144 -145 0
-145 928 146 0
-145 -928 -948 -146 0
-145 948 146 0
145 928 -146 0
145 948 -146 0
145 -928 -948 146 0
-146 947 148 0
-146 929 147 148 0
-146 -929 -147 148 0
-146 929 -947 -147 -148 0
-146 -929 -947 147 -148 0
146 947 -148 0
146 -929 -147 -148 0
146 929 147 -148 0
146 929 -947 -147 148 0
146 -929 -947 147 148 0
147 -928 -115 0
-147 928 0
-147 115 0
-148 946 149 0
-148 -946 171 172 0
-148 -946 -171 -172 0
148 946 -149 0
148 -946 171 -172 0
148 -946 -171 172 0
-149 945 150 0
-149 -945 166 167 0
-149 -945 -166 -167 0
149 945 -150 0
149 -945 166 -167 0
149 -945 -166 167 0
-150 944 151 0
-150 -944 162 163 0
-150 -944 -162 -163 0
150 944 -151 0
150 -944 162 -163 0
150 -944 -162 163 0
-151 943 152 0
-151 -943 158 159 0
-151 -943 -158 -159 0
151 943 -152 0
151 -943 158 -159 0
151 -943 -158 159 0
-152 942 153 0
-152 -942 154 155 0
-152 -942 -154 -155 0
152 942 -153 0
152 -942 154 -155 0
152 -942 -154 155 0
153 -935 -941 0
-153 935 0
-153 941 0
154 934 -153 0
154 -934 153 0
-154 -934 -153 0
-154 934 153 0
-155 156 157 0
155 -156 0
155 -157 0
156 -933 -934 -941 0
-156 933 0
-156 934 0
-156 941 0
157 -122 -123 0
-157 122 0
-157 123 0
158 -933 152 0
158 933 -152 0
-158 933 152 0
-158 -933 -152 0
-159 160 161 0
159 -160 0
159 -161 0
160 -932 -120 0
-160 932 0
-160 120 0
161 -126 -127 0
-161 126 0
-161 127 0
162 -932 151 0
162 932 -151 0
-162 932 151 0
-162 -932 -151 0
-163 164 165 0
163 -164 0
163 -165 0
164 -931 -119 0
-164 931 0
-164 119 0
165 -131 -132 0
-165 131 0
-165 132 0
166 -931 150 0
166 931 -150 0
-166 931 150 0
-166 -931 -150 0
-167 168 169 0
167 -168 0
167 -169 0
168 -930 -118 0
-168 930 0
-168 118 0
169 -170 -135 0
-169 170 0
-169 135 0
170 -930 118 0
170 930 -118 0
-170 930 118 0
-170 -930 -118 0
171 -930 149 0
171 930 -149 0
-171 930 149 0
-171 -930 -149 0
-172 173 174 0
172 -173 0
172 -174 0
173 -929 -117 0
-173 929 0
-173 117 0
174 -116 -139 0
-174 116 0
-174 139 0
-175 176 0
175 -176 0
-176 177 0
176 -177 0
-177 178 0
177 -178 0
-178 179 0
178 -179 0
-179 928 180 0
-179 -928 -949 -180 0
-179 949 180 0
179 928 -180 0
179 949 -180 0
179 -928 -949 180 0
-180 948 182 0
-180 -948 -181 -214 0
-180 -948 181 214 0
180 948 -182 0
180 -948 -181 214 0
180 -948 181 -214 0
181 -928 -146 0
-181 928 0
-181 146 0
-182 947 183 0
-182 -930 183 -210 0
-182 930 183 210 0
-182 -930 -947 -183 210 0
-182 930 -947 -183 -210 0
182 947 -183 0
182 930 -947 183 -210 0
182 930 -183 210 0
182 -930 -183 -210 0
182 -930 -947 183 210 0
-183 946 184 0
-183 -931 184 -208 0
-183 931 184 208 0
-183 -931 -946 -184 208 0
-183 931 -946 -184 -208 0
183 946 -184 0
183 931 -946 184 -208 0
183 931 -184 208 0
183 -931 -184 -208 0
183 -931 -946 184 208 0
-184 945 185 0
-184 -932 185 -205 0
-184 932 185 205 0
-184 -932 -945 -185 205 0
-184 932 -945 -185 -205 0
184 945 -185 0
184 932 -945 185 -205 0
184 932 -185 205 0
184 -932 -185 -205 0
184 -932 -945 185 205 0
-185 944 186 0
-185 -933 186 -200 0
-185 933 186 200 0
-185 -933 -944 -186 200 0
-185 933 -944 -186 -200 0
185 944 -186 0
185 933 -944 186 -200 0
185 933 -186 200 0
185 -933 -186 -200 0
185 -933 -944 186 200 0
-186 943 187 0
-186 -943 194 195 0
-186 -943 -194 -195 0
186 943 -187 0
186 -943 194 -195 0
186 -943 -194 195 0
-187 942 188 0
-187 -942 189 190 0
-187 -942 -189 -190 0
187 942 -188 0
187 -942 189 -190 0
187 -942 -189 190 0
188 -936 -941 0
-188 936 0
-188 941 0
189 935 -188 0
189 -935 188 0
-189 -935 -188 0
-189 935 188 0
-190 125 192 0
-190 191 192 0
-190 75 192 0
190 -192 0
190 -75 -125 -191 0
191 -122 -154 0
-191 122 0
-191 154 0
-192 124 193 0
-192 193 191 0
192 -193 0
192 -124 -191 0
-193 941 0
-193 934 0
-193 933 935 0
193 -933 -934 -941 0
193 -934 -935 -941 0
194 -934 187 0
194 934 -187 0
-194 934 187 0
-194 -934 -187 0
-195 130 197 0
-195 196 197 0
-195 78 197 0
195 -197 0
195 -78 -130 -196 0
196 -126 -158 0
-196 126 0
-196 158 0
-197 160 198 199 0
-197 198 158 199 0
197 -199 0
197 -198 0
197 -160 -158 0
198 -933 -152 0
-198 933 0
-198 152 0
199 -128 -196 0
-199 128 0
-199 196 0
-200 134 202 0
-200 70 202 0
-200 201 202 0
200 -202 0
200 -70 -134 -201 0
201 -131 -162 0
-201 131 0
-201 162 0
-202 164 203 204 0
-202 203 162 204 0
202 -204 0
202 -203 0
202 -164 -162 0
203 -932 -151 0
-203 932 0
-203 151 0
204 -133 -201 0
-204 133 0
-204 201 0
-205 170 206 0
-205 135 206 0
-205 166 206 0
205 -206 0
205 -170 -135 -166 0
-206 207 166 0
-206 168 207 0
206 -207 0
206 -168 -166 0
207 -931 -150 0
-207 931 0
-207 150 0
-208 930 173 209 0
-208 173 149 209 0
-208 930 149 209 0
208 -930 -173 0
208 -173 -149 0
208 -209 0
208 -930 -149 0
209 -116 -139 -171 0
-209 116 0
-209 139 0
-209 171 0
-210 211 212 0
210 -211 0
210 -212 0
211 -929 -148 0
-211 929 0
-211 148 0
212 -147 -213 0
-212 147 0
-212 213 0
213 -929 148 0
213 929 -148 0
-213 929 148 0
-213 -929 -148 0
214 -929 182 0
214 929 -182 0
-214 929 182 0
-214 -929 -182 0
-215 216 0
215 -216 0
-216 217 0
216 -217 0
-217 218 0
217 -218 0
-218 928 219 0
-218 -928 -950 -219 0
-218 950 219 0
218 928 -219 0
218 950 -219 0
218 -928 -950 219 0
-219 949 221 0
-219 929 220 221 0
-219 -929 -220 221 0
-219 929 -949 -220 -221 0
-219 -929 -949 220 -221 0
219 949 -221 0
219 -929 -220 -221 0
219 929 220 -221 0
219 929 -949 -220 221 0
219 -929 -949 220 221 0
220 -928 -180 0
-220 928 0
-220 180 0
-221 948 222 0
-221 -948 257 258 0
-221 -948 -257 -258 0
221 948 -222 0
221 -948 257 -258 0
221 -948 -257 258 0
-222 947 223 0
-222 -947 252 253 0
-222 -947 -252 -253 0
222 947 -223 0
222 -947 252 -253 0
222 -947 -252 253 0
-223 946 224 0
-223 -946 247 248 0
-223 -946 -247 -248 0
223 946 -224 0
223 -946 247 -248 0
223 -946 -247 248 0
-224 945 225 0
-224 -945 242 243 0
-224 -945 -242 -243 0
224 945 -225 0
224 -945 242 -243 0
224 -945 -242 243 0
-225 944 226 0
-225 -944 237 238 0
-225 -944 -237 -238 0
225 944 -226 0
225 -944 237 -238 0
225 -944 -237 238 0
-226 943 227 0
-226 -943 233 234 0
-226 -943 -233 -234 0
226 943 -227 0
226 -943 233 -234 0
226 -943 -233 234 0
-227 942 228 0
-227 -942 229 230 0
-227 -942 -229 -230 0
227 942 -228 0
227 -942 229 -230 0
227 -942 -229 230 0
228 -937 -941 0
-228 937 0
-228 941 0
229 936 -228 0
229 -936 228 0
-229 -936 -228 0
-229 936 228 0
-230 231 232 0
230 -231 0
230 -232 0
231 -935 -936 -941 0
-231 935 0
-231 936 0
-231 941 0
232 -189 -190 0
-232 189 0
-232 190 0
233 -935 227 0
233 935 -227 0
-233 935 227 0
-233 -935 -227 0
-234 235 236 0
234 -235 0
234 -236 0
235 -934 -187 0
-235 934 0
-235 187 0
236 -194 -195 0
-236 194 0
-236 195 0
237 -934 226 0
237 934 -226 0
-237 934 226 0
-237 -934 -226 0
-238 239 240 0
238 -239 0
238 -240 0
239 -933 -186 0
-239 933 0
-239 186 0
240 -241 -200 0
-240 241 0
-240 200 0
241 -933 186 0
241 933 -186 0
-241 933 186 0
-241 -933 -186 0
242 -933 225 0
242 933 -225 0
-242 933 225 0
-242 -933 -225 0
-243 244 245 0
243 -244 0
243 -245 0
244 -932 -185 0
-244 932 0
-244 185 0
245 -246 -205 0
-245 246 0
-245 205 0
246 -932 185 0
246 932 -185 0
-246 932 185 0
-246 -932 -185 0
247 -932 224 0
247 932 -224 0
-247 932 224 0
-247 -932 -224 0
-248 249 250 0
248 -249 0
248 -250 0
249 -931 -184 0
-249 931 0
-249 184 0
250 -251 -208 0
-250 251 0
-250 208 0
251 -931 184 0
251 931 -184 0
-251 931 184 0
-251 -931 -184 0
252 -931 223 0
252 931 -223 0
-252 931 223 0
-252 -931 -223 0
-253 254 255 0
253 -254 0
253 -255 0
254 -930 -183 0
-254 930 0
-254 183 0
255 -256 -210 0
-255 256 0
-255 210 0
256 -930 183 0
256 930 -183 0
-256 930 183 0
-256 -930 -183 0
257 -930 222 0
257 930 -222 0
-257 930 222 0
-257 -930 -222 0
-258 259 260 0
258 -259 0
258 -260 0
259 -929 -182 0
-259 929 0
-259 182 0
260 -181 -214 0
-260 181 0
-260 214 0
-261 262 0
261 -262 0
-262 263 0
262 -263 0
-263 928 264 0
-263 -928 -951 -264 0
-263 951 264 0
263 928 -264 0
263 951 -264 0
263 -928 -951 264 0
-264 950 266 0
-264 929 265 266 0
-264 -929 -265 266 0
-264 929 -950 -265 -266 0
-264 -929 -950 265 -266 0
264 950 -266 0
264 -929 -265 -266 0
264 929 265 -266 0
264 929 -950 -265 266 0
264 -929 -950 265 266 0
265 -928 -219 0
-265 928 0
-265 219 0
-266 949 267 0
-266 -930 267 -302 0
-266 930 267 302 0
-266 -930 -949 -267 302 0
-266 930 -949 -267 -302 0
266 949 -267 0
266 930 -949 267 -302 0
266 930 -267 302 0
266 -930 -267 -302 0
266 -930 -949 267 302 0
-267 948 268 0
-267 -931 268 -298 0
-267 931 268 298 0
-267 -931 -948 -268 298 0
-267 931 -948 -268 -298 0
267 948 -268 0
267 931 -948 268 -298 0
267 931 -268 298 0
267 -931 -268 -298 0
267 -931 -948 268 298 0
-268 947 269 0
-268 -932 269 -294 0
-268 932 269 294 0
-268 -932 -947 -269 294 0
-268 932 -947 -269 -294 0
268 947 -269 0
268 932 -947 269 -294 0
268 932 -269 294 0
268 -932 -269 -294 0
268 -932 -947 269 294 0
-269 946 270 0
-269 -933 270 -290 0
-269 933 270 290 0
-269 -933 -946 -270 290 0
-269 933 -946 -270 -290 0
269 946 -270 0
269 933 -946 270 -290 0
269 933 -270 290 0
269 -933 -270 -290 0
269 -933 -946 270 290 0
-270 945 271 0
-270 -934 271 -287 0
-270 934 271 287 0
-270 -934 -945 -271 287 0
-270 934 -945 -271 -287 0
270 945 -271 0
270 934 -945 271 -287 0
270 934 -271 287 0
270 -934 -271 -287 0
270 -934 -945 271 287 0
-271 944 272 0
-271 -935 272 -283 0
-271 935 272 283 0
-271 -935 -944 -272 283 0
-271 935 -944 -272 -283 0
271 944 -272 0
271 935 -944 272 -283 0
271 935 -272 283 0
271 -935 -272 -283 0
271 -935 -944 272 283 0
-272 943 273 0
-272 -943 279 280 0
-272 -943 -279 -280 0
272 943 -273 0
272 -943 279 -280 0
272 -943 -279 280 0
-273 942 274 0
-273 -942 275 276 0
-273 -942 -275 -276 0
273 942 -274 0
273 -942 275 -276 0
273 -942 -275 276 0
274 -938 -941 0
-274 938 0
-274 941 0
275 937 -274 0
275 -937 274 0
-275 -937 -274 0
-275 937 274 0
-276 190 277 0
-276 277 278 0
276 -277 0
276 -190 -278 0
-277 941 0
-277 936 0
-277 935 937 0
277 -935 -936 -941 0
277 -936 -937 -941 0
278 -189 -229 0
-278 189 0
-278 229 0
279 -936 273 0
279 936 -273 0
-279 936 273 0
-279 -936 -273 0
-280 195 281 0
-280 281 282 0
280 -281 0
280 -195 -282 0
-281 235 227 0
-281 935 235 0
-281 935 227 0
281 -935 -235 0
281 -235 -227 0
281 -935 -227 0
282 -194 -233 0
-282 194 0
-282 233 0
-283 200 284 0
-283 284 286 0
283 -284 0
283 -200 -286 0
-284 285 237 0
-284 239 285 0
284 -285 0
284 -239 -237 0
285 -934 -226 0
-285 934 0
-285 226 0
286 -241 -237 0
-286 241 0
-286 237 0
-287 205 288 0
-287 288 289 0
287 -288 0
287 -205 -289 0
-288 244 225 0
-288 933 244 0
-288 933 225 0
288 -933 -244 0
288 -244 -225 0
288 -933 -225 0
289 -246 -242 0
-289 246 0
-289 242 0
-290 208 291 0
-290 291 293 0
290 -291 0
290 -208 -293 0
-291 292 247 0
-291 249 292 0
291 -292 0
291 -249 -247 0
292 -932 -224 0
-292 932 0
-292 224 0
293 -251 -247 0
-293 251 0
-293 247 0
-294 210 295 0
-294 295 297 0
294 -295 0
294 -210 -297 0
-295 296 252 0
-295 254 296 0
295 -296 0
295 -254 -252 0
296 -931 -223 0
-296 931 0
-296 223 0
297 -256 -252 0
-297 256 0
-297 252 0
-298 181 299 0
-298 299 301 0
298 -299 0
298 -181 -301 0
-299 300 257 0
-299 259 300 0
299 -300 0
299 -259 -257 0
300 -930 -222 0
-300 930 0
-300 222 0
301 -214 -257 0
-301 214 0
-301 257 0
-302 303 304 0
302 -303 0
302 -304 0
303 -929 -221 0
-303 929 0
-303 221 0
304 -220 -305 0
-304 220 0
-304 305 0
305 -929 221 0
305 929 -221 0
-305 929 221 0
-305 -929 -221 0
-306 307 0
306 -307 0
-307 928 308 0
-307 -928 -952 -308 0
-307 952 308 0
307 928 -308 0
307 952 -308 0
307 -928 -952 308 0
-308 951 310 0
-308 929 309 310 0
-308 -929 -309 310 0
-308 929 -951 -309 -310 0
-308 -929 -951 309 -310 0
308 951 -310 0
308 -929 -309 -310 0
308 929 309 -310 0
308 929 -951 -309 310 0
308 -929 -951 309 310 0
309 -928 -264 0
-309 928 0
-309 264 0
-310 950 311 0
-310 -950 358 359 0
-310 -950 -358 -359 0
310 950 -311 0
310 -950 358 -359 0
310 -950 -358 359 0
-311 949 312 0
-311 -949 353 354 0
-311 -949 -353 -354 0
311 949 -312 0
311 -949 353 -354 0
311 -949 -353 354 0
-312 948 313 0
-312 -948 348 349 0
-312 -948 -348 -349 0
312 948 -313 0
312 -948 348 -349 0
312 -948 -348 349 0
-313 947 314 0
-313 -947 343 344 0
-313 -947 -343 -344 0
313 947 -314 0
313 -947 343 -344 0
313 -947 -343 344 0
-314 946 315 0
-314 -946 338 339 0
-314 -946 -338 -339 0
314 946 -315 0
314 -946 338 -339 0
314 -946 -338 339 0
-315 945 316 0
-315 -945 333 334 0
-315 -945 -333 -334 0
315 945 -316 0
315 -945 333 -334 0
315 -945 -333 334 0
-316 944 317 0
-316 -944 328 329 0
-316 -944 -328 -329 0
316 944 -317 0
316 -944 328 -329 0
316 -944 -328 329 0
-317 943 318 0
-317 -943 324 325 0
-317 -943 -324 -325 0
317 943 -318 0
317 -943 324 -325 0
317 -943 -324 325 0
-318 942 319 0
-318 -942 320 321 0
-318 -942 -320 -321 0
318 942 -319 0
318 -942 320 -321 0
318 -942 -320 321 0
319 -939 -941 0
-319 939 0
-319 941 0
320 938 -319 0
320 -938 319 0
-320 -938 -319 0
-320 938 319 0
-321 322 323 0
321 -322 0
321 -323 0
322 -937 -938 -941 0
-322 937 0
-322 938 0
-322 941 0
323 -275 -276 0
-323 275 0
-323 276 0
324 -937 318 0
324 937 -318 0
-324 937 318 0
-324 -937 -318 0
-325 326 327 0
325 -326 0
325 -327 0
326 -936 -273 0
-326 936 0
-326 273 0
327 -279 -280 0
-327 279 0
-327 280 0
328 -936 317 0
328 936 -317 0
-328 936 317 0
-328 -936 -317 0
-329 330 331 0
329 -330 0
329 -331 0
330 -935 -272 0
-330 935 0
-330 272 0
331 -332 -283 0
-331 332 0
-331 283 0
332 -935 272 0
332 935 -272 0
-332 935 272 0
-332 -935 -272 0
333 -935 316 0
333 935 -316 0
-333 935 316 0
-333 -935 -316 0
-334 335 336 0
334 -335 0
334 -336 0
335 -934 -271 0
-335 934 0
-335 271 0
336 -337 -287 0
-336 337 0
-336 287 0
337 -934 271 0
337 934 -271 0
-337 934 271 0
-337 -934 -271 0
338 -934 315 0
338 934 -315 0
-338 934 315 0
-338 -934 -315 0
-339 340 341 0
339 -340 0
339 -341 0
340 -933 -270 0
-340 933 0
-340 270 0
341 -342 -290 0
-341 342 0
-341 290 0
342 -933 270 0
342 933 -270 0
-342 933 270 0
-342 -933 -270 0
343 -933 314 0
343 933 -314 0
-343 933 314 0
-343 -933 -314 0
-344 345 346 0
344 -345 0
344 -346 0
345 -932 -269 0
-345 932 0
-345 269 0
346 -347 -294 0
-346 347 0
-346 294 0
347 -932 269 0
347 932 -269 0
-347 932 269 0
-347 -932 -269 0
348 -932 313 0
348 932 -313 0
-348 932 313 0
-348 -932 -313 0
-349 350 351 0
349 -350 0
349 -351 0
350 -931 -268 0
-350 931 0
-350 268 0
351 -352 -298 0
-351 352 0
-351 298 0
352 -931 268 0
352 931 -268 0
-352 931 268 0
-352 -931 -268 0
353 -931 312 0
353 931 -312 0
-353 931 312 0
-353 -931 -312 0
-354 355 356 0
354 -355 0
354 -356 0
355 -930 -267 0
-355 930 0
-355 267 0
356 -357 -302 0
-356 357 0
-356 302 0
357 -930 267 0
357 930 -267 0
-357 930 267 0
-357 -930 -267 0
358 -930 311 0
358 930 -311 0
-358 930 311 0
-358 -930 -311 0
-359 360 361 0
359 -360 0
359 -361 0
360 -929 -266 0
-360 929 0
-360 266 0
361 -265 -362 0
-361 265 0
-361 362 0
362 -929 266 0
362 929 -266 0
-362 929 266 0
-362 -929 -266 0
-363 928 364 0
-363 -928 -953 -364 0
-363 953 364 0
363 928 -364 0
363 953 -364 0
363 -928 -953 364 0
-364 952 366 0
-364 -952 -365 -428 0
-364 -952 365 428 0
364 952 -366 0
364 -952 -365 428 0
364 -952 365 -428 0
365 -928 -308 0
-365 928 0
-365 308 0
-366 951 367 0
-366 -930 367 -424 0
-366 930 367 424 0
-366 -930 -951 -367 424 0
-366 930 -951 -367 -424 0
366 951 -367 0
366 930 -951 367 -424 0
366 930 -367 424 0
366 -930 -367 -424 0
366 -930 -951 367 424 0
-367 950 368 0
-367 -931 368 -421 0
-367 931 368 421 0
-367 -931 -950 -368 421 0
-367 931 -950 -368 -421 0
367 950 -368 0
367 931 -950 368 -421 0
367 931 -368 421 0
367 -931 -368 -421 0
367 -931 -950 368 421 0
-368 949 369 0
-368 -932 369 -418 0
-368 932 369 418 0
-368 -932 -949 -369 418 0
-368 932 -949 -369 -418 0
368 949 -369 0
368 932 -949 369 -418 0
368 932 -369 418 0
368 -932 -369 -418 0
368 -932 -949 369 418 0
-369 948 370 0
-369 -933 370 -412 0
-369 933 370 412 0
-369 -933 -948 -370 412 0
-369 933 -948 -370 -412 0
369 948 -370 0
369 933 -948 370 -412 0
369 933 -370 412 0
369 -933 -370 -412 0
369 -933 -948 370 412 0
-370 947 371 0
-370 -934 371 -406 0
-370 934 371 406 0
-370 -934 -947 -371 406 0
-370 934 -947 -371 -406 0
370 947 -371 0
370 934 -947 371 -406 0
370 934 -371 406 0
370 -934 -371 -406 0
370 -934 -947 371 406 0
-371 946 372 0
-371 -935 372 -400 0
-371 935 372 400 0
-371 -935 -946 -372 400 0
-371 935 -946 -372 -400 0
371 946 -372 0
371 935 -946 372 -400 0
371 935 -372 400 0
371 -935 -372 -400 0
371 -935 -946 372 400 0
-372 945 373 0
-372 -936 373 -394 0
-372 936 373 394 0
-372 -936 -945 -373 394 0
-372 936 -945 -373 -394 0
372 945 -373 0
372 936 -945 373 -394 0
372 936 -373 394 0
372 -936 -373 -394 0
372 -936 -945 373 394 0
-373 944 374 0
-373 -937 374 -388 0
-373 937 374 388 0
-373 -937 -944 -374 388 0
-373 937 -944 -374 -388 0
373 944 -374 0
373 937 -944 374 -388 0
373 937 -374 388 0
373 -937 -374 -388 0
373 -937 -944 374 388 0
-374 943 375 0
-374 -943 382 383 0
-374 -943 -382 -383 0
374 943 -375 0
374 -943 382 -383 0
374 -943 -382 383 0
-375 942 376 0
-375 -942 377 378 0
-375 -942 -377 -378 0
375 942 -376 0
375 -942 377 -378 0
375 -942 -377 378 0
376 -940 -941 0
-376 940 0
-376 941 0
377 939 -376 0
377 -939 376 0
-377 -939 -376 0
-377 939 376 0
-378 278 380 0
-378 379 380 0
-378 190 380 0
378 -380 0
378 -190 -278 -379 0
379 -275 -320 0
-379 275 0
-379 320 0
-380 277 381 0
-380 381 379 0
380 -381 0
380 -277 -379 0
-381 941 0
-381 938 0
-381 937 939 0
381 -937 -938 -941 0
381 -938 -939 -941 0
382 -938 375 0
382 938 -375 0
-382 938 375 0
-382 -938 -375 0
-383 282 385 0
-383 384 385 0
-383 195 385 0
383 -385 0
383 -195 -282 -384 0
384 -279 -324 0
-384 279 0
-384 324 0
-385 326 386 387 0
-385 386 324 387 0
385 -387 0
385 -386 0
385 -326 -324 0
386 -937 -318 0
-386 937 0
-386 318 0
387 -281 -384 0
-387 281 0
-387 384 0
-388 200 389 0
-388 389 393 0
388 -389 0
388 -200 -393 0
-389 330 390 391 0
-389 390 328 391 0
389 -391 0
389 -390 0
389 -330 -328 0
390 -936 -317 0
-390 936 0
-390 317 0
391 -284 -392 0
-391 284 0
-391 392 0
392 -332 -328 0
-392 332 0
-392 328 0
393 -286 -392 0
-393 286 0
-393 392 0
-394 205 395 0
-394 395 399 0
394 -395 0
394 -205 -399 0
-395 288 396 397 0
-395 396 397 398 0
395 -397 0
395 -396 0
395 -288 -398 0
396 -935 -316 0
-396 935 0
-396 316 0
397 -335 -333 0
-397 335 0
-397 333 0
398 -337 -333 0
-398 337 0
-398 333 0
399 -289 -398 0
-399 289 0
-399 398 0
-400 208 401 0
-400 401 405 0
400 -401 0
400 -208 -405 0
-401 291 402 403 0
-401 402 403 404 0
401 -403 0
401 -402 0
401 -291 -404 0
402 -934 -315 0
-402 934 0
-402 315 0
403 -340 -338 0
-403 340 0
-403 338 0
404 -342 -338 0
-404 342 0
-404 338 0
405 -293 -404 0
-405 293 0
-405 404 0
-406 210 407 0
-406 407 411 0
406 -407 0
406 -210 -411 0
-407 295 408 409 0
-407 408 409 410 0
407 -409 0
407 -408 0
407 -295 -410 0
408 -933 -314 0
-408 933 0
-408 314 0
409 -345 -343 0
-409 345 0
-409 343 0
410 -347 -343 0
-410 347 0
-410 343 0
411 -297 -410 0
-411 297 0
-411 410 0
-412 181 413 0
-412 413 417 0
412 -413 0
412 -181 -417 0
-413 299 414 415 0
-413 414 415 416 0
413 -415 0
413 -414 0
413 -299 -416 0
414 -932 -313 0
-414 932 0
-414 313 0
415 -350 -348 0
-415 350 0
-415 348 0
416 -352 -348 0
-416 352 0
-416 348 0
417 -301 -416 0
-417 301 0
-417 416 0
-418 357 419 0
-418 302 419 0
-418 353 419 0
418 -419 0
418 -357 -302 -353 0
-419 420 353 0
-419 355 420 0
419 -420 0
419 -355 -353 0
420 -931 -312 0
-420 931 0
-420 312 0
-421 362 422 0
-421 265 422 0
-421 358 422 0
421 -422 0
421 -265 -362 -358 0
-422 423 358 0
-422 360 423 0
422 -423 0
422 -360 -358 0
423 -930 -311 0
-423 930 0
-423 311 0
-424 425 426 0
424 -425 0
424 -426 0
425 -929 -310 0
-425 929 0
-425 310 0
426 -309 -427 0
-426 309 0
-426 427 0
427 -929 310 0
427 929 -310 0
-427 929 310 0
-427 -929 -310 0
428 -929 366 0
428 929 -366 0
-428 929 366 0
-428 -929 -366 0
-429 953 431 0
-429 929 430 431 0
-429 -929 -430 431 0
-429 929 -953 -430 -431 0
-429 -929 -953 430 -431 0
429 953 -431 0
429 -929 -430 -431 0
429 929 430 -431 0
429 929 -953 -430 431 0
429 -929 -953 430 431 0
430 -928 -364 0
-430 928 0
-430 364 0
-431 952 432 0
-431 -952 489 490 0
-431 -952 -489 -490 0
431 952 -432 0
431 -952 489 -490 0
431 -952 -489 490 0
-432 951 433 0
-432 -951 484 485 0
-432 -951 -484 -485 0
432 951 -433 0
432 -951 484 -485 0
432 -951 -484 485 0
-433 950 434 0
-433 -950 479 480 0
-433 -950 -479 -480 0
433 950 -434 0
433 -950 479 -480 0
433 -950 -479 480 0
-434 949 435 0
-434 -949 474 475 0
-434 -949 -474 -475 0
434 949 -435 0
434 -949 474 -475 0
434 -949 -474 475 0
-435 948 436 0
-435 -948 469 470 0
-435 -948 -469 -470 0
435 948 -436 0
435 -948 469 -470 0
435 -948 -469 470 0
-436 947 437 0
-436 -947 464 465 0
-436 -947 -464 -465 0
436 947 -437 0
436 -947 464 -465 0
436 -947 -464 465 0
-437 946 438 0
-437 -946 459 460 0
-437 -946 -459 -460 0
437 946 -438 0
437 -946 459 -460 0
437 -946 -459 460 0
-438 945 439 0
-438 -945 454 455 0
-438 -945 -454 -455 0
438 945 -439 0
438 -945 454 -455 0
438 -945 -454 455 0
-439 944 440 0
-439 -944 449 450 0
-439 -944 -449 -450 0
439 944 -440 0
439 -944 449 -450 0
439 -944 -449 450 0
-440 943 441 0
-440 -943 445 446 0
-440 -943 -445 -446 0
440 943 -441 0
440 -943 445 -446 0
440 -943 -445 446 0
441 940 -942 -442 0
441 -940 -942 442 0
-441 942 0
-441 -940 -442 0
-441 940 442 0
-442 443 444 0
442 -443 0
442 -444 0
443 -939 -940 -941 0
-443 939 0
-443 940 0
-443 941 0
444 -377 -378 0
-444 377 0
-444 378 0
445 939 -441 0
445 -939 441 0
-445 -939 -441 0
-445 939 441 0
-446 447 448 0
446 -447 0
446 -448 0
447 -938 -375 0
-447 938 0
-447 375 0
448 -382 -383 0
-448 382 0
-448 383 0
449 -938 440 0
449 938 -440 0
-449 938 440 0
-449 -938 -440 0
-450 451 452 0
450 -451 0
450 -452 0
451 -937 -374 0
-451 937 0
-451 374 0
452 -453 -388 0
-452 453 0
-452 388 0
453 -937 374 0
453 937 -374 0
-453 937 374 0
-453 -937 -374 0
454 -937 439 0
454 937 -439 0
-454 937 439 0
-454 -937 -439 0
-455 456 457 0
455 -456 0
455 -457 0
456 -936 -373 0
-456 936 0
-456 373 0
457 -458 -394 0
-457 458 0
-457 394 0
458 -936 373 0
458 936 -373 0
-458 936 373 0
-458 -936 -373 0
459 -936 438 0
459 936 -438 0
-459 936 438 0
-459 -936 -438 0
-460 461 462 0
460 -461 0
460 -462 0
461 -935 -372 0
-461 935 0
-461 372 0
462 -463 -400 0
-462 463 0
-462 400 0
463 -935 372 0
463 935 -372 0
-463 935 372 0
-463 -935 -372 0
464 -935 437 0
464 935 -437 0
-464 935 437 0
-464 -935 -437 0
-465 466 467 0
465 -466 0
465 -467 0
466 -934 -371 0
-466 934 0
-466 371 0
467 -468 -406 0
-467 468 0
-467 406 0
468 -934 371 0
468 934 -371 0
-468 934 371 0
-468 -934 -371 0
469 -934 436 0
469 934 -436 0
-469 934 436 0
-469 -934 -436 0
-470 471 472 0
470 -471 0
470 -472 0
471 -933 -370 0
-471 933 0
-471 370 0
472 -473 -412 0
-472 473 0
-472 412 0
473 -933 370 0
473 933 -370 0
-473 933 370 0
-473 -933 -370 0
474 -933 435 0
474 933 -435 0
-474 933 435 0
-474 -933 -435 0
-475 476 477 0
475 -476 0
475 -477 0
476 -932 -369 0
-476 932 0
-476 369 0
477 -478 -418 0
-477 478 0
-477 418 0
478 -932 369 0
478 932 -369 0
-478 932 369 0
-478 -932 -369 0
479 -932 434 0
479 932 -434 0
-479 932 434 0
-479 -932 -434 0
-480 481 482 0
480 -481 0
480 -482 0
481 -931 -368 0
-481 931 0
-481 368 0
482 -483 -421 0
-482 483 0
-482 421 0
483 -931 368 0
483 931 -368 0
-483 931 368 0
-483 -931 -368 0
484 -931 433 0
484 931 -433 0
-484 931 433 0
-484 -931 -433 0
-485 486 487 0
485 -486 0
485 -487 0
486 -930 -367 0
-486 930 0
-486 367 0
487 -488 -424 0
-487 488 0
-487 424 0
488 -930 367 0
488 930 -367 0
-488 930 367 0
-488 -930 -367 0
489 -930 432 0
489 930 -432 0
-489 930 432 0
-489 -930 -432 0
-490 491 492 0
490 -491 0
490 -492 0
491 -929 -366 0
-491 929 0
-491 366 0
492 -365 -428 0
-492 365 0
-492 428 0
-493 953 494 0
-493 -930 494 -539 0
-493 930 494 539 0
-493 -930 -953 -494 539 0
-493 930 -953 -494 -539 0
493 953 -494 0
493 930 -953 494 -539 0
493 930 -494 539 0
493 -930 -494 -539 0
493 -930 -953 494 539 0
-494 952 495 0
-494 -931 495 -536 0
-494 931 495 536 0
-494 -931 -952 -495 536 0
-494 931 -952 -495 -536 0
494 952 -495 0
494 931 -952 495 -536 0
494 931 -495 536 0
494 -931 -495 -536 0
494 -931 -952 495 536 0
-495 951 496 0
-495 -932 496 -533 0
-495 932 496 533 0
-495 -932 -951 -496 533 0
-495 932 -951 -496 -533 0
495 951 -496 0
495 932 -951 496 -533 0
495 932 -496 533 0
495 -932 -496 -533 0
495 -932 -951 496 533 0
-496 950 497 0
-496 -933 497 -530 0
-496 933 497 530 0
-496 -933 -950 -497 530 0
-496 933 -950 -497 -530 0
496 950 -497 0
496 933 -950 497 -530 0
496 933 -497 530 0
496 -933 -497 -530 0
496 -933 -950 497 530 0
-497 949 498 0
-497 -934 498 -526 0
-497 934 498 526 0
-497 -934 -949 -498 526 0
-497 934 -949 -498 -526 0
497 949 -498 0
497 934 -949 498 -526 0
497 934 -498 526 0
497 -934 -498 -526 0
497 -934 -949 498 526 0
-498 948 499 0
-498 -935 499 -522 0
-498 935 499 522 0
-498 -935 -948 -499 522 0
-498 935 -948 -499 -522 0
498 948 -499 0
498 935 -948 499 -522 0
498 935 -499 522 0
498 -935 -499 -522 0
498 -935 -948 499 522 0
-499 947 500 0
-499 -936 500 -519 0
-499 936 500 519 0
-499 -936 -947 -500 519 0
-499 936 -947 -500 -519 0
499 947 -500 0
499 936 -947 500 -519 0
499 936 -500 519 0
499 -936 -500 -519 0
499 -936 -947 500 519 0
-500 946 501 0
-500 -937 501 -516 0
-500 937 501 516 0
-500 -937 -946 -501 516 0
-500 937 -946 -501 -516 0
500 946 -501 0
500 937 -946 501 -516 0
500 937 -501 516 0
500 -937 -501 -516 0
500 -937 -946 501 516 0
-501 945 502 0
-501 -938 502 -513 0
-501 938 502 513 0
-501 -938 -945 -502 513 0
-501 938 -945 -502 -513 0
501 945 -502 0
501 938 -945 502 -513 0
501 938 -502 513 0
501 -938 -502 -513 0
501 -938 -945 502 513 0
-502 944 503 0
-502 -939 503 -509 0
-502 939 503 509 0
-502 -939 -944 -503 509 0
-502 939 -944 -503 -509 0
502 944 -503 0
502 939 -944 503 -509 0
502 939 -503 509 0
502 -939 -503 -509 0
502 -939 -944 503 509 0
-503 943 504 0
-503 940 -943 -504 -506 0
-503 940 504 506 0
-503 -940 504 -506 0
-503 -940 -943 -504 506 0
503 943 -504 0
503 -940 -504 -506 0
503 940 -504 506 0
503 -940 -943 504 506 0
503 940 -943 504 -506 0
504 -942 -505 0
-504 942 0
-504 505 0
-505 939 378 0
-505 941 378 0
-505 940 0
-505 939 941 0
505 -939 -940 -378 0
505 -940 -941 -378 0
505 -939 -940 -941 0
-506 382 507 0
-506 383 507 0
-506 445 507 0
506 -507 0
506 -382 -383 -445 0
-507 508 445 0
-507 447 508 0
507 -508 0
507 -447 -445 0
508 -939 -441 0
-508 939 0
-508 441 0
-509 388 510 0
-509 510 512 0
509 -510 0
509 -388 -512 0
-510 511 449 0
-510 451 511 0
510 -511 0
510 -451 -449 0
511 -938 -440 0
-511 938 0
-511 440 0
512 -453 -449 0
-512 453 0
-512 449 0
-513 394 514 0
-513 514 515 0
513 -514 0
513 -394 -515 0
-514 456 439 0
-514 937 456 0
-514 937 439 0
514 -937 -456 0
514 -456 -439 0
514 -937 -439 0
515 -458 -454 0
-515 458 0
-515 454 0
-516 400 517 0
-516 517 518 0
516 -517 0
516 -400 -518 0
-517 461 438 0
-517 936 461 0
-517 936 438 0
517 -936 -461 0
517 -461 -438 0
517 -936 -438 0
518 -463 -459 0
-518 463 0
-518 459 0
-519 406 520 0
-519 520 521 0
519 -520 0
519 -406 -521 0
-520 466 437 0
-520 935 466 0
-520 935 437 0
520 -935 -466 0
520 -466 -437 0
520 -935 -437 0
521 -468 -464 0
-521 468 0
-521 464 0
-522 412 523 0
-522 523 525 0
522 -523 0
522 -412 -525 0
-523 524 469 0
-523 471 524 0
523 -524 0
523 -471 -469 0
524 -934 -436 0
-524 934 0
-524 436 0
525 -473 -469 0
-525 473 0
-525 469 0
-526 418 527 0
-526 527 529 0
526 -527 0
526 -418 -529 0
-527 528 474 0
-527 476 528 0
527 -528 0
527 -476 -474 0
528 -933 -435 0
-528 933 0
-528 435 0
529 -478 -474 0
-529 478 0
-529 474 0
-530 421 531 0
-530 531 532 0
530 -531 0
530 -421 -532 0
-531 481 434 0
-531 932 481 0
-531 932 434 0
531 -932 -481 0
531 -481 -434 0
531 -932 -434 0
532 -483 -479 0
-532 483 0
-532 479 0
-533 424 534 0
-533 534 535 0
533 -534 0
533 -424 -535 0
-534 486 433 0
-534 931 486 0
-534 931 433 0
534 -931 -486 0
534 -486 -433 0
534 -931 -433 0
535 -488 -484 0
-535 488 0
-535 484 0
-536 365 537 0
-536 537 538 0
536 -537 0
536 -365 -538 0
-537 491 432 0
-537 930 491 0
-537 930 432 0
537 -930 -491 0
537 -491 -432 0
537 -930 -432 0
538 -428 -489 0
-538 428 0
-538 489 0
-539 540 541 0
539 -540 0
539 -541 0
540 -929 -431 0
-540 929 0
-540 431 0
541 -430 -542 0
-541 430 0
-541 542 0
542 -929 431 0
542 929 -431 0
-542 929 431 0
-542 -929 -431 0
-543 953 544 0
-543 -953 602 603 0
-543 -953 -602 -603 0
543 953 -544 0
543 -953 602 -603 0
543 -953 -602 603 0
-544 952 545 0
-544 -952 597 598 0
-544 -952 -597 -598 0
544 952 -545 0
544 -952 597 -598 0
544 -952 -597 598 0
-545 951 546 0
-545 -951 592 593 0
-545 -951 -592 -593 0
545 951 -546 0
545 -951 592 -593 0
545 -951 -592 593 0
-546 950 547 0
-546 -950 587 588 0
-546 -950 -587 -588 0
546 950 -547 0
546 -950 587 -588 0
546 -950 -587 588 0
-547 949 548 0
-547 -949 582 583 0
-547 -949 -582 -583 0
547 949 -548 0
547 -949 582 -583 0
547 -949 -582 583 0
-548 948 549 0
-548 -948 577 578 0
-548 -948 -577 -578 0
548 948 -549 0
548 -948 577 -578 0
548 -948 -577 578 0
-549 947 550 0
-549 -947 572 573 0
-549 -947 -572 -573 0
549 947 -550 0
549 -947 572 -573 0
549 -947 -572 573 0
-550 946 551 0
-550 -946 567 568 0
-550 -946 -567 -568 0
550 946 -551 0
550 -946 567 -568 0
550 -946 -567 568 0
-551 945 552 0
-551 -945 562 563 0
-551 -945 -562 -563 0
551 945 -552 0
551 -945 562 -563 0
551 -945 -562 563 0
-552 944 553 0
-552 -944 557 558 0
-552 -944 -557 -558 0
552 944 -553 0
552 -944 557 -558 0
552 -944 -557 558 0
553 -943 -554 0
553 -943 -555 0
-553 943 0
-553 554 555 0
554 -940 -504 0
-554 940 0
-554 504 0
555 -556 -506 0
-555 556 0
-555 506 0
556 940 -504 0
556 -940 504 0
-556 -940 -504 0
-556 940 504 0
557 940 -553 0
557 -940 553 0
-557 -940 -553 0
-557 940 553 0
-558 559 560 0
558 -559 0
558 -560 0
559 -939 -503 0
-559 939 0
-559 503 0
560 -561 -509 0
-560 561 0
-560 509 0
561 -939 503 0
561 939 -503 0
-561 939 503 0
-561 -939 -503 0
562 -939 552 0
562 939 -552 0
-562 939 552 0
-562 -939 -552 0
-563 564 565 0
563 -564 0
563 -565 0
564 -938 -502 0
-564 938 0
-564 502 0
565 -566 -513 0
-565 566 0
-565 513 0
566 -938 502 0
566 938 -502 0
-566 938 502 0
-566 -938 -502 0
567 -938 551 0
567 938 -551 0
-567 938 551 0
-567 -938 -551 0
-568 569 570 0
568 -569 0
568 -570 0
569 -937 -501 0
-569 937 0
-569 501 0
570 -571 -516 0
-570 571 0
-570 516 0
571 -937 501 0
571 937 -501 0
-571 937 501 0
-571 -937 -501 0
572 -937 550 0
572 937 -550 0
-572 937 550 0
-572 -937 -550 0
-573 574 575 0
573 -574 0
573 -575 0
574 -936 -500 0
-574 936 0
-574 500 0
575 -576 -519 0
-575 576 0
-575 519 0
576 -936 500 0
576 936 -500 0
-576 936 500 0
-576 -936 -500 0
577 -936 549 0
577 936 -549 0
-577 936 549 0
-577 -936 -549 0
-578 579 580 0
578 -579 0
578 -580 0
579 -935 -499 0
-579 935 0
-579 499 0
580 -581 -522 0
-580 581 0
-580 522 0
581 -935 499 0
581 935 -499 0
-581 935 499 0
-581 -935 -499 0
582 -935 548 0
582 935 -548 0
-582 935 548 0
-582 -935 -548 0
-583 584 585 0
583 -584 0
583 -585 0
584 -934 -498 0
-584 934 0
-584 498 0
585 -586 -526 0
-585 586 0
-585 526 0
586 -934 498 0
586 934 -498 0
-586 934 498 0
-586 -934 -498 0
587 -934 547 0
587 934 -547 0
-587 934 547 0
-587 -934 -547 0
-588 589 590 0
588 -589 0
588 -590 0
589 -933 -497 0
-589 933 0
-589 497 0
590 -591 -530 0
-590 591 0
-590 530 0
591 -933 497 0
591 933 -497 0
-591 933 497 0
-591 -933 -497 0
592 -933 546 0
592 933 -546 0
-592 933 546 0
-592 -933 -546 0
-593 594 595 0
593 -594 0
593 -595 0
594 -932 -496 0
-594 932 0
-594 496 0
595 -596 -533 0
-595 596 0
-595 533 0
596 -932 496 0
596 932 -496 0
-596 932 496 0
-596 -932 -496 0
597 -932 545 0
597 932 -545 0
-597 932 545 0
-597 -932 -545 0
-598 599 600 0
598 -599 0
598 -600 0
599 -931 -495 0
-599 931 0
-599 495 0
600 -601 -536 0
-600 601 0
-600 536 0
601 -931 495 0
601 931 -495 0
-601 931 495 0
-601 -931 -495 0
602 -931 544 0
602 931 -544 0
-602 931 544 0
-602 -931 -544 0
-603 604 605 0
603 -604 0
603 -605 0
604 -930 -494 0
-604 930 0
-604 494 0
605 -606 -539 0
-605 606 0
-605 539 0
606 -930 494 0
606 930 -494 0
-606 930 494 0
-606 -930 -494 0
-607 953 608 0
-607 -932 608 -672 0
-607 932 608 672 0
-607 -932 -953 -608 672 0
-607 932 -953 -608 -672 0
607 953 -608 0
607 932 -953 608 -672 0
607 932 -608 672 0
607 -932 -608 -672 0
607 -932 -953 608 672 0
-608 952 609 0
-608 -933 609 -667 0
-608 933 609 667 0
-608 -933 -952 -609 667 0
-608 933 -952 -609 -667 0
608 952 -609 0
608 933 -952 609 -667 0
608 933 -609 667 0
608 -933 -609 -667 0
608 -933 -952 609 667 0
-609 951 610 0
-609 -934 610 -662 0
-609 934 610 662 0
-609 -934 -951 -610 662 0
-609 934 -951 -610 -662 0
609 951 -610 0
609 934 -951 610 -662 0
609 934 -610 662 0
609 -934 -610 -662 0
609 -934 -951 610 662 0
-610 950 611 0
-610 -935 611 -657 0
-610 935 611 657 0
-610 -935 -950 -611 657 0
-610 935 -950 -611 -657 0
610 950 -611 0
610 935 -950 611 -657 0
610 935 -611 657 0
610 -935 -611 -657 0
610 -935 -950 611 657 0
-611 949 612 0
-611 -936 612 -652 0
-611 936 612 652 0
-611 -936 -949 -612 652 0
-611 936 -949 -612 -652 0
611 949 -612 0
611 936 -949 612 -652 0
611 936 -612 652 0
611 -936 -612 -652 0
611 -936 -949 612 652 0
-612 948 613 0
-612 -937 613 -645 0
-612 937 613 645 0
-612 -937 -948 -613 645 0
-612 937 -948 -613 -645 0
612 948 -613 0
612 937 -948 613 -645 0
612 937 -613 645 0
612 -937 -613 -645 0
612 -937 -948 613 645 0
-613 947 614 0
-613 -938 614 -638 0
-613 938 614 638 0
-613 -938 -947 -614 638 0
-613 938 -947 -614 -638 0
613 947 -614 0
613 938 -947 614 -638 0
613 938 -614 638 0
613 -938 -614 -638 0
613 -938 -947 614 638 0
-614 946 615 0
-614 -939 615 -631 0
-614 939 615 631 0
-614 -939 -946 -615 631 0
-614 939 -946 -615 -631 0
614 946 -615 0
614 939 -946 615 -631 0
614 939 -615 631 0
614 -939 -615 -631 0
614 -939 -946 615 631 0
-615 945 616 0
-615 940 -945 -616 -624 0
-615 940 616 624 0
-615 -940 616 -624 0
-615 -940 -945 -616 624 0
615 945 -616 0
615 -940 -616 -624 0
615 940 -616 624 0
615 -940 -945 616 624 0
615 940 -945 616 -624 0
616 -944 -617 0
616 -944 -200 -623 0
-616 944 0
-616 200 617 0
-616 617 623 0
-617 389 618 620 0
-617 618 620 622 0
617 -618 0
617 -620 0
617 -389 -622 0
-618 619 557 0
-618 559 619 0
618 -619 0
618 -559 -557 0
619 -940 -553 0
-619 940 0
-619 553 0
620 -510 -621 0
-620 510 0
-620 621 0
621 -561 -557 0
-621 561 0
-621 557 0
622 -512 -621 0
-622 512 0
-622 621 0
623 -393 -622 0
-623 393 0
-623 622 0
-624 399 627 0
-624 625 627 0
-624 205 627 0
624 -627 0
624 -205 -399 -625 0
625 -515 -626 0
-625 515 0
-625 626 0
626 -566 -562 0
-626 566 0
-626 562 0
-627 395 628 630 0
-627 628 630 625 0
627 -628 0
627 -630 0
627 -395 -625 0
-628 629 562 0
-628 564 629 0
628 -629 0
628 -564 -562 0
629 -939 -552 0
-629 939 0
-629 552 0
630 -514 -626 0
-630 514 0
-630 626 0
-631 405 634 0
-631 632 634 0
-631 208 634 0
631 -634 0
631 -208 -405 -632 0
632 -518 -633 0
-632 518 0
-632 633 0
633 -571 -567 0
-633 571 0
-633 567 0
-634 401 635 0
-634 635 632 0
634 -635 0
634 -401 -632 0
-635 517 636 637 0
-635 636 637 633 0
635 -637 0
635 -636 0
635 -517 -633 0
636 -938 -551 0
-636 938 0
-636 551 0
637 -569 -567 0
-637 569 0
-637 567 0
-638 411 641 0
-638 639 641 0
-638 210 641 0
638 -641 0
638 -210 -411 -639 0
639 -521 -640 0
-639 521 0
-639 640 0
640 -576 -572 0
-640 576 0
-640 572 0
-641 407 642 0
-641 642 639 0
641 -642 0
641 -407 -639 0
-642 520 643 644 0
-642 643 644 640 0
642 -644 0
642 -643 0
642 -520 -640 0
643 -937 -550 0
-643 937 0
-643 550 0
644 -574 -572 0
-644 574 0
-644 572 0
-645 417 648 0
-645 181 648 0
-645 646 648 0
645 -648 0
645 -181 -417 -646 0
646 -525 -647 0
-646 525 0
-646 647 0
647 -581 -577 0
-647 581 0
-647 577 0
-648 413 649 651 0
-648 649 651 646 0
648 -649 0
648 -651 0
648 -413 -646 0
-649 650 577 0
-649 579 650 0
649 -650 0
649 -579 -577 0
650 -936 -549 0
-650 936 0
-650 549 0
651 -523 -647 0
-651 523 0
-651 647 0
-652 529 654 0
-652 653 654 0
-652 418 654 0
652 -654 0
652 -418 -529 -653 0
653 -586 -582 0
-653 586 0
-653 582 0
-654 584 655 656 0
-654 655 582 656 0
654 -656 0
654 -655 0
654 -584 -582 0
655 -935 -548 0
-655 935 0
-655 548 0
656 -527 -653 0
-656 527 0
-656 653 0
-657 532 659 0
-657 658 659 0
-657 421 659 0
657 -659 0
657 -421 -532 -658 0
658 -591 -587 0
-658 591 0
-658 587 0
-659 589 660 661 0
-659 660 587 661 0
659 -661 0
659 -660 0
659 -589 -587 0
660 -934 -547 0
-660 934 0
-660 547 0
661 -531 -658 0
-661 531 0
-661 658 0
-662 535 664 0
-662 663 664 0
-662 424 664 0
662 -664 0
662 -424 -535 -663 0
663 -596 -592 0
-663 596 0
-663 592 0
-664 534 665 666 0
-664 665 666 663 0
664 -666 0
664 -665 0
664 -534 -663 0
665 -933 -546 0
-665 933 0
-665 546 0
666 -594 -592 0
-666 594 0
-666 592 0
-667 538 669 0
-667 365 669 0
-667 668 669 0
667 -669 0
667 -365 -538 -668 0
668 -601 -597 0
-668 601 0
-668 597 0
-669 599 670 671 0
-669 670 597 671 0
669 -671 0
669 -670 0
669 -599 -597 0
670 -932 -545 0
-670 932 0
-670 545 0
671 -537 -668 0
-671 537 0
-671 668 0
-672 931 604 673 0
-672 604 544 673 0
-672 931 544 673 0
672 -931 -604 0
672 -604 -544 0
672 -673 0
672 -931 -544 0
673 -606 -539 -602 0
-673 606 0
-673 539 0
-673 602 0
-674 953 675 0
-674 -953 717 718 0
-674 -953 -717 -718 0
674 953 -675 0
674 -953 717 -718 0
674 -953 -717 718 0
-675 952 676 0
-675 -952 712 713 0
-675 -952 -712 -713 0
675 952 -676 0
675 -952 712 -713 0
675 -952 -712 713 0
-676 951 677 0
-676 -951 707 708 0
-676 -951 -707 -708 0
676 951 -677 0
676 -951 707 -708 0
676 -951 -707 708 0
-677 950 678 0
-677 -950 702 703 0
-677 -950 -702 -703 0
677 950 -678 0
677 -950 702 -703 0
677 -950 -702 703 0
-678 949 679 0
-678 -937 679 -698 0
-678 937 679 698 0
-678 -937 -949 -679 698 0
-678 937 -949 -679 -698 0
678 949 -679 0
678 937 -949 679 -698 0
678 937 -679 698 0
678 -937 -679 -698 0
678 -937 -949 679 698 0
-679 948 680 0
-679 -938 680 -694 0
-679 938 680 694 0
-679 -938 -948 -680 694 0
-679 938 -948 -680 -694 0
679 948 -680 0
679 938 -948 680 -694 0
679 938 -680 694 0
679 -938 -680 -694 0
679 -938 -948 680 694 0
-680 947 681 0
-680 -939 681 -690 0
-680 939 681 690 0
-680 -939 -947 -681 690 0
-680 939 -947 -681 -690 0
680 947 -681 0
680 939 -947 681 -690 0
680 939 -681 690 0
680 -939 -681 -690 0
680 -939 -947 681 690 0
-681 946 682 0
-681 940 -946 -682 -686 0
-681 940 682 686 0
-681 -940 682 -686 0
-681 -940 -946 -682 686 0
681 946 -682 0
681 -940 -682 -686 0
681 940 -682 686 0
681 -940 -946 682 686 0
681 940 -946 682 -686 0
682 -945 -683 0
682 -945 -684 0
-682 945 0
-682 683 684 0
683 -940 -616 0
-683 940 0
-683 616 0
684 -685 -624 0
-684 685 0
-684 624 0
685 940 -616 0
685 -940 616 0
-685 -940 -616 0
-685 940 616 0
-686 687 688 0
686 -687 0
686 -688 0
687 -939 -615 0
-687 939 0
-687 615 0
688 -689 -631 0
-688 689 0
-688 631 0
689 -939 615 0
689 939 -615 0
-689 939 615 0
-689 -939 -615 0
-690 691 692 0
690 -691 0
690 -692 0
691 -938 -614 0
-691 938 0
-691 614 0
692 -693 -638 0
-692 693 0
-692 638 0
693 -938 614 0
693 938 -614 0
-693 938 614 0
-693 -938 -614 0
-694 695 696 0
694 -695 0
694 -696 0
695 -937 -613 0
-695 937 0
-695 613 0
696 -697 -645 0
-696 697 0
-696 645 0
697 -937 613 0
697 937 -613 0
-697 937 613 0
-697 -937 -613 0
-698 699 700 0
698 -699 0
698 -700 0
699 -936 -612 0
-699 936 0
-699 612 0
700 -701 -652 0
-700 701 0
-700 652 0
701 -936 612 0
701 936 -612 0
-701 936 612 0
-701 -936 -612 0
702 -936 678 0
702 936 -678 0
-702 936 678 0
-702 -936 -678 0
-703 704 705 0
703 -704 0
703 -705 0
704 -935 -611 0
-704 935 0
-704 611 0
705 -706 -657 0
-705 706 0
-705 657 0
706 -935 611 0
706 935 -611 0
-706 935 611 0
-706 -935 -611 0
707 -935 677 0
707 935 -677 0
-707 935 677 0
-707 -935 -677 0
-708 709 710 0
708 -709 0
708 -710 0
709 -934 -610 0
-709 934 0
-709 610 0
710 -711 -662 0
-710 711 0
-710 662 0
711 -934 610 0
711 934 -610 0
-711 934 610 0
-711 -934 -610 0
712 -934 676 0
712 934 -676 0
-712 934 676 0
-712 -934 -676 0
-713 714 715 0
713 -714 0
713 -715 0
714 -933 -609 0
-714 933 0
-714 609 0
715 -716 -667 0
-715 716 0
-715 667 0
716 -933 609 0
716 933 -609 0
-716 933 609 0
-716 -933 -609 0
717 -933 675 0
717 933 -675 0
-717 933 675 0
-717 -933 -675 0
-718 719 720 0
718 -719 0
718 -720 0
719 -932 -608 0
-719 932 0
-719 608 0
720 -721 -672 0
-720 721 0
-720 672 0
721 -932 608 0
721 932 -608 0
-721 932 608 0
-721 -932 -608 0
-722 953 723 0
-722 -934 723 -763 0
-722 934 723 763 0
-722 -934 -953 -723 763 0
-722 934 -953 -723 -763 0
722 953 -723 0
722 934 -953 723 -763 0
722 934 -723 763 0
722 -934 -723 -763 0
722 -934 -953 723 763 0
-723 952 724 0
-723 -935 724 -758 0
-723 935 724 758 0
-723 -935 -952 -724 758 0
-723 935 -952 -724 -758 0
723 952 -724 0
723 935 -952 724 -758 0
723 935 -724 758 0
723 -935 -724 -758 0
723 -935 -952 724 758 0
-724 951 725 0
-724 -936 725 -753 0
-724 936 725 753 0
-724 -936 -951 -725 753 0
-724 936 -951 -725 -753 0
724 951 -725 0
724 936 -951 725 -753 0
724 936 -725 753 0
724 -936 -725 -753 0
724 -936 -951 725 753 0
-725 950 726 0
-725 -937 726 -748 0
-725 937 726 748 0
-725 -937 -950 -726 748 0
-725 937 -950 -726 -748 0
725 950 -726 0
725 937 -950 726 -748 0
725 937 -726 748 0
725 -937 -726 -748 0
725 -937 -950 726 748 0
-726 949 727 0
-726 -938 727 -743 0
-726 938 727 743 0
-726 -938 -949 -727 743 0
-726 938 -949 -727 -743 0
726 949 -727 0
726 938 -949 727 -743 0
726 938 -727 743 0
726 -938 -727 -743 0
726 -938 -949 727 743 0
-727 948 728 0
-727 -939 728 -738 0
-727 939 728 738 0
-727 -939 -948 -728 738 0
-727 939 -948 -728 -738 0
727 948 -728 0
727 939 -948 728 -738 0
727 939 -728 738 0
727 -939 -728 -738 0
727 -939 -948 728 738 0
-728 947 729 0
-728 940 -947 -729 -734 0
-728 940 729 734 0
-728 -940 729 -734 0
-728 -940 -947 -729 734 0
728 947 -729 0
728 -940 -729 -734 0
728 940 -729 734 0
728 -940 -947 729 734 0
728 940 -947 729 -734 0
729 -946 -730 0
729 -946 -733 0
729 -946 -731 0
-729 946 0
-729 730 731 733 0
730 -940 -682 0
-730 940 0
-730 682 0
731 -687 -732 0
-731 687 0
-731 732 0
732 940 -682 0
732 -940 682 0
-732 -940 -682 0
-732 940 682 0
733 -689 -631 -732 0
-733 689 0
-733 631 0
-733 732 0
-734 693 736 0
-734 638 736 0
-734 735 736 0
734 -736 0
734 -693 -638 -735 0
735 -939 681 0
735 939 -681 0
-735 939 681 0
-735 -939 -681 0
-736 737 735 0
-736 691 737 0
736 -737 0
736 -691 -735 0
737 -939 -681 0
-737 939 0
-737 681 0
-738 645 739 0
-738 739 742 0
738 -739 0
738 -645 -742 0
-739 740 741 0
-739 695 740 0
739 -740 0
739 -695 -741 0
740 -938 -680 0
-740 938 0
-740 680 0
741 -938 680 0
741 938 -680 0
-741 938 680 0
-741 -938 -680 0
742 -697 -741 0
-742 697 0
-742 741 0
-743 652 744 0
-743 744 747 0
743 -744 0
743 -652 -747 0
-744 745 746 0
-744 699 745 0
744 -745 0
744 -699 -746 0
745 -937 -679 0
-745 937 0
-745 679 0
746 -937 679 0
746 937 -679 0
-746 937 679 0
-746 -937 -679 0
747 -701 -746 0
-747 701 0
-747 746 0
-748 657 749 0
-748 749 752 0
748 -749 0
748 -657 -752 0
-749 750 751 0
749 -750 0
749 -751 0
750 -936 -678 0
-750 936 0
-750 678 0
751 -704 -702 0
-751 704 0
-751 702 0
752 -706 -702 0
-752 706 0
-752 702 0
-753 662 754 0
-753 754 757 0
753 -754 0
753 -662 -757 0
-754 755 756 0
754 -755 0
754 -756 0
755 -935 -677 0
-755 935 0
-755 677 0
756 -709 -707 0
-756 709 0
-756 707 0
757 -711 -707 0
-757 711 0
-757 707 0
-758 667 759 0
-758 759 762 0
758 -759 0
758 -667 -762 0
-759 760 761 0
759 -760 0
759 -761 0
760 -934 -676 0
-760 934 0
-760 676 0
761 -714 -712 0
-761 714 0
-761 712 0
762 -716 -712 0
-762 716 0
-762 712 0
-763 672 764 0
-763 764 766 0
763 -764 0
763 -672 -766 0
-764 765 717 0
-764 719 765 0
764 -765 0
764 -719 -717 0
765 -933 -675 0
-765 933 0
-765 675 0
766 -721 -717 0
-766 721 0
-766 717 0
-767 953 768 0
-767 -953 799 800 0
-767 -953 -799 -800 0
767 953 -768 0
767 -953 799 -800 0
767 -953 -799 800 0
-768 952 769 0
-768 -952 794 795 0
-768 -952 -794 -795 0
768 952 -769 0
768 -952 794 -795 0
768 -952 -794 795 0
-769 951 770 0
-769 -951 789 790 0
-769 -951 -789 -790 0
769 951 -770 0
769 -951 789 -790 0
769 -951 -789 790 0
-770 950 771 0
-770 -938 771 -785 0
-770 938 771 785 0
-770 -938 -950 -771 785 0
-770 938 -950 -771 -785 0
770 950 -771 0
770 938 -950 771 -785 0
770 938 -771 785 0
770 -938 -771 -785 0
770 -938 -950 771 785 0
-771 949 772 0
-771 -939 772 -781 0
-771 939 772 781 0
-771 -939 -949 -772 781 0
-771 939 -949 -772 -781 0
771 949 -772 0
771 939 -949 772 -781 0
771 939 -772 781 0
771 -939 -772 -781 0
771 -939 -949 772 781 0
-772 948 773 0
-772 940 -948 -773 -777 0
-772 940 773 777 0
-772 -940 773 -777 0
-772 -940 -948 -773 777 0
772 948 -773 0
772 -940 -773 -777 0
772 940 -773 777 0
772 -940 -948 773 777 0
772 940 -948 773 -777 0
773 -947 -774 0
773 -947 -775 0
-773 947 0
-773 774 775 0
774 -940 -729 0
-774 940 0
-774 729 0
775 -776 -734 0
-775 776 0
-775 734 0
776 940 -729 0
776 -940 729 0
-776 -940 -729 0
-776 940 729 0
-777 778 779 0
777 -778 0
777 -779 0
778 -939 -728 0
-778 939 0
-778 728 0
779 -780 -738 0
-779 780 0
-779 738 0
780 -939 728 0
780 939 -728 0
-780 939 728 0
-780 -939 -728 0
-781 782 783 0
781 -782 0
781 -783 0
782 -938 -727 0
-782 938 0
-782 727 0
783 -784 -743 0
-783 784 0
-783 743 0
784 -938 727 0
784 938 -727 0
-784 938 727 0
-784 -938 -727 0
-785 786 787 0
785 -786 0
785 -787 0
786 -937 -726 0
-786 937 0
-786 726 0
787 -788 -748 0
-787 788 0
-787 748 0
788 -937 726 0
788 937 -726 0
-788 937 726 0
-788 -937 -726 0
789 -937 770 0
789 937 -770 0
-789 937 770 0
-789 -937 -770 0
-790 791 792 0
790 -791 0
790 -792 0
791 -936 -725 0
-791 936 0
-791 725 0
792 -793 -753 0
-792 793 0
-792 753 0
793 -936 725 0
793 936 -725 0
-793 936 725 0
-793 -936 -725 0
794 -936 769 0
794 936 -769 0
-794 936 769 0
-794 -936 -769 0
-795 796 797 0
795 -796 0
795 -797 0
796 -935 -724 0
-796 935 0
-796 724 0
797 -798 -758 0
-797 798 0
-797 758 0
798 -935 724 0
798 935 -724 0
-798 935 724 0
-798 -935 -724 0
799 -935 768 0
799 935 -768 0
-799 935 768 0
-799 -935 -768 0
-800 801 802 0
800 -801 0
800 -802 0
801 -934 -723 0
-801 934 0
-801 723 0
802 -803 -763 0
-802 803 0
-802 763 0
803 -934 723 0
803 934 -723 0
-803 934 723 0
-803 -934 -723 0
-804 953 805 0
-804 -936 805 -839 0
-804 936 805 839 0
-804 -936 -953 -805 839 0
-804 936 -953 -805 -839 0
804 953 -805 0
804 936 -953 805 -839 0
804 936 -805 839 0
804 -936 -805 -839 0
804 -936 -953 805 839 0
-805 952 806 0
-805 -937 806 -833 0
-805 937 806 833 0
-805 -937 -952 -806 833 0
-805 937 -952 -806 -833 0
805 952 -806 0
805 937 -952 806 -833 0
805 937 -806 833 0
805 -937 -806 -833 0
805 -937 -952 806 833 0
-806 951 807 0
-806 -938 807 -828 0
-806 938 807 828 0
-806 -938 -951 -807 828 0
-806 938 -951 -807 -828 0
806 951 -807 0
806 938 -951 807 -828 0
806 938 -807 828 0
806 -938 -807 -828 0
806 -938 -951 807 828 0
-807 950 808 0
-807 -939 808 -822 0
-807 939 808 822 0
-807 -939 -950 -808 822 0
-807 939 -950 -808 -822 0
807 950 -808 0
807 939 -950 808 -822 0
807 939 -808 822 0
807 -939 -808 -822 0
807 -939 -950 808 822 0
-808 949 809 0
-808 940 -949 -809 -816 0
-808 940 809 816 0
-808 -940 809 -816 0
-808 -940 -949 -809 816 0
808 949 -809 0
808 -940 -809 -816 0
808 940 -809 816 0
808 -940 -949 809 816 0
808 940 -949 809 -816 0
809 -948 -810 0
809 -948 -645 -815 0
-809 948 0
-809 645 810 0
-809 810 815 0
-810 739 811 812 0
-810 811 812 814 0
810 -812 0
810 -811 0
810 -739 -814 0
811 -940 -773 0
-811 940 0
-811 773 0
812 -778 -813 0
-812 778 0
-812 813 0
813 940 -773 0
813 -940 773 0
-813 -940 -773 0
-813 940 773 0
814 -780 -813 0
-814 780 0
-814 813 0
815 -742 -814 0
-815 742 0
-815 814 0
-816 747 819 0
-816 817 819 0
-816 652 819 0
816 -819 0
816 -652 -747 -817 0
817 -784 -818 0
-817 784 0
-817 818 0
818 -939 772 0
818 939 -772 0
-818 939 772 0
-818 -939 -772 0
-819 782 820 821 0
-819 820 818 821 0
819 -821 0
819 -820 0
819 -782 -818 0
820 -939 -772 0
-820 939 0
-820 772 0
821 -744 -817 0
-821 744 0
-821 817 0
-822 752 825 0
-822 823 825 0
-822 657 825 0
822 -825 0
822 -657 -752 -823 0
823 -788 -824 0
-823 788 0
-823 824 0
824 -938 771 0
824 938 -771 0
-824 938 771 0
-824 -938 -771 0
-825 749 826 827 0
-825 826 827 823 0
825 -827 0
825 -826 0
825 -749 -823 0
826 -938 -771 0
-826 938 0
-826 771 0
827 -786 -824 0
-827 786 0
-827 824 0
-828 757 830 0
-828 829 830 0
-828 662 830 0
828 -830 0
828 -662 -757 -829 0
829 -793 -789 0
-829 793 0
-829 789 0
-830 791 831 832 0
-830 831 789 832 0
830 -832 0
830 -831 0
830 -791 -789 0
831 -937 -770 0
-831 937 0
-831 770 0
832 -754 -829 0
-832 754 0
-832 829 0
-833 667 834 0
-833 834 838 0
833 -834 0
833 -667 -838 0
-834 759 835 836 0
-834 835 836 837 0
834 -836 0
834 -835 0
834 -759 -837 0
835 -936 -769 0
-835 936 0
-835 769 0
836 -796 -794 0
-836 796 0
-836 794 0
837 -798 -794 0
-837 798 0
-837 794 0
838 -762 -837 0
-838 762 0
-838 837 0
-839 672 840 0
-839 840 844 0
839 -840 0
839 -672 -844 0
-840 764 841 842 0
-840 841 842 843 0
840 -842 0
840 -841 0
840 -764 -843 0
841 -935 -768 0
-841 935 0
-841 768 0
842 -801 -799 0
-842 801 0
-842 799 0
843 -803 -799 0
-843 803 0
-843 799 0
844 -766 -843 0
-844 766 0
-844 843 0
-845 953 846 0
-845 -953 865 866 0
-845 -953 -865 -866 0
845 953 -846 0
845 -953 865 -866 0
845 -953 -865 866 0
-846 952 847 0
-846 -938 847 -861 0
-846 938 847 861 0
-846 -938 -952 -847 861 0
-846 938 -952 -847 -861 0
846 952 -847 0
846 938 -952 847 -861 0
846 938 -847 861 0
846 -938 -847 -861 0
846 -938 -952 847 861 0
-847 951 848 0
-847 -939 848 -857 0
-847 939 848 857 0
-847 -939 -951 -848 857 0
-847 939 -951 -848 -857 0
847 951 -848 0
847 939 -951 848 -857 0
847 939 -848 857 0
847 -939 -848 -857 0
847 -939 -951 848 857 0
-848 950 849 0
-848 940 -950 -849 -853 0
-848 940 849 853 0
-848 -940 849 -853 0
-848 -940 -950 -849 853 0
848 950 -849 0
848 -940 -849 -853 0
848 940 -849 853 0
848 -940 -950 849 853 0
848 940 -950 849 -853 0
849 -949 -850 0
849 -949 -851 0
-849 949 0
-849 850 851 0
850 -940 -809 0
-850 940 0
-850 809 0
851 -852 -816 0
-851 852 0
-851 816 0
852 940 -809 0
852 -940 809 0
-852 -940 -809 0
-852 940 809 0
-853 854 855 0
853 -854 0
853 -855 0
854 -939 -808 0
-854 939 0
-854 808 0
855 -856 -822 0
-855 856 0
-855 822 0
856 -939 808 0
856 939 -808 0
-856 939 808 0
-856 -939 -808 0
-857 858 859 0
857 -858 0
857 -859 0
858 -938 -807 0
-858 938 0
-858 807 0
859 -860 -828 0
-859 860 0
-859 828 0
860 -938 807 0
860 938 -807 0
-860 938 807 0
-860 -938 -807 0
-861 862 863 0
861 -862 0
861 -863 0
862 -937 -806 0
-862 937 0
-862 806 0
863 -864 -833 0
-863 864 0
-863 833 0
864 -937 806 0
864 937 -806 0
-864 937 806 0
-864 -937 -806 0
865 -937 846 0
865 937 -846 0
-865 937 846 0
-865 -937 -846 0
-866 867 868 0
866 -867 0
866 -868 0
867 -936 -805 0
-867 936 0
-867 805 0
868 -869 -839 0
-868 869 0
-868 839 0
869 -936 805 0
869 936 -805 0
-869 936 805 0
-869 -936 -805 0
-870 953 871 0
-870 -938 871 -887 0
-870 938 871 887 0
-870 -938 -953 -871 887 0
-870 938 -953 -871 -887 0
870 953 -871 0
870 938 -953 871 -887 0
870 938 -871 887 0
870 -938 -871 -887 0
870 -938 -953 871 887 0
-871 952 872 0
-871 -939 872 -882 0
-871 939 872 882 0
-871 -939 -952 -872 882 0
-871 939 -952 -872 -882 0
871 952 -872 0
871 939 -952 872 -882 0
871 939 -872 882 0
871 -939 -872 -882 0
871 -939 -952 872 882 0
-872 951 873 0
-872 940 -951 -873 -878 0
-872 940 873 878 0
-872 -940 873 -878 0
-872 -940 -951 -873 878 0
872 951 -873 0
872 -940 -873 -878 0
872 940 -873 878 0
872 -940 -951 873 878 0
872 940 -951 873 -878 0
873 -950 -874 0
873 -950 -877 0
873 -950 -875 0
-873 950 0
-873 874 875 877 0
874 -940 -849 0
-874 940 0
-874 849 0
875 -854 -876 0
-875 854 0
-875 876 0
876 940 -849 0
876 -940 849 0
-876 -940 -849 0
-876 940 849 0
877 -856 -822 -876 0
-877 856 0
-877 822 0
-877 876 0
-878 860 880 0
-878 828 880 0
-878 879 880 0
878 -880 0
878 -860 -828 -879 0
879 -939 848 0
879 939 -848 0
-879 939 848 0
-879 -939 -848 0
-880 881 879 0
-880 858 881 0
880 -881 0
880 -858 -879 0
881 -939 -848 0
-881 939 0
-881 848 0
-882 833 883 0
-882 883 886 0
882 -883 0
882 -833 -886 0
-883 884 885 0
-883 862 884 0
883 -884 0
883 -862 -885 0
884 -938 -847 0
-884 938 0
-884 847 0
885 -938 847 0
885 938 -847 0
-885 938 847 0
-885 -938 -847 0
886 -864 -885 0
-886 864 0
-886 885 0
-887 839 888 0
-887 888 891 0
887 -888 0
887 -839 -891 0
-888 889 890 0
888 -889 0
888 -890 0
889 -937 -846 0
-889 937 0
-889 846 0
890 -867 -865 0
-890 867 0
-890 865 0
891 -869 -865 0
-891 869 0
-891 865 0
-892 953 893 0
-892 -939 893 -902 0
-892 939 893 902 0
-892 -939 -953 -893 902 0
-892 939 -953 -893 -902 0
892 953 -893 0
892 939 -953 893 -902 0
892 939 -893 902 0
892 -939 -893 -902 0
892 -939 -953 893 902 0
-893 952 894 0
-893 940 -952 -894 -898 0
-893 940 894 898 0
-893 -940 894 -898 0
-893 -940 -952 -894 898 0
893 952 -894 0
893 -940 -894 -898 0
893 940 -894 898 0
893 -940 -952 894 898 0
893 940 -952 894 -898 0
894 -951 -895 0
894 -951 -896 0
-894 951 0
-894 895 896 0
895 -940 -873 0
-895 940 0
-895 873 0
896 -897 -878 0
-896 897 0
-896 878 0
897 940 -873 0
897 -940 873 0
-897 -940 -873 0
-897 940 873 0
-898 899 900 0
898 -899 0
898 -900 0
899 -939 -872 0
-899 939 0
-899 872 0
900 -901 -882 0
-900 901 0
-900 882 0
901 -939 872 0
901 939 -872 0
-901 939 872 0
-901 -939 -872 0
-902 903 904 0
902 -903 0
902 -904 0
903 -938 -871 0
-903 938 0
-903 871 0
904 -905 -887 0
-904 905 0
-904 887 0
905 -938 871 0
905 938 -871 0
-905 938 871 0
-905 -938 -871 0
-906 953 907 0
-906 940 -953 -907 -916 0
-906 940 907 916 0
-906 -940 907 -916 0
-906 -940 -953 -907 916 0
906 953 -907 0
906 -940 -907 -916 0
906 940 -907 916 0
906 -940 -953 907 916 0
906 940 -953 907 -916 0
907 -952 -908 0
907 -952 -667 -915 0
-907 952 0
-907 667 908 0
-907 908 915 0
-908 834 909 0
-908 909 914 0
908 -909 0
908 -834 -914 0
-909 883 910 911 0
-909 910 911 913 0
909 -911 0
909 -910 0
909 -883 -913 0
910 -940 -894 0
-910 940 0
-910 894 0
911 -899 -912 0
-911 899 0
-911 912 0
912 940 -894 0
912 -940 894 0
-912 -940 -894 0
-912 940 894 0
913 -901 -912 0
-913 901 0
-913 912 0
914 -886 -913 0
-914 886 0
-914 913 0
915 -838 -914 0
-915 838 0
-915 914 0
-916 844 920 0
-916 917 920 0
-916 672 920 0
916 -920 0
916 -672 -844 -917 0
917 -891 -918 0
-917 891 0
-917 918 0
918 -905 -919 0
-918 905 0
-918 919 0
919 -939 893 0
919 939 -893 0
-919 939 893 0
-919 -939 -893 0
-920 840 921 923 0
-920 921 923 917 0
920 -921 0
920 -923 0
920 -840 -917 0
-921 922 919 0
-921 903 922 0
921 -922 0
921 -903 -919 0
922 -939 -893 0
-922 939 0
-922 893 0
923 -888 -918 0
-923 888 0
-923 918 0
924 -953 -925 0
924 -953 -926 0
-924 953 0
-924 925 926 0
925 -940 -907 0
-925 940 0
-925 907 0
926 -927 -916 0
-926 927 0
-926 916 0
927 940 -907 0
927 -940 907 0
-927 -940 -907 0
-927 940 907 0
-954 0
2 0
15 0
28 0
43 0
60 0
82 0
108 0
140 0
175 0
215 0
261 0
306 0
363 0
429 0
493 0
543 0
607 0
674 0
722 0
767 0
804 0
845 0
870 0
892 0
906 0
924 0

