c Result of efficient AIG-to-CNF conversion using package CNF
p cnf 1118 4532
-2 3 0
2 -3 0
-3 4 0
3 -4 0
-4 5 0
4 -5 0
-5 6 0
5 -6 0
-6 7 0
6 -7 0
-7 8 0
7 -8 0
-8 9 0
8 -9 0
-9 10 0
9 -10 0
-10 11 0
10 -11 0
-11 12 0
11 -12 0
-12 13 0
12 -13 0
-13 14 0
13 -14 0
-14 15 0
14 -15 0
15 -1090 -1104 0
-15 1090 0
-15 1104 0
-16 17 0
16 -17 0
-17 18 0
17 -18 0
-18 19 0
18 -19 0
-19 20 0
19 -20 0
-20 21 0
20 -21 0
-21 22 0
21 -22 0
-22 23 0
22 -23 0
-23 24 0
23 -24 0
-24 25 0
24 -25 0
-25 26 0
25 -26 0
-26 27 0
26 -27 0
-27 28 0
27 -28 0
-28 1090 29 0
-28 1105 29 0
-28 -1090 -1105 -29 0
28 1090 -29 0
28 -1090 -1105 29 0
28 1105 -29 0
29 -1091 -1104 0
-29 1091 0
-29 1104 0
-30 31 0
30 -31 0
-31 32 0
31 -32 0
-32 33 0
32 -33 0
-33 34 0
33 -34 0
-34 35 0
34 -35 0
-35 36 0
35 -36 0
-36 37 0
36 -37 0
-37 38 0
37 -38 0
-38 39 0
38 -39 0
-39 40 0
39 -40 0
-40 41 0
40 -41 0
-41 1090 42 0
-41 -1090 -1106 -42 0
-41 1106 42 0
41 1090 -42 0
41 1106 -42 0
41 -1090 -1106 42 0
-42 1105 44 0
-42 -1105 -43 -45 0
-42 -1105 43 45 0
42 1105 -44 0
42 -1105 -43 45 0
42 -1105 43 -45 0
43 -1090 -1091 -1104 0
-43 1090 0
-43 1091 0
-43 1104 0
44 -1092 -1104 0
-44 1092 0
-44 1104 0
45 1091 -44 0
45 -1091 44 0
-45 -1091 -44 0
-45 1091 44 0
-46 47 0
46 -47 0
-47 48 0
47 -48 0
-48 49 0
48 -49 0
-49 50 0
49 -50 0
-50 51 0
50 -51 0
-51 52 0
51 -52 0
-52 53 0
52 -53 0
-53 54 0
53 -54 0
-54 55 0
54 -55 0
-55 56 0
55 -56 0
-56 1090 57 0
-56 -1090 -1107 -57 0
-56 1107 57 0
56 1090 -57 0
56 1107 -57 0
56 -1090 -1107 57 0
-57 1106 59 0
-57 -1106 -58 -63 0
-57 -1106 58 63 0
57 1106 -59 0
57 -1106 -58 63 0
57 -1106 58 -63 0
58 -1090 -42 0
-58 1090 0
-58 42 0
-59 1105 60 0
-59 -1105 61 62 0
-59 -1105 -61 -62 0
59 1105 -60 0
59 -1105 61 -62 0
59 -1105 -61 62 0
60 -1093 -1104 0
-60 1093 0
-60 1104 0
61 1092 -60 0
61 -1092 60 0
-61 -1092 -60 0
-61 1092 60 0
-62 1104 0
-62 1091 0
-62 1090 1092 0
62 -1090 -1091 -1104 0
62 -1091 -1092 -1104 0
63 -1091 59 0
63 1091 -59 0
-63 1091 59 0
-63 -1091 -59 0
-64 65 0
64 -65 0
-65 66 0
65 -66 0
-66 67 0
66 -67 0
-67 68 0
67 -68 0
-68 69 0
68 -69 0
-69 70 0
69 -70 0
-70 71 0
70 -71 0
-71 72 0
71 -72 0
-72 73 0
72 -73 0
-73 1090 74 0
-73 -1090 -1108 -74 0
-73 1108 74 0
73 1090 -74 0
73 1108 -74 0
73 -1090 -1108 74 0
-74 1107 76 0
-74 -1107 -75 -86 0
-74 -1107 75 86 0
74 1107 -76 0
74 -1107 -75 86 0
74 -1107 75 -86 0
75 -1090 -57 0
-75 1090 0
-75 57 0
-76 1106 77 0
-76 -1106 82 83 0
-76 -1106 -82 -83 0
76 1106 -77 0
76 -1106 82 -83 0
76 -1106 -82 83 0
-77 1105 78 0
-77 -1105 79 80 0
-77 -1105 -79 -80 0
77 1105 -78 0
77 -1105 79 -80 0
77 -1105 -79 80 0
78 -1094 -1104 0
-78 1094 0
-78 1104 0
79 1093 -78 0
79 -1093 78 0
-79 -1093 -78 0
-79 1093 78 0
-80 45 81 0
-80 43 81 0
-80 61 81 0
80 -81 0
80 -43 -45 -61 0
-81 1104 0
-81 1092 0
-81 1091 1093 0
81 -1091 -1092 -1104 0
81 -1092 -1093 -1104 0
82 -1092 77 0
82 1092 -77 0
-82 1092 77 0
-82 -1092 -77 0
-83 84 85 0
83 -84 0
83 -85 0
84 -1091 -59 0
-84 1091 0
-84 59 0
85 -58 -63 0
-85 58 0
-85 63 0
86 -1091 76 0
86 1091 -76 0
-86 1091 76 0
-86 -1091 -76 0
-87 88 0
87 -88 0
-88 89 0
88 -89 0
-89 90 0
89 -90 0
-90 91 0
90 -91 0
-91 92 0
91 -92 0
-92 93 0
92 -93 0
-93 94 0
93 -94 0
-94 95 0
94 -95 0
-95 1090 96 0
-95 -1090 -1109 -96 0
-95 1109 96 0
95 1090 -96 0
95 1109 -96 0
95 -1090 -1109 96 0
-96 1108 98 0
-96 1091 97 98 0
-96 -1091 -97 98 0
-96 1091 -1108 -97 -98 0
-96 -1091 -1108 97 -98 0
96 1108 -98 0
96 -1091 -97 -98 0
96 1091 97 -98 0
96 1091 -1108 -97 98 0
96 -1091 -1108 97 98 0
97 -1090 -74 0
-97 1090 0
-97 74 0
-98 1107 99 0
-98 -1107 110 111 0
-98 -1107 -110 -111 0
98 1107 -99 0
98 -1107 110 -111 0
98 -1107 -110 111 0
-99 1106 100 0
-99 -1106 106 107 0
-99 -1106 -106 -107 0
99 1106 -100 0
99 -1106 106 -107 0
99 -1106 -106 107 0
-100 1105 101 0
-100 -1105 102 103 0
-100 -1105 -102 -103 0
100 1105 -101 0
100 -1105 102 -103 0
100 -1105 -102 103 0
101 -1095 -1104 0
-101 1095 0
-101 1104 0
102 1094 -101 0
102 -1094 101 0
-102 -1094 -101 0
-102 1094 101 0
-103 104 105 0
103 -104 0
103 -105 0
104 -1093 -1094 -1104 0
-104 1093 0
-104 1094 0
-104 1104 0
105 -79 -80 0
-105 79 0
-105 80 0
106 -1093 100 0
106 1093 -100 0
-106 1093 100 0
-106 -1093 -100 0
-107 108 109 0
107 -108 0
107 -109 0
108 -1092 -77 0
-108 1092 0
-108 77 0
109 -82 -83 0
-109 82 0
-109 83 0
110 -1092 99 0
110 1092 -99 0
-110 1092 99 0
-110 -1092 -99 0
-111 112 113 0
111 -112 0
111 -113 0
112 -1091 -76 0
-112 1091 0
-112 76 0
113 -75 -86 0
-113 75 0
-113 86 0
-114 115 0
114 -115 0
-115 116 0
115 -116 0
-116 117 0
116 -117 0
-117 118 0
117 -118 0
-118 119 0
118 -119 0
-119 120 0
119 -120 0
-120 121 0
120 -121 0
-121 1090 122 0
-121 -1090 -1110 -122 0
-121 1110 122 0
121 1090 -122 0
121 1110 -122 0
121 -1090 -1110 122 0
-122 1109 124 0
-122 -1109 -123 -145 0
-122 -1109 123 145 0
122 1109 -124 0
122 -1109 -123 145 0
122 -1109 123 -145 0
123 -1090 -96 0
-123 1090 0
-123 96 0
-124 1108 125 0
-124 -1092 125 -141 0
-124 1092 125 141 0
-124 -1092 -1108 -125 141 0
-124 1092 -1108 -125 -141 0
124 1108 -125 0
124 1092 -1108 125 -141 0
124 1092 -125 141 0
124 -1092 -125 -141 0
124 -1092 -1108 125 141 0
-125 1107 126 0
-125 -1107 137 138 0
-125 -1107 -137 -138 0
125 1107 -126 0
125 -1107 137 -138 0
125 -1107 -137 138 0
-126 1106 127 0
-126 -1106 133 134 0
-126 -1106 -133 -134 0
126 1106 -127 0
126 -1106 133 -134 0
126 -1106 -133 134 0
-127 1105 128 0
-127 -1105 129 130 0
-127 -1105 -129 -130 0
127 1105 -128 0
127 -1105 129 -130 0
127 -1105 -129 130 0
128 -1096 -1104 0
-128 1096 0
-128 1104 0
129 1095 -128 0
129 -1095 128 0
-129 -1095 -128 0
-129 1095 128 0
-130 80 131 0
-130 131 132 0
130 -131 0
130 -80 -132 0
-131 1104 0
-131 1094 0
-131 1093 1095 0
131 -1093 -1094 -1104 0
131 -1094 -1095 -1104 0
132 -79 -102 0
-132 79 0
-132 102 0
133 -1094 127 0
133 1094 -127 0
-133 1094 127 0
-133 -1094 -127 0
-134 83 135 0
-134 135 136 0
134 -135 0
134 -83 -136 0
-135 108 100 0
-135 1093 108 0
-135 1093 100 0
135 -1093 -108 0
135 -108 -100 0
135 -1093 -100 0
136 -82 -106 0
-136 82 0
-136 106 0
137 -1093 126 0
137 1093 -126 0
-137 1093 126 0
-137 -1093 -126 0
-138 75 139 0
-138 139 140 0
138 -139 0
138 -75 -140 0
-139 112 99 0
-139 1092 112 0
-139 1092 99 0
139 -1092 -112 0
139 -112 -99 0
139 -1092 -99 0
140 -86 -110 0
-140 86 0
-140 110 0
-141 142 143 0
141 -142 0
141 -143 0
142 -1091 -98 0
-142 1091 0
-142 98 0
143 -97 -144 0
-143 97 0
-143 144 0
144 -1091 98 0
144 1091 -98 0
-144 1091 98 0
-144 -1091 -98 0
145 -1091 124 0
145 1091 -124 0
-145 1091 124 0
-145 -1091 -124 0
-146 147 0
146 -147 0
-147 148 0
147 -148 0
-148 149 0
148 -149 0
-149 150 0
149 -150 0
-150 151 0
150 -151 0
-151 152 0
151 -152 0
-152 1090 153 0
-152 -1090 -1111 -153 0
-152 1111 153 0
152 1090 -153 0
152 1111 -153 0
152 -1090 -1111 153 0
-153 1110 155 0
-153 1091 154 155 0
-153 -1091 -154 155 0
-153 1091 -1110 -154 -155 0
-153 -1091 -1110 154 -155 0
153 1110 -155 0
153 -1091 -154 -155 0
153 1091 154 -155 0
153 1091 -1110 -154 155 0
153 -1091 -1110 154 155 0
154 -1090 -122 0
-154 1090 0
-154 122 0
-155 1109 156 0
-155 -1109 178 179 0
-155 -1109 -178 -179 0
155 1109 -156 0
155 -1109 178 -179 0
155 -1109 -178 179 0
-156 1108 157 0
-156 -1108 173 174 0
-156 -1108 -173 -174 0
156 1108 -157 0
156 -1108 173 -174 0
156 -1108 -173 174 0
-157 1107 158 0
-157 -1107 169 170 0
-157 -1107 -169 -170 0
157 1107 -158 0
157 -1107 169 -170 0
157 -1107 -169 170 0
-158 1106 159 0
-158 -1106 165 166 0
-158 -1106 -165 -166 0
158 1106 -159 0
158 -1106 165 -166 0
158 -1106 -165 166 0
-159 1105 160 0
-159 -1105 161 162 0
-159 -1105 -161 -162 0
159 1105 -160 0
159 -1105 161 -162 0
159 -1105 -161 162 0
160 -1097 -1104 0
-160 1097 0
-160 1104 0
161 1096 -160 0
161 -1096 160 0
-161 -1096 -160 0
-161 1096 160 0
-162 163 164 0
162 -163 0
162 -164 0
163 -1095 -1096 -1104 0
-163 1095 0
-163 1096 0
-163 1104 0
164 -129 -130 0
-164 129 0
-164 130 0
165 -1095 159 0
165 1095 -159 0
-165 1095 159 0
-165 -1095 -159 0
-166 167 168 0
166 -167 0
166 -168 0
167 -1094 -127 0
-167 1094 0
-167 127 0
168 -133 -134 0
-168 133 0
-168 134 0
169 -1094 158 0
169 1094 -158 0
-169 1094 158 0
-169 -1094 -158 0
-170 171 172 0
170 -171 0
170 -172 0
171 -1093 -126 0
-171 1093 0
-171 126 0
172 -137 -138 0
-172 137 0
-172 138 0
173 -1093 157 0
173 1093 -157 0
-173 1093 157 0
-173 -1093 -157 0
-174 175 176 0
174 -175 0
174 -176 0
175 -1092 -125 0
-175 1092 0
-175 125 0
176 -177 -141 0
-176 177 0
-176 141 0
177 -1092 125 0
177 1092 -125 0
-177 1092 125 0
-177 -1092 -125 0
178 -1092 156 0
178 1092 -156 0
-178 1092 156 0
-178 -1092 -156 0
-179 180 181 0
179 -180 0
179 -181 0
180 -1091 -124 0
-180 1091 0
-180 124 0
181 -123 -145 0
-181 123 0
-181 145 0
-182 183 0
182 -183 0
-183 184 0
183 -184 0
-184 185 0
184 -185 0
-185 186 0
185 -186 0
-186 187 0
186 -187 0
-187 1090 188 0
-187 -1090 -1112 -188 0
-187 1112 188 0
187 1090 -188 0
187 1112 -188 0
187 -1090 -1112 188 0
-188 1111 190 0
-188 -1111 -189 -223 0
-188 -1111 189 223 0
188 1111 -190 0
188 -1111 -189 223 0
188 -1111 189 -223 0
189 -1090 -153 0
-189 1090 0
-189 153 0
-190 1110 191 0
-190 -1092 191 -219 0
-190 1092 191 219 0
-190 -1092 -1110 -191 219 0
-190 1092 -1110 -191 -219 0
190 1110 -191 0
190 1092 -1110 191 -219 0
190 1092 -191 219 0
190 -1092 -191 -219 0
190 -1092 -1110 191 219 0
-191 1109 192 0
-191 -1093 192 -217 0
-191 1093 192 217 0
-191 -1093 -1109 -192 217 0
-191 1093 -1109 -192 -217 0
191 1109 -192 0
191 1093 -1109 192 -217 0
191 1093 -192 217 0
191 -1093 -192 -217 0
191 -1093 -1109 192 217 0
-192 1108 193 0
-192 -1094 193 -214 0
-192 1094 193 214 0
-192 -1094 -1108 -193 214 0
-192 1094 -1108 -193 -214 0
192 1108 -193 0
192 1094 -1108 193 -214 0
192 1094 -193 214 0
192 -1094 -193 -214 0
192 -1094 -1108 193 214 0
-193 1107 194 0
-193 -1107 208 209 0
-193 -1107 -208 -209 0
193 1107 -194 0
193 -1107 208 -209 0
193 -1107 -208 209 0
-194 1106 195 0
-194 -1106 202 203 0
-194 -1106 -202 -203 0
194 1106 -195 0
194 -1106 202 -203 0
194 -1106 -202 203 0
-195 1105 196 0
-195 -1105 197 198 0
-195 -1105 -197 -198 0
195 1105 -196 0
195 -1105 197 -198 0
195 -1105 -197 198 0
196 -1098 -1104 0
-196 1098 0
-196 1104 0
197 1097 -196 0
197 -1097 196 0
-197 -1097 -196 0
-197 1097 196 0
-198 132 200 0
-198 199 200 0
-198 80 200 0
198 -200 0
198 -80 -132 -199 0
199 -129 -161 0
-199 129 0
-199 161 0
-200 131 201 0
-200 201 199 0
200 -201 0
200 -131 -199 0
-201 1104 0
-201 1096 0
-201 1095 1097 0
201 -1095 -1096 -1104 0
201 -1096 -1097 -1104 0
202 -1096 195 0
202 1096 -195 0
-202 1096 195 0
-202 -1096 -195 0
-203 136 205 0
-203 204 205 0
-203 83 205 0
203 -205 0
203 -83 -136 -204 0
204 -133 -165 0
-204 133 0
-204 165 0
-205 167 206 207 0
-205 206 165 207 0
205 -207 0
205 -206 0
205 -167 -165 0
206 -1095 -159 0
-206 1095 0
-206 159 0
207 -135 -204 0
-207 135 0
-207 204 0
208 -1095 194 0
208 1095 -194 0
-208 1095 194 0
-208 -1095 -194 0
-209 140 211 0
-209 75 211 0
-209 210 211 0
209 -211 0
209 -75 -140 -210 0
210 -137 -169 0
-210 137 0
-210 169 0
-211 139 212 213 0
-211 212 213 210 0
211 -213 0
211 -212 0
211 -139 -210 0
212 -1094 -158 0
-212 1094 0
-212 158 0
213 -171 -169 0
-213 171 0
-213 169 0
-214 177 215 0
-214 141 215 0
-214 173 215 0
214 -215 0
214 -177 -141 -173 0
-215 216 173 0
-215 175 216 0
215 -216 0
215 -175 -173 0
216 -1093 -157 0
-216 1093 0
-216 157 0
-217 1092 180 218 0
-217 180 156 218 0
-217 1092 156 218 0
217 -1092 -180 0
217 -180 -156 0
217 -218 0
217 -1092 -156 0
218 -123 -145 -178 0
-218 123 0
-218 145 0
-218 178 0
-219 220 221 0
219 -220 0
219 -221 0
220 -1091 -155 0
-220 1091 0
-220 155 0
221 -154 -222 0
-221 154 0
-221 222 0
222 -1091 155 0
222 1091 -155 0
-222 1091 155 0
-222 -1091 -155 0
223 -1091 190 0
223 1091 -190 0
-223 1091 190 0
-223 -1091 -190 0
-224 225 0
224 -225 0
-225 226 0
225 -226 0
-226 227 0
226 -227 0
-227 228 0
227 -228 0
-228 1090 229 0
-228 -1090 -1113 -229 0
-228 1113 229 0
228 1090 -229 0
228 1113 -229 0
228 -1090 -1113 229 0
-229 1112 231 0
-229 1091 230 231 0
-229 -1091 -230 231 0
-229 1091 -1112 -230 -231 0
-229 -1091 -1112 230 -231 0
229 1112 -231 0
229 -1091 -230 -231 0
229 1091 230 -231 0
229 1091 -1112 -230 231 0
229 -1091 -1112 230 231 0
230 -1090 -188 0
-230 1090 0
-230 188 0
-231 1111 232 0
-231 -1111 266 267 0
-231 -1111 -266 -267 0
231 1111 -232 0
231 -1111 266 -267 0
231 -1111 -266 267 0
-232 1110 233 0
-232 -1110 261 262 0
-232 -1110 -261 -262 0
232 1110 -233 0
232 -1110 261 -262 0
232 -1110 -261 262 0
-233 1109 234 0
-233 -1109 256 257 0
-233 -1109 -256 -257 0
233 1109 -234 0
233 -1109 256 -257 0
233 -1109 -256 257 0
-234 1108 235 0
-234 -1108 251 252 0
-234 -1108 -251 -252 0
234 1108 -235 0
234 -1108 251 -252 0
234 -1108 -251 252 0
-235 1107 236 0
-235 -1107 247 248 0
-235 -1107 -247 -248 0
235 1107 -236 0
235 -1107 247 -248 0
235 -1107 -247 248 0
-236 1106 237 0
-236 -1106 243 244 0
-236 -1106 -243 -244 0
236 1106 -237 0
236 -1106 243 -244 0
236 -1106 -243 244 0
-237 1105 238 0
-237 -1105 239 240 0
-237 -1105 -239 -240 0
237 1105 -238 0
237 -1105 239 -240 0
237 -1105 -239 240 0
238 -1099 -1104 0
-238 1099 0
-238 1104 0
239 1098 -238 0
239 -1098 238 0
-239 -1098 -238 0
-239 1098 238 0
-240 241 242 0
240 -241 0
240 -242 0
241 -1097 -1098 -1104 0
-241 1097 0
-241 1098 0
-241 1104 0
242 -197 -198 0
-242 197 0
-242 198 0
243 -1097 237 0
243 1097 -237 0
-243 1097 237 0
-243 -1097 -237 0
-244 245 246 0
244 -245 0
244 -246 0
245 -1096 -195 0
-245 1096 0
-245 195 0
246 -202 -203 0
-246 202 0
-246 203 0
247 -1096 236 0
247 1096 -236 0
-247 1096 236 0
-247 -1096 -236 0
-248 249 250 0
248 -249 0
248 -250 0
249 -1095 -194 0
-249 1095 0
-249 194 0
250 -208 -209 0
-250 208 0
-250 209 0
251 -1095 235 0
251 1095 -235 0
-251 1095 235 0
-251 -1095 -235 0
-252 253 254 0
252 -253 0
252 -254 0
253 -1094 -193 0
-253 1094 0
-253 193 0
254 -255 -214 0
-254 255 0
-254 214 0
255 -1094 193 0
255 1094 -193 0
-255 1094 193 0
-255 -1094 -193 0
256 -1094 234 0
256 1094 -234 0
-256 1094 234 0
-256 -1094 -234 0
-257 258 259 0
257 -258 0
257 -259 0
258 -1093 -192 0
-258 1093 0
-258 192 0
259 -260 -217 0
-259 260 0
-259 217 0
260 -1093 192 0
260 1093 -192 0
-260 1093 192 0
-260 -1093 -192 0
261 -1093 233 0
261 1093 -233 0
-261 1093 233 0
-261 -1093 -233 0
-262 263 264 0
262 -263 0
262 -264 0
263 -1092 -191 0
-263 1092 0
-263 191 0
264 -265 -219 0
-264 265 0
-264 219 0
265 -1092 191 0
265 1092 -191 0
-265 1092 191 0
-265 -1092 -191 0
266 -1092 232 0
266 1092 -232 0
-266 1092 232 0
-266 -1092 -232 0
-267 268 269 0
267 -268 0
267 -269 0
268 -1091 -190 0
-268 1091 0
-268 190 0
269 -189 -223 0
-269 189 0
-269 223 0
-270 271 0
270 -271 0
-271 272 0
271 -272 0
-272 273 0
272 -273 0
-273 1090 274 0
-273 -1090 -1114 -274 0
-273 1114 274 0
273 1090 -274 0
273 1114 -274 0
273 -1090 -1114 274 0
-274 1113 276 0
-274 1091 275 276 0
-274 -1091 -275 276 0
-274 1091 -1113 -275 -276 0
-274 -1091 -1113 275 -276 0
274 1113 -276 0
274 -1091 -275 -276 0
274 1091 275 -276 0
274 1091 -1113 -275 276 0
274 -1091 -1113 275 276 0
275 -1090 -229 0
-275 1090 0
-275 229 0
-276 1112 277 0
-276 -1092 277 -308 0
-276 1092 277 308 0
-276 -1092 -1112 -277 308 0
-276 1092 -1112 -277 -308 0
276 1112 -277 0
276 1092 -1112 277 -308 0
276 1092 -277 308 0
276 -1092 -277 -308 0
276 -1092 -1112 277 308 0
-277 1111 278 0
-277 -1093 278 -305 0
-277 1093 278 305 0
-277 -1093 -1111 -278 305 0
-277 1093 -1111 -278 -305 0
277 1111 -278 0
277 1093 -1111 278 -305 0
277 1093 -278 305 0
277 -1093 -278 -305 0
277 -1093 -1111 278 305 0
-278 1110 279 0
-278 -1094 279 -302 0
-278 1094 279 302 0
-278 -1094 -1110 -279 302 0
-278 1094 -1110 -279 -302 0
278 1110 -279 0
278 1094 -1110 279 -302 0
278 1094 -279 302 0
278 -1094 -279 -302 0
278 -1094 -1110 279 302 0
-279 1109 280 0
-279 -1095 280 -299 0
-279 1095 280 299 0
-279 -1095 -1109 -280 299 0
-279 1095 -1109 -280 -299 0
279 1109 -280 0
279 1095 -1109 280 -299 0
279 1095 -280 299 0
279 -1095 -280 -299 0
279 -1095 -1109 280 299 0
-280 1108 281 0
-280 -1096 281 -296 0
-280 1096 281 296 0
-280 -1096 -1108 -281 296 0
-280 1096 -1108 -281 -296 0
280 1108 -281 0
280 1096 -1108 281 -296 0
280 1096 -281 296 0
280 -1096 -281 -296 0
280 -1096 -1108 281 296 0
-281 1107 282 0
-281 -1097 282 -293 0
-281 1097 282 293 0
-281 -1097 -1107 -282 293 0
-281 1097 -1107 -282 -293 0
281 1107 -282 0
281 1097 -1107 282 -293 0
281 1097 -282 293 0
281 -1097 -282 -293 0
281 -1097 -1107 282 293 0
-282 1106 283 0
-282 -1106 289 290 0
-282 -1106 -289 -290 0
282 1106 -283 0
282 -1106 289 -290 0
282 -1106 -289 290 0
-283 1105 284 0
-283 -1105 285 286 0
-283 -1105 -285 -286 0
283 1105 -284 0
283 -1105 285 -286 0
283 -1105 -285 286 0
284 -1100 -1104 0
-284 1100 0
-284 1104 0
285 1099 -284 0
285 -1099 284 0
-285 -1099 -284 0
-285 1099 284 0
-286 198 287 0
-286 287 288 0
286 -287 0
286 -198 -288 0
-287 1104 0
-287 1098 0
-287 1097 1099 0
287 -1097 -1098 -1104 0
287 -1098 -1099 -1104 0
288 -197 -239 0
-288 197 0
-288 239 0
289 -1098 283 0
289 1098 -283 0
-289 1098 283 0
-289 -1098 -283 0
-290 203 291 0
-290 291 292 0
290 -291 0
290 -203 -292 0
-291 245 237 0
-291 1097 245 0
-291 1097 237 0
291 -1097 -245 0
291 -245 -237 0
291 -1097 -237 0
292 -202 -243 0
-292 202 0
-292 243 0
-293 209 294 0
-293 294 295 0
293 -294 0
293 -209 -295 0
-294 249 236 0
-294 1096 249 0
-294 1096 236 0
294 -1096 -249 0
294 -249 -236 0
294 -1096 -236 0
295 -208 -247 0
-295 208 0
-295 247 0
-296 214 297 0
-296 297 298 0
296 -297 0
296 -214 -298 0
-297 253 235 0
-297 1095 253 0
-297 1095 235 0
297 -1095 -253 0
297 -253 -235 0
297 -1095 -235 0
298 -255 -251 0
-298 255 0
-298 251 0
-299 217 300 0
-299 300 301 0
299 -300 0
299 -217 -301 0
-300 258 234 0
-300 1094 258 0
-300 1094 234 0
300 -1094 -258 0
300 -258 -234 0
300 -1094 -234 0
301 -260 -256 0
-301 260 0
-301 256 0
-302 219 303 0
-302 303 304 0
302 -303 0
302 -219 -304 0
-303 263 233 0
-303 1093 263 0
-303 1093 233 0
303 -1093 -263 0
303 -263 -233 0
303 -1093 -233 0
304 -265 -261 0
-304 265 0
-304 261 0
-305 189 306 0
-305 306 307 0
305 -306 0
305 -189 -307 0
-306 268 232 0
-306 1092 268 0
-306 1092 232 0
306 -1092 -268 0
306 -268 -232 0
306 -1092 -232 0
307 -223 -266 0
-307 223 0
-307 266 0
-308 309 310 0
308 -309 0
308 -310 0
309 -1091 -231 0
-309 1091 0
-309 231 0
310 -230 -311 0
-310 230 0
-310 311 0
311 -1091 231 0
311 1091 -231 0
-311 1091 231 0
-311 -1091 -231 0
-312 313 0
312 -313 0
-313 314 0
313 -314 0
-314 1090 315 0
-314 -1090 -1115 -315 0
-314 1115 315 0
314 1090 -315 0
314 1115 -315 0
314 -1090 -1115 315 0
-315 1114 317 0
-315 1091 316 317 0
-315 -1091 -316 317 0
-315 1091 -1114 -316 -317 0
-315 -1091 -1114 316 -317 0
315 1114 -317 0
315 -1091 -316 -317 0
315 1091 316 -317 0
315 1091 -1114 -316 317 0
315 -1091 -1114 316 317 0
316 -1090 -274 0
-316 1090 0
-316 274 0
-317 1113 318 0
-317 -1113 365 366 0
-317 -1113 -365 -366 0
317 1113 -318 0
317 -1113 365 -366 0
317 -1113 -365 366 0
-318 1112 319 0
-318 -1112 360 361 0
-318 -1112 -360 -361 0
318 1112 -319 0
318 -1112 360 -361 0
318 -1112 -360 361 0
-319 1111 320 0
-319 -1111 355 356 0
-319 -1111 -355 -356 0
319 1111 -320 0
319 -1111 355 -356 0
319 -1111 -355 356 0
-320 1110 321 0
-320 -1110 350 351 0
-320 -1110 -350 -351 0
320 1110 -321 0
320 -1110 350 -351 0
320 -1110 -350 351 0
-321 1109 322 0
-321 -1109 345 346 0
-321 -1109 -345 -346 0
321 1109 -322 0
321 -1109 345 -346 0
321 -1109 -345 346 0
-322 1108 323 0
-322 -1108 340 341 0
-322 -1108 -340 -341 0
322 1108 -323 0
322 -1108 340 -341 0
322 -1108 -340 341 0
-323 1107 324 0
-323 -1107 335 336 0
-323 -1107 -335 -336 0
323 1107 -324 0
323 -1107 335 -336 0
323 -1107 -335 336 0
-324 1106 325 0
-324 -1106 331 332 0
-324 -1106 -331 -332 0
324 1106 -325 0
324 -1106 331 -332 0
324 -1106 -331 332 0
-325 1105 326 0
-325 -1105 327 328 0
-325 -1105 -327 -328 0
325 1105 -326 0
325 -1105 327 -328 0
325 -1105 -327 328 0
326 -1101 -1104 0
-326 1101 0
-326 1104 0
327 1100 -326 0
327 -1100 326 0
-327 -1100 -326 0
-327 1100 326 0
-328 329 330 0
328 -329 0
328 -330 0
329 -1099 -1100 -1104 0
-329 1099 0
-329 1100 0
-329 1104 0
330 -285 -286 0
-330 285 0
-330 286 0
331 -1099 325 0
331 1099 -325 0
-331 1099 325 0
-331 -1099 -325 0
-332 333 334 0
332 -333 0
332 -334 0
333 -1098 -283 0
-333 1098 0
-333 283 0
334 -289 -290 0
-334 289 0
-334 290 0
335 -1098 324 0
335 1098 -324 0
-335 1098 324 0
-335 -1098 -324 0
-336 337 338 0
336 -337 0
336 -338 0
337 -1097 -282 0
-337 1097 0
-337 282 0
338 -339 -293 0
-338 339 0
-338 293 0
339 -1097 282 0
339 1097 -282 0
-339 1097 282 0
-339 -1097 -282 0
340 -1097 323 0
340 1097 -323 0
-340 1097 323 0
-340 -1097 -323 0
-341 342 343 0
341 -342 0
341 -343 0
342 -1096 -281 0
-342 1096 0
-342 281 0
343 -344 -296 0
-343 344 0
-343 296 0
344 -1096 281 0
344 1096 -281 0
-344 1096 281 0
-344 -1096 -281 0
345 -1096 322 0
345 1096 -322 0
-345 1096 322 0
-345 -1096 -322 0
-346 347 348 0
346 -347 0
346 -348 0
347 -1095 -280 0
-347 1095 0
-347 280 0
348 -349 -299 0
-348 349 0
-348 299 0
349 -1095 280 0
349 1095 -280 0
-349 1095 280 0
-349 -1095 -280 0
350 -1095 321 0
350 1095 -321 0
-350 1095 321 0
-350 -1095 -321 0
-351 352 353 0
351 -352 0
351 -353 0
352 -1094 -279 0
-352 1094 0
-352 279 0
353 -354 -302 0
-353 354 0
-353 302 0
354 -1094 279 0
354 1094 -279 0
-354 1094 279 0
-354 -1094 -279 0
355 -1094 320 0
355 1094 -320 0
-355 1094 320 0
-355 -1094 -320 0
-356 357 358 0
356 -357 0
356 -358 0
357 -1093 -278 0
-357 1093 0
-357 278 0
358 -359 -305 0
-358 359 0
-358 305 0
359 -1093 278 0
359 1093 -278 0
-359 1093 278 0
-359 -1093 -278 0
360 -1093 319 0
360 1093 -319 0
-360 1093 319 0
-360 -1093 -319 0
-361 362 363 0
361 -362 0
361 -363 0
362 -1092 -277 0
-362 1092 0
-362 277 0
363 -364 -308 0
-363 364 0
-363 308 0
364 -1092 277 0
364 1092 -277 0
-364 1092 277 0
-364 -1092 -277 0
365 -1092 318 0
365 1092 -318 0
-365 1092 318 0
-365 -1092 -318 0
-366 367 368 0
366 -367 0
366 -368 0
367 -1091 -276 0
-367 1091 0
-367 276 0
368 -275 -369 0
-368 275 0
-368 369 0
369 -1091 276 0
369 1091 -276 0
-369 1091 276 0
-369 -1091 -276 0
-370 371 0
370 -371 0
-371 1090 372 0
-371 -1090 -1116 -372 0
-371 1116 372 0
371 1090 -372 0
371 1116 -372 0
371 -1090 -1116 372 0
-372 1115 374 0
-372 -1115 -373 -436 0
-372 -1115 373 436 0
372 1115 -374 0
372 -1115 -373 436 0
372 -1115 373 -436 0
373 -1090 -315 0
-373 1090 0
-373 315 0
-374 1114 375 0
-374 -1092 375 -432 0
-374 1092 375 432 0
-374 -1092 -1114 -375 432 0
-374 1092 -1114 -375 -432 0
374 1114 -375 0
374 1092 -1114 375 -432 0
374 1092 -375 432 0
374 -1092 -375 -432 0
374 -1092 -1114 375 432 0
-375 1113 376 0
-375 -1093 376 -430 0
-375 1093 376 430 0
-375 -1093 -1113 -376 430 0
-375 1093 -1113 -376 -430 0
375 1113 -376 0
375 1093 -1113 376 -430 0
375 1093 -376 430 0
375 -1093 -376 -430 0
375 -1093 -1113 376 430 0
-376 1112 377 0
-376 -1094 377 -427 0
-376 1094 377 427 0
-376 -1094 -1112 -377 427 0
-376 1094 -1112 -377 -427 0
376 1112 -377 0
376 1094 -1112 377 -427 0
376 1094 -377 427 0
376 -1094 -377 -427 0
376 -1094 -1112 377 427 0
-377 1111 378 0
-377 -1095 378 -421 0
-377 1095 378 421 0
-377 -1095 -1111 -378 421 0
-377 1095 -1111 -378 -421 0
377 1111 -378 0
377 1095 -1111 378 -421 0
377 1095 -378 421 0
377 -1095 -378 -421 0
377 -1095 -1111 378 421 0
-378 1110 379 0
-378 -1096 379 -415 0
-378 1096 379 415 0
-378 -1096 -1110 -379 415 0
-378 1096 -1110 -379 -415 0
378 1110 -379 0
378 1096 -1110 379 -415 0
378 1096 -379 415 0
378 -1096 -379 -415 0
378 -1096 -1110 379 415 0
-379 1109 380 0
-379 -1097 380 -409 0
-379 1097 380 409 0
-379 -1097 -1109 -380 409 0
-379 1097 -1109 -380 -409 0
379 1109 -380 0
379 1097 -1109 380 -409 0
379 1097 -380 409 0
379 -1097 -380 -409 0
379 -1097 -1109 380 409 0
-380 1108 381 0
-380 -1098 381 -403 0
-380 1098 381 403 0
-380 -1098 -1108 -381 403 0
-380 1098 -1108 -381 -403 0
380 1108 -381 0
380 1098 -1108 381 -403 0
380 1098 -381 403 0
380 -1098 -381 -403 0
380 -1098 -1108 381 403 0
-381 1107 382 0
-381 -1099 382 -397 0
-381 1099 382 397 0
-381 -1099 -1107 -382 397 0
-381 1099 -1107 -382 -397 0
381 1107 -382 0
381 1099 -1107 382 -397 0
381 1099 -382 397 0
381 -1099 -382 -397 0
381 -1099 -1107 382 397 0
-382 1106 383 0
-382 -1106 390 391 0
-382 -1106 -390 -391 0
382 1106 -383 0
382 -1106 390 -391 0
382 -1106 -390 391 0
-383 1105 384 0
-383 -1105 385 386 0
-383 -1105 -385 -386 0
383 1105 -384 0
383 -1105 385 -386 0
383 -1105 -385 386 0
384 -1102 -1104 0
-384 1102 0
-384 1104 0
385 1101 -384 0
385 -1101 384 0
-385 -1101 -384 0
-385 1101 384 0
-386 288 388 0
-386 387 388 0
-386 198 388 0
386 -388 0
386 -198 -288 -387 0
387 -285 -327 0
-387 285 0
-387 327 0
-388 287 389 0
-388 389 387 0
388 -389 0
388 -287 -387 0
-389 1104 0
-389 1100 0
-389 1099 1101 0
389 -1099 -1100 -1104 0
389 -1100 -1101 -1104 0
390 -1100 383 0
390 1100 -383 0
-390 1100 383 0
-390 -1100 -383 0
-391 203 392 0
-391 392 396 0
391 -392 0
391 -203 -396 0
-392 333 393 394 0
-392 393 331 394 0
392 -394 0
392 -393 0
392 -333 -331 0
393 -1099 -325 0
-393 1099 0
-393 325 0
394 -291 -395 0
-394 291 0
-394 395 0
395 -289 -331 0
-395 289 0
-395 331 0
396 -292 -395 0
-396 292 0
-396 395 0
-397 209 398 0
-397 398 402 0
397 -398 0
397 -209 -402 0
-398 337 399 400 0
-398 399 335 400 0
398 -400 0
398 -399 0
398 -337 -335 0
399 -1098 -324 0
-399 1098 0
-399 324 0
400 -294 -401 0
-400 294 0
-400 401 0
401 -339 -335 0
-401 339 0
-401 335 0
402 -295 -401 0
-402 295 0
-402 401 0
-403 214 404 0
-403 404 408 0
403 -404 0
403 -214 -408 0
-404 342 405 406 0
-404 405 340 406 0
404 -406 0
404 -405 0
404 -342 -340 0
405 -1097 -323 0
-405 1097 0
-405 323 0
406 -297 -407 0
-406 297 0
-406 407 0
407 -344 -340 0
-407 344 0
-407 340 0
408 -298 -407 0
-408 298 0
-408 407 0
-409 217 410 0
-409 410 414 0
409 -410 0
409 -217 -414 0
-410 300 411 412 0
-410 411 412 413 0
410 -412 0
410 -411 0
410 -300 -413 0
411 -1096 -322 0
-411 1096 0
-411 322 0
412 -347 -345 0
-412 347 0
-412 345 0
413 -349 -345 0
-413 349 0
-413 345 0
414 -301 -413 0
-414 301 0
-414 413 0
-415 219 416 0
-415 416 420 0
415 -416 0
415 -219 -420 0
-416 352 417 418 0
-416 417 350 418 0
416 -418 0
416 -417 0
416 -352 -350 0
417 -1095 -321 0
-417 1095 0
-417 321 0
418 -303 -419 0
-418 303 0
-418 419 0
419 -354 -350 0
-419 354 0
-419 350 0
420 -304 -419 0
-420 304 0
-420 419 0
-421 189 422 0
-421 422 426 0
421 -422 0
421 -189 -426 0
-422 306 423 424 0
-422 423 424 425 0
422 -424 0
422 -423 0
422 -306 -425 0
423 -1094 -320 0
-423 1094 0
-423 320 0
424 -357 -355 0
-424 357 0
-424 355 0
425 -359 -355 0
-425 359 0
-425 355 0
426 -307 -425 0
-426 307 0
-426 425 0
-427 364 428 0
-427 308 428 0
-427 360 428 0
427 -428 0
427 -364 -308 -360 0
-428 429 360 0
-428 362 429 0
428 -429 0
428 -362 -360 0
429 -1093 -319 0
-429 1093 0
-429 319 0
-430 1092 367 431 0
-430 367 318 431 0
-430 1092 318 431 0
430 -1092 -367 0
430 -367 -318 0
430 -431 0
430 -1092 -318 0
431 -275 -369 -365 0
-431 275 0
-431 369 0
-431 365 0
-432 433 434 0
432 -433 0
432 -434 0
433 -1091 -317 0
-433 1091 0
-433 317 0
434 -316 -435 0
-434 316 0
-434 435 0
435 -1091 317 0
435 1091 -317 0
-435 1091 317 0
-435 -1091 -317 0
436 -1091 374 0
436 1091 -374 0
-436 1091 374 0
-436 -1091 -374 0
-437 1090 438 0
-437 -1090 -1117 -438 0
-437 1117 438 0
437 1090 -438 0
437 1117 -438 0
437 -1090 -1117 438 0
-438 1116 440 0
-438 1091 439 440 0
-438 -1091 -439 440 0
-438 1091 -1116 -439 -440 0
-438 -1091 -1116 439 -440 0
438 1116 -440 0
438 -1091 -439 -440 0
438 1091 439 -440 0
438 1091 -1116 -439 440 0
438 -1091 -1116 439 440 0
439 -1090 -372 0
-439 1090 0
-439 372 0
-440 1115 441 0
-440 -1115 500 501 0
-440 -1115 -500 -501 0
440 1115 -441 0
440 -1115 500 -501 0
440 -1115 -500 501 0
-441 1114 442 0
-441 -1114 495 496 0
-441 -1114 -495 -496 0
441 1114 -442 0
441 -1114 495 -496 0
441 -1114 -495 496 0
-442 1113 443 0
-442 -1113 490 491 0
-442 -1113 -490 -491 0
442 1113 -443 0
442 -1113 490 -491 0
442 -1113 -490 491 0
-443 1112 444 0
-443 -1112 485 486 0
-443 -1112 -485 -486 0
443 1112 -444 0
443 -1112 485 -486 0
443 -1112 -485 486 0
-444 1111 445 0
-444 -1111 480 481 0
-444 -1111 -480 -481 0
444 1111 -445 0
444 -1111 480 -481 0
444 -1111 -480 481 0
-445 1110 446 0
-445 -1110 475 476 0
-445 -1110 -475 -476 0
445 1110 -446 0
445 -1110 475 -476 0
445 -1110 -475 476 0
-446 1109 447 0
-446 -1109 470 471 0
-446 -1109 -470 -471 0
446 1109 -447 0
446 -1109 470 -471 0
446 -1109 -470 471 0
-447 1108 448 0
-447 -1108 465 466 0
-447 -1108 -465 -466 0
447 1108 -448 0
447 -1108 465 -466 0
447 -1108 -465 466 0
-448 1107 449 0
-448 -1107 460 461 0
-448 -1107 -460 -461 0
448 1107 -449 0
448 -1107 460 -461 0
448 -1107 -460 461 0
-449 1106 450 0
-449 -1106 456 457 0
-449 -1106 -456 -457 0
449 1106 -450 0
449 -1106 456 -457 0
449 -1106 -456 457 0
-450 1105 451 0
-450 -1105 452 453 0
-450 -1105 -452 -453 0
450 1105 -451 0
450 -1105 452 -453 0
450 -1105 -452 453 0
451 -1103 -1104 0
-451 1103 0
-451 1104 0
452 1102 -451 0
452 -1102 451 0
-452 -1102 -451 0
-452 1102 451 0
-453 454 455 0
453 -454 0
453 -455 0
454 -1101 -1102 -1104 0
-454 1101 0
-454 1102 0
-454 1104 0
455 -385 -386 0
-455 385 0
-455 386 0
456 -1101 450 0
456 1101 -450 0
-456 1101 450 0
-456 -1101 -450 0
-457 458 459 0
457 -458 0
457 -459 0
458 -1100 -383 0
-458 1100 0
-458 383 0
459 -390 -391 0
-459 390 0
-459 391 0
460 -1100 449 0
460 1100 -449 0
-460 1100 449 0
-460 -1100 -449 0
-461 462 463 0
461 -462 0
461 -463 0
462 -1099 -382 0
-462 1099 0
-462 382 0
463 -464 -397 0
-463 464 0
-463 397 0
464 -1099 382 0
464 1099 -382 0
-464 1099 382 0
-464 -1099 -382 0
465 -1099 448 0
465 1099 -448 0
-465 1099 448 0
-465 -1099 -448 0
-466 467 468 0
466 -467 0
466 -468 0
467 -1098 -381 0
-467 1098 0
-467 381 0
468 -469 -403 0
-468 469 0
-468 403 0
469 -1098 381 0
469 1098 -381 0
-469 1098 381 0
-469 -1098 -381 0
470 -1098 447 0
470 1098 -447 0
-470 1098 447 0
-470 -1098 -447 0
-471 472 473 0
471 -472 0
471 -473 0
472 -1097 -380 0
-472 1097 0
-472 380 0
473 -474 -409 0
-473 474 0
-473 409 0
474 -1097 380 0
474 1097 -380 0
-474 1097 380 0
-474 -1097 -380 0
475 -1097 446 0
475 1097 -446 0
-475 1097 446 0
-475 -1097 -446 0
-476 477 478 0
476 -477 0
476 -478 0
477 -1096 -379 0
-477 1096 0
-477 379 0
478 -479 -415 0
-478 479 0
-478 415 0
479 -1096 379 0
479 1096 -379 0
-479 1096 379 0
-479 -1096 -379 0
480 -1096 445 0
480 1096 -445 0
-480 1096 445 0
-480 -1096 -445 0
-481 482 483 0
481 -482 0
481 -483 0
482 -1095 -378 0
-482 1095 0
-482 378 0
483 -484 -421 0
-483 484 0
-483 421 0
484 -1095 378 0
484 1095 -378 0
-484 1095 378 0
-484 -1095 -378 0
485 -1095 444 0
485 1095 -444 0
-485 1095 444 0
-485 -1095 -444 0
-486 487 488 0
486 -487 0
486 -488 0
487 -1094 -377 0
-487 1094 0
-487 377 0
488 -489 -427 0
-488 489 0
-488 427 0
489 -1094 377 0
489 1094 -377 0
-489 1094 377 0
-489 -1094 -377 0
490 -1094 443 0
490 1094 -443 0
-490 1094 443 0
-490 -1094 -443 0
-491 492 493 0
491 -492 0
491 -493 0
492 -1093 -376 0
-492 1093 0
-492 376 0
493 -494 -430 0
-493 494 0
-493 430 0
494 -1093 376 0
494 1093 -376 0
-494 1093 376 0
-494 -1093 -376 0
495 -1093 442 0
495 1093 -442 0
-495 1093 442 0
-495 -1093 -442 0
-496 497 498 0
496 -497 0
496 -498 0
497 -1092 -375 0
-497 1092 0
-497 375 0
498 -499 -432 0
-498 499 0
-498 432 0
499 -1092 375 0
499 1092 -375 0
-499 1092 375 0
-499 -1092 -375 0
500 -1092 441 0
500 1092 -441 0
-500 1092 441 0
-500 -1092 -441 0
-501 502 503 0
501 -502 0
501 -503 0
502 -1091 -374 0
-502 1091 0
-502 374 0
503 -373 -436 0
-503 373 0
-503 436 0
-504 1117 506 0
-504 1091 505 506 0
-504 -1091 -505 506 0
-504 1091 -1117 -505 -506 0
-504 -1091 -1117 505 -506 0
504 1117 -506 0
504 -1091 -505 -506 0
504 1091 505 -506 0
504 1091 -1117 -505 506 0
504 -1091 -1117 505 506 0
505 -1090 -438 0
-505 1090 0
-505 438 0
-506 1116 507 0
-506 -1092 507 -558 0
-506 1092 507 558 0
-506 -1092 -1116 -507 558 0
-506 1092 -1116 -507 -558 0
506 1116 -507 0
506 1092 -1116 507 -558 0
506 1092 -507 558 0
506 -1092 -507 -558 0
506 -1092 -1116 507 558 0
-507 1115 508 0
-507 -1093 508 -554 0
-507 1093 508 554 0
-507 -1093 -1115 -508 554 0
-507 1093 -1115 -508 -554 0
507 1115 -508 0
507 1093 -1115 508 -554 0
507 1093 -508 554 0
507 -1093 -508 -554 0
507 -1093 -1115 508 554 0
-508 1114 509 0
-508 -1094 509 -550 0
-508 1094 509 550 0
-508 -1094 -1114 -509 550 0
-508 1094 -1114 -509 -550 0
508 1114 -509 0
508 1094 -1114 509 -550 0
508 1094 -509 550 0
508 -1094 -509 -550 0
508 -1094 -1114 509 550 0
-509 1113 510 0
-509 -1095 510 -547 0
-509 1095 510 547 0
-509 -1095 -1113 -510 547 0
-509 1095 -1113 -510 -547 0
509 1113 -510 0
509 1095 -1113 510 -547 0
509 1095 -510 547 0
509 -1095 -510 -547 0
509 -1095 -1113 510 547 0
-510 1112 511 0
-510 -1096 511 -543 0
-510 1096 511 543 0
-510 -1096 -1112 -511 543 0
-510 1096 -1112 -511 -543 0
510 1112 -511 0
510 1096 -1112 511 -543 0
510 1096 -511 543 0
510 -1096 -511 -543 0
510 -1096 -1112 511 543 0
-511 1111 512 0
-511 -1097 512 -539 0
-511 1097 512 539 0
-511 -1097 -1111 -512 539 0
-511 1097 -1111 -512 -539 0
511 1111 -512 0
511 1097 -1111 512 -539 0
511 1097 -512 539 0
511 -1097 -512 -539 0
511 -1097 -1111 512 539 0
-512 1110 513 0
-512 -1098 513 -535 0
-512 1098 513 535 0
-512 -1098 -1110 -513 535 0
-512 1098 -1110 -513 -535 0
512 1110 -513 0
512 1098 -1110 513 -535 0
512 1098 -513 535 0
512 -1098 -513 -535 0
512 -1098 -1110 513 535 0
-513 1109 514 0
-513 -1099 514 -531 0
-513 1099 514 531 0
-513 -1099 -1109 -514 531 0
-513 1099 -1109 -514 -531 0
513 1109 -514 0
513 1099 -1109 514 -531 0
513 1099 -514 531 0
513 -1099 -514 -531 0
513 -1099 -1109 514 531 0
-514 1108 515 0
-514 -1100 515 -528 0
-514 1100 515 528 0
-514 -1100 -1108 -515 528 0
-514 1100 -1108 -515 -528 0
514 1108 -515 0
514 1100 -1108 515 -528 0
514 1100 -515 528 0
514 -1100 -515 -528 0
514 -1100 -1108 515 528 0
-515 1107 516 0
-515 -1101 516 -525 0
-515 1101 516 525 0
-515 -1101 -1107 -516 525 0
-515 1101 -1107 -516 -525 0
515 1107 -516 0
515 1101 -1107 516 -525 0
515 1101 -516 525 0
515 -1101 -516 -525 0
515 -1101 -1107 516 525 0
-516 1106 517 0
-516 -1106 520 521 0
-516 -1106 -520 -521 0
516 1106 -517 0
516 -1106 520 -521 0
516 -1106 -520 521 0
517 1103 -1105 -518 0
517 -1103 -1105 518 0
-517 1105 0
-517 -1103 -518 0
-517 1103 518 0
-518 385 519 0
-518 386 519 0
-518 452 519 0
518 -519 0
518 -385 -386 -452 0
-519 1104 0
-519 1102 0
-519 1101 1103 0
519 -1101 -1102 -1104 0
519 -1102 -1103 -1104 0
520 1102 -517 0
520 -1102 517 0
-520 -1102 -517 0
-520 1102 517 0
-521 391 522 0
-521 522 524 0
521 -522 0
521 -391 -524 0
-522 523 456 0
-522 458 523 0
522 -523 0
522 -458 -456 0
523 -1101 -450 0
-523 1101 0
-523 450 0
524 -390 -456 0
-524 390 0
-524 456 0
-525 397 526 0
-525 526 527 0
525 -526 0
525 -397 -527 0
-526 462 449 0
-526 1100 462 0
-526 1100 449 0
526 -1100 -462 0
526 -462 -449 0
526 -1100 -449 0
527 -464 -460 0
-527 464 0
-527 460 0
-528 403 529 0
-528 529 530 0
528 -529 0
528 -403 -530 0
-529 467 448 0
-529 1099 467 0
-529 1099 448 0
529 -1099 -467 0
529 -467 -448 0
529 -1099 -448 0
530 -469 -465 0
-530 469 0
-530 465 0
-531 409 532 0
-531 532 534 0
531 -532 0
531 -409 -534 0
-532 533 470 0
-532 472 533 0
532 -533 0
532 -472 -470 0
533 -1098 -447 0
-533 1098 0
-533 447 0
534 -474 -470 0
-534 474 0
-534 470 0
-535 415 536 0
-535 536 538 0
535 -536 0
535 -415 -538 0
-536 537 475 0
-536 477 537 0
536 -537 0
536 -477 -475 0
537 -1097 -446 0
-537 1097 0
-537 446 0
538 -479 -475 0
-538 479 0
-538 475 0
-539 421 540 0
-539 540 542 0
539 -540 0
539 -421 -542 0
-540 541 480 0
-540 482 541 0
540 -541 0
540 -482 -480 0
541 -1096 -445 0
-541 1096 0
-541 445 0
542 -484 -480 0
-542 484 0
-542 480 0
-543 427 544 0
-543 544 546 0
543 -544 0
543 -427 -546 0
-544 545 485 0
-544 487 545 0
544 -545 0
544 -487 -485 0
545 -1095 -444 0
-545 1095 0
-545 444 0
546 -489 -485 0
-546 489 0
-546 485 0
-547 430 548 0
-547 548 549 0
547 -548 0
547 -430 -549 0
-548 492 443 0
-548 1094 492 0
-548 1094 443 0
548 -1094 -492 0
548 -492 -443 0
548 -1094 -443 0
549 -494 -490 0
-549 494 0
-549 490 0
-550 432 551 0
-550 551 553 0
550 -551 0
550 -432 -553 0
-551 552 495 0
-551 497 552 0
551 -552 0
551 -497 -495 0
552 -1093 -442 0
-552 1093 0
-552 442 0
553 -499 -495 0
-553 499 0
-553 495 0
-554 373 555 0
-554 555 557 0
554 -555 0
554 -373 -557 0
-555 556 500 0
-555 502 556 0
555 -556 0
555 -502 -500 0
556 -1092 -441 0
-556 1092 0
-556 441 0
557 -436 -500 0
-557 436 0
-557 500 0
-558 559 560 0
558 -559 0
558 -560 0
559 -1091 -440 0
-559 1091 0
-559 440 0
560 -439 -561 0
-560 439 0
-560 561 0
561 -1091 440 0
561 1091 -440 0
-561 1091 440 0
-561 -1091 -440 0
-562 1117 563 0
-562 -1117 631 632 0
-562 -1117 -631 -632 0
562 1117 -563 0
562 -1117 631 -632 0
562 -1117 -631 632 0
-563 1116 564 0
-563 -1116 626 627 0
-563 -1116 -626 -627 0
563 1116 -564 0
563 -1116 626 -627 0
563 -1116 -626 627 0
-564 1115 565 0
-564 -1115 621 622 0
-564 -1115 -621 -622 0
564 1115 -565 0
564 -1115 621 -622 0
564 -1115 -621 622 0
-565 1114 566 0
-565 -1114 616 617 0
-565 -1114 -616 -617 0
565 1114 -566 0
565 -1114 616 -617 0
565 -1114 -616 617 0
-566 1113 567 0
-566 -1113 611 612 0
-566 -1113 -611 -612 0
566 1113 -567 0
566 -1113 611 -612 0
566 -1113 -611 612 0
-567 1112 568 0
-567 -1112 606 607 0
-567 -1112 -606 -607 0
567 1112 -568 0
567 -1112 606 -607 0
567 -1112 -606 607 0
-568 1111 569 0
-568 -1111 601 602 0
-568 -1111 -601 -602 0
568 1111 -569 0
568 -1111 601 -602 0
568 -1111 -601 602 0
-569 1110 570 0
-569 -1110 596 597 0
-569 -1110 -596 -597 0
569 1110 -570 0
569 -1110 596 -597 0
569 -1110 -596 597 0
-570 1109 571 0
-570 -1109 591 592 0
-570 -1109 -591 -592 0
570 1109 -571 0
570 -1109 591 -592 0
570 -1109 -591 592 0
-571 1108 572 0
-571 -1108 586 587 0
-571 -1108 -586 -587 0
571 1108 -572 0
571 -1108 586 -587 0
571 -1108 -586 587 0
-572 1107 573 0
-572 -1107 581 582 0
-572 -1107 -581 -582 0
572 1107 -573 0
572 -1107 581 -582 0
572 -1107 -581 582 0
-573 1106 574 0
-573 -1106 576 578 0
-573 -1106 -576 -578 0
573 1106 -574 0
573 -1106 576 -578 0
573 -1106 -576 578 0
574 -1105 -575 0
-574 1105 0
-574 575 0
575 -1103 -518 0
-575 1103 0
-575 518 0
576 -1103 577 0
-576 1103 0
-576 -577 0
577 -1103 -574 0
-577 1103 0
-577 574 0
-578 579 580 0
578 -579 0
578 -580 0
579 -1102 -517 0
-579 1102 0
-579 517 0
580 -520 -521 0
-580 520 0
-580 521 0
581 -1102 573 0
581 1102 -573 0
-581 1102 573 0
-581 -1102 -573 0
-582 583 584 0
582 -583 0
582 -584 0
583 -1101 -516 0
-583 1101 0
-583 516 0
584 -585 -525 0
-584 585 0
-584 525 0
585 -1101 516 0
585 1101 -516 0
-585 1101 516 0
-585 -1101 -516 0
586 -1101 572 0
586 1101 -572 0
-586 1101 572 0
-586 -1101 -572 0
-587 588 589 0
587 -588 0
587 -589 0
588 -1100 -515 0
-588 1100 0
-588 515 0
589 -590 -528 0
-589 590 0
-589 528 0
590 -1100 515 0
590 1100 -515 0
-590 1100 515 0
-590 -1100 -515 0
591 -1100 571 0
591 1100 -571 0
-591 1100 571 0
-591 -1100 -571 0
-592 593 594 0
592 -593 0
592 -594 0
593 -1099 -514 0
-593 1099 0
-593 514 0
594 -595 -531 0
-594 595 0
-594 531 0
595 -1099 514 0
595 1099 -514 0
-595 1099 514 0
-595 -1099 -514 0
596 -1099 570 0
596 1099 -570 0
-596 1099 570 0
-596 -1099 -570 0
-597 598 599 0
597 -598 0
597 -599 0
598 -1098 -513 0
-598 1098 0
-598 513 0
599 -600 -535 0
-599 600 0
-599 535 0
600 -1098 513 0
600 1098 -513 0
-600 1098 513 0
-600 -1098 -513 0
601 -1098 569 0
601 1098 -569 0
-601 1098 569 0
-601 -1098 -569 0
-602 603 604 0
602 -603 0
602 -604 0
603 -1097 -512 0
-603 1097 0
-603 512 0
604 -605 -539 0
-604 605 0
-604 539 0
605 -1097 512 0
605 1097 -512 0
-605 1097 512 0
-605 -1097 -512 0
606 -1097 568 0
606 1097 -568 0
-606 1097 568 0
-606 -1097 -568 0
-607 608 609 0
607 -608 0
607 -609 0
608 -1096 -511 0
-608 1096 0
-608 511 0
609 -610 -543 0
-609 610 0
-609 543 0
610 -1096 511 0
610 1096 -511 0
-610 1096 511 0
-610 -1096 -511 0
611 -1096 567 0
611 1096 -567 0
-611 1096 567 0
-611 -1096 -567 0
-612 613 614 0
612 -613 0
612 -614 0
613 -1095 -510 0
-613 1095 0
-613 510 0
614 -615 -547 0
-614 615 0
-614 547 0
615 -1095 510 0
615 1095 -510 0
-615 1095 510 0
-615 -1095 -510 0
616 -1095 566 0
616 1095 -566 0
-616 1095 566 0
-616 -1095 -566 0
-617 618 619 0
617 -618 0
617 -619 0
618 -1094 -509 0
-618 1094 0
-618 509 0
619 -620 -550 0
-619 620 0
-619 550 0
620 -1094 509 0
620 1094 -509 0
-620 1094 509 0
-620 -1094 -509 0
621 -1094 565 0
621 1094 -565 0
-621 1094 565 0
-621 -1094 -565 0
-622 623 624 0
622 -623 0
622 -624 0
623 -1093 -508 0
-623 1093 0
-623 508 0
624 -625 -554 0
-624 625 0
-624 554 0
625 -1093 508 0
625 1093 -508 0
-625 1093 508 0
-625 -1093 -508 0
626 -1093 564 0
626 1093 -564 0
-626 1093 564 0
-626 -1093 -564 0
-627 628 629 0
627 -628 0
627 -629 0
628 -1092 -507 0
-628 1092 0
-628 507 0
629 -630 -558 0
-629 630 0
-629 558 0
630 -1092 507 0
630 1092 -507 0
-630 1092 507 0
-630 -1092 -507 0
631 -1092 563 0
631 1092 -563 0
-631 1092 563 0
-631 -1092 -563 0
-632 633 634 0
632 -633 0
632 -634 0
633 -1091 -506 0
-633 1091 0
-633 506 0
634 -505 -635 0
-634 505 0
-634 635 0
635 -1091 506 0
635 1091 -506 0
-635 1091 506 0
-635 -1091 -506 0
-636 1117 637 0
-636 -1093 637 -712 0
-636 1093 637 712 0
-636 -1093 -1117 -637 712 0
-636 1093 -1117 -637 -712 0
636 1117 -637 0
636 1093 -1117 637 -712 0
636 1093 -637 712 0
636 -1093 -637 -712 0
636 -1093 -1117 637 712 0
-637 1116 638 0
-637 -1094 638 -709 0
-637 1094 638 709 0
-637 -1094 -1116 -638 709 0
-637 1094 -1116 -638 -709 0
637 1116 -638 0
637 1094 -1116 638 -709 0
637 1094 -638 709 0
637 -1094 -638 -709 0
637 -1094 -1116 638 709 0
-638 1115 639 0
-638 -1095 639 -704 0
-638 1095 639 704 0
-638 -1095 -1115 -639 704 0
-638 1095 -1115 -639 -704 0
638 1115 -639 0
638 1095 -1115 639 -704 0
638 1095 -639 704 0
638 -1095 -639 -704 0
638 -1095 -1115 639 704 0
-639 1114 640 0
-639 -1096 640 -699 0
-639 1096 640 699 0
-639 -1096 -1114 -640 699 0
-639 1096 -1114 -640 -699 0
639 1114 -640 0
639 1096 -1114 640 -699 0
639 1096 -640 699 0
639 -1096 -640 -699 0
639 -1096 -1114 640 699 0
-640 1113 641 0
-640 -1097 641 -694 0
-640 1097 641 694 0
-640 -1097 -1113 -641 694 0
-640 1097 -1113 -641 -694 0
640 1113 -641 0
640 1097 -1113 641 -694 0
640 1097 -641 694 0
640 -1097 -641 -694 0
640 -1097 -1113 641 694 0
-641 1112 642 0
-641 -1098 642 -689 0
-641 1098 642 689 0
-641 -1098 -1112 -642 689 0
-641 1098 -1112 -642 -689 0
641 1112 -642 0
641 1098 -1112 642 -689 0
641 1098 -642 689 0
641 -1098 -642 -689 0
641 -1098 -1112 642 689 0
-642 1111 643 0
-642 -1099 643 -682 0
-642 1099 643 682 0
-642 -1099 -1111 -643 682 0
-642 1099 -1111 -643 -682 0
642 1111 -643 0
642 1099 -1111 643 -682 0
642 1099 -643 682 0
642 -1099 -643 -682 0
642 -1099 -1111 643 682 0
-643 1110 644 0
-643 -1100 644 -675 0
-643 1100 644 675 0
-643 -1100 -1110 -644 675 0
-643 1100 -1110 -644 -675 0
643 1110 -644 0
643 1100 -1110 644 -675 0
643 1100 -644 675 0
643 -1100 -644 -675 0
643 -1100 -1110 644 675 0
-644 1109 645 0
-644 -1101 645 -668 0
-644 1101 645 668 0
-644 -1101 -1109 -645 668 0
-644 1101 -1109 -645 -668 0
644 1109 -645 0
644 1101 -1109 645 -668 0
644 1101 -645 668 0
644 -1101 -645 -668 0
644 -1101 -1109 645 668 0
-645 1108 646 0
-645 -1102 646 -661 0
-645 1102 646 661 0
-645 -1102 -1108 -646 661 0
-645 1102 -1108 -646 -661 0
645 1108 -646 0
645 1102 -1108 646 -661 0
645 1102 -646 661 0
645 -1102 -646 -661 0
645 -1102 -1108 646 661 0
-646 1107 647 0
-646 1103 -1107 -647 -654 0
-646 1103 647 654 0
-646 -1103 647 -654 0
-646 -1103 -1107 -647 654 0
646 1107 -647 0
646 -1103 -647 -654 0
646 1103 -647 654 0
646 -1103 -1107 647 654 0
646 1103 -1107 647 -654 0
647 -1106 -648 0
647 -1106 -203 -653 0
-647 1106 0
-647 203 648 0
-647 648 653 0
-648 392 649 0
-648 649 652 0
648 -649 0
648 -392 -652 0
-649 522 577 650 0
-649 577 650 651 0
649 -650 0
649 -577 0
649 -522 -651 0
650 -579 -576 0
-650 579 0
-650 576 0
651 -520 -576 0
-651 520 0
-651 576 0
652 -524 -651 0
-652 524 0
-652 651 0
653 -396 -652 0
-653 396 0
-653 652 0
-654 402 657 0
-654 655 657 0
-654 209 657 0
654 -657 0
654 -209 -402 -655 0
655 -527 -656 0
-655 527 0
-655 656 0
656 -585 -581 0
-656 585 0
-656 581 0
-657 398 658 660 0
-657 658 660 655 0
657 -658 0
657 -660 0
657 -398 -655 0
-658 659 581 0
-658 583 659 0
658 -659 0
658 -583 -581 0
659 -1102 -573 0
-659 1102 0
-659 573 0
660 -526 -656 0
-660 526 0
-660 656 0
-661 408 664 0
-661 662 664 0
-661 214 664 0
661 -664 0
661 -214 -408 -662 0
662 -530 -663 0
-662 530 0
-662 663 0
663 -590 -586 0
-663 590 0
-663 586 0
-664 404 665 0
-664 665 662 0
664 -665 0
664 -404 -662 0
-665 529 666 667 0
-665 666 667 663 0
665 -667 0
665 -666 0
665 -529 -663 0
666 -1101 -572 0
-666 1101 0
-666 572 0
667 -588 -586 0
-667 588 0
-667 586 0
-668 414 671 0
-668 669 671 0
-668 217 671 0
668 -671 0
668 -217 -414 -669 0
669 -534 -670 0
-669 534 0
-669 670 0
670 -595 -591 0
-670 595 0
-670 591 0
-671 410 672 674 0
-671 672 674 669 0
671 -672 0
671 -674 0
671 -410 -669 0
-672 673 591 0
-672 593 673 0
672 -673 0
672 -593 -591 0
673 -1100 -571 0
-673 1100 0
-673 571 0
674 -532 -670 0
-674 532 0
-674 670 0
-675 420 678 0
-675 676 678 0
-675 219 678 0
675 -678 0
675 -219 -420 -676 0
676 -538 -677 0
-676 538 0
-676 677 0
677 -600 -596 0
-677 600 0
-677 596 0
-678 416 679 681 0
-678 679 681 676 0
678 -679 0
678 -681 0
678 -416 -676 0
-679 680 596 0
-679 598 680 0
679 -680 0
679 -598 -596 0
680 -1099 -570 0
-680 1099 0
-680 570 0
681 -536 -677 0
-681 536 0
-681 677 0
-682 426 685 0
-682 189 685 0
-682 683 685 0
682 -685 0
682 -189 -426 -683 0
683 -542 -684 0
-683 542 0
-683 684 0
684 -605 -601 0
-684 605 0
-684 601 0
-685 422 686 688 0
-685 686 688 683 0
685 -686 0
685 -688 0
685 -422 -683 0
-686 687 601 0
-686 603 687 0
686 -687 0
686 -603 -601 0
687 -1098 -569 0
-687 1098 0
-687 569 0
688 -540 -684 0
-688 540 0
-688 684 0
-689 546 691 0
-689 690 691 0
-689 427 691 0
689 -691 0
689 -427 -546 -690 0
690 -610 -606 0
-690 610 0
-690 606 0
-691 544 692 693 0
-691 692 693 690 0
691 -693 0
691 -692 0
691 -544 -690 0
692 -1097 -568 0
-692 1097 0
-692 568 0
693 -608 -606 0
-693 608 0
-693 606 0
-694 549 696 0
-694 695 696 0
-694 430 696 0
694 -696 0
694 -430 -549 -695 0
695 -615 -611 0
-695 615 0
-695 611 0
-696 613 697 698 0
-696 697 611 698 0
696 -698 0
696 -697 0
696 -613 -611 0
697 -1096 -567 0
-697 1096 0
-697 567 0
698 -548 -695 0
-698 548 0
-698 695 0
-699 553 701 0
-699 700 701 0
-699 432 701 0
699 -701 0
699 -432 -553 -700 0
700 -620 -616 0
-700 620 0
-700 616 0
-701 551 702 703 0
-701 702 703 700 0
701 -703 0
701 -702 0
701 -551 -700 0
702 -1095 -566 0
-702 1095 0
-702 566 0
703 -618 -616 0
-703 618 0
-703 616 0
-704 557 706 0
-704 373 706 0
-704 705 706 0
704 -706 0
704 -373 -557 -705 0
705 -625 -621 0
-705 625 0
-705 621 0
-706 555 707 708 0
-706 707 708 705 0
706 -708 0
706 -707 0
706 -555 -705 0
707 -1094 -565 0
-707 1094 0
-707 565 0
708 -623 -621 0
-708 623 0
-708 621 0
-709 630 710 0
-709 558 710 0
-709 626 710 0
709 -710 0
709 -630 -558 -626 0
-710 711 626 0
-710 628 711 0
710 -711 0
710 -628 -626 0
711 -1093 -564 0
-711 1093 0
-711 564 0
-712 635 713 0
-712 505 713 0
-712 631 713 0
712 -713 0
712 -505 -635 -631 0
-713 714 631 0
-713 633 714 0
713 -714 0
713 -633 -631 0
714 -1092 -563 0
-714 1092 0
-714 563 0
-715 1117 716 0
-715 -1117 770 771 0
-715 -1117 -770 -771 0
715 1117 -716 0
715 -1117 770 -771 0
715 -1117 -770 771 0
-716 1116 717 0
-716 -1116 765 766 0
-716 -1116 -765 -766 0
716 1116 -717 0
716 -1116 765 -766 0
716 -1116 -765 766 0
-717 1115 718 0
-717 -1115 760 761 0
-717 -1115 -760 -761 0
717 1115 -718 0
717 -1115 760 -761 0
717 -1115 -760 761 0
-718 1114 719 0
-718 -1114 755 756 0
-718 -1114 -755 -756 0
718 1114 -719 0
718 -1114 755 -756 0
718 -1114 -755 756 0
-719 1113 720 0
-719 -1113 750 751 0
-719 -1113 -750 -751 0
719 1113 -720 0
719 -1113 750 -751 0
719 -1113 -750 751 0
-720 1112 721 0
-720 -1112 745 746 0
-720 -1112 -745 -746 0
720 1112 -721 0
720 -1112 745 -746 0
720 -1112 -745 746 0
-721 1111 722 0
-721 -1100 722 -741 0
-721 1100 722 741 0
-721 -1100 -1111 -722 741 0
-721 1100 -1111 -722 -741 0
721 1111 -722 0
721 1100 -1111 722 -741 0
721 1100 -722 741 0
721 -1100 -722 -741 0
721 -1100 -1111 722 741 0
-722 1110 723 0
-722 -1101 723 -737 0
-722 1101 723 737 0
-722 -1101 -1110 -723 737 0
-722 1101 -1110 -723 -737 0
722 1110 -723 0
722 1101 -1110 723 -737 0
722 1101 -723 737 0
722 -1101 -723 -737 0
722 -1101 -1110 723 737 0
-723 1109 724 0
-723 -1102 724 -733 0
-723 1102 724 733 0
-723 -1102 -1109 -724 733 0
-723 1102 -1109 -724 -733 0
723 1109 -724 0
723 1102 -1109 724 -733 0
723 1102 -724 733 0
723 -1102 -724 -733 0
723 -1102 -1109 724 733 0
-724 1108 725 0
-724 1103 -1108 -725 -729 0
-724 1103 725 729 0
-724 -1103 725 -729 0
-724 -1103 -1108 -725 729 0
724 1108 -725 0
724 -1103 -725 -729 0
724 1103 -725 729 0
724 -1103 -1108 725 729 0
724 1103 -1108 725 -729 0
725 -1107 -726 0
725 -1107 -727 0
-725 1107 0
-725 726 727 0
726 -1103 -647 0
-726 1103 0
-726 647 0
727 -728 -654 0
-727 728 0
-727 654 0
728 1103 -647 0
728 -1103 647 0
-728 -1103 -647 0
-728 1103 647 0
-729 730 731 0
729 -730 0
729 -731 0
730 -1102 -646 0
-730 1102 0
-730 646 0
731 -732 -661 0
-731 732 0
-731 661 0
732 -1102 646 0
732 1102 -646 0
-732 1102 646 0
-732 -1102 -646 0
-733 734 735 0
733 -734 0
733 -735 0
734 -1101 -645 0
-734 1101 0
-734 645 0
735 -736 -668 0
-735 736 0
-735 668 0
736 -1101 645 0
736 1101 -645 0
-736 1101 645 0
-736 -1101 -645 0
-737 738 739 0
737 -738 0
737 -739 0
738 -1100 -644 0
-738 1100 0
-738 644 0
739 -740 -675 0
-739 740 0
-739 675 0
740 -1100 644 0
740 1100 -644 0
-740 1100 644 0
-740 -1100 -644 0
-741 742 743 0
741 -742 0
741 -743 0
742 -1099 -643 0
-742 1099 0
-742 643 0
743 -744 -682 0
-743 744 0
-743 682 0
744 -1099 643 0
744 1099 -643 0
-744 1099 643 0
-744 -1099 -643 0
745 -1099 721 0
745 1099 -721 0
-745 1099 721 0
-745 -1099 -721 0
-746 747 748 0
746 -747 0
746 -748 0
747 -1098 -642 0
-747 1098 0
-747 642 0
748 -749 -689 0
-748 749 0
-748 689 0
749 -1098 642 0
749 1098 -642 0
-749 1098 642 0
-749 -1098 -642 0
750 -1098 720 0
750 1098 -720 0
-750 1098 720 0
-750 -1098 -720 0
-751 752 753 0
751 -752 0
751 -753 0
752 -1097 -641 0
-752 1097 0
-752 641 0
753 -754 -694 0
-753 754 0
-753 694 0
754 -1097 641 0
754 1097 -641 0
-754 1097 641 0
-754 -1097 -641 0
755 -1097 719 0
755 1097 -719 0
-755 1097 719 0
-755 -1097 -719 0
-756 757 758 0
756 -757 0
756 -758 0
757 -1096 -640 0
-757 1096 0
-757 640 0
758 -759 -699 0
-758 759 0
-758 699 0
759 -1096 640 0
759 1096 -640 0
-759 1096 640 0
-759 -1096 -640 0
760 -1096 718 0
760 1096 -718 0
-760 1096 718 0
-760 -1096 -718 0
-761 762 763 0
761 -762 0
761 -763 0
762 -1095 -639 0
-762 1095 0
-762 639 0
763 -764 -704 0
-763 764 0
-763 704 0
764 -1095 639 0
764 1095 -639 0
-764 1095 639 0
-764 -1095 -639 0
765 -1095 717 0
765 1095 -717 0
-765 1095 717 0
-765 -1095 -717 0
-766 767 768 0
766 -767 0
766 -768 0
767 -1094 -638 0
-767 1094 0
-767 638 0
768 -769 -709 0
-768 769 0
-768 709 0
769 -1094 638 0
769 1094 -638 0
-769 1094 638 0
-769 -1094 -638 0
770 -1094 716 0
770 1094 -716 0
-770 1094 716 0
-770 -1094 -716 0
-771 772 773 0
771 -772 0
771 -773 0
772 -1093 -637 0
-772 1093 0
-772 637 0
773 -774 -712 0
-773 774 0
-773 712 0
774 -1093 637 0
774 1093 -637 0
-774 1093 637 0
-774 -1093 -637 0
-775 1117 776 0
-775 -1095 776 -826 0
-775 1095 776 826 0
-775 -1095 -1117 -776 826 0
-775 1095 -1117 -776 -826 0
775 1117 -776 0
775 1095 -1117 776 -826 0
775 1095 -776 826 0
775 -1095 -776 -826 0
775 -1095 -1117 776 826 0
-776 1116 777 0
-776 -1096 777 -822 0
-776 1096 777 822 0
-776 -1096 -1116 -777 822 0
-776 1096 -1116 -777 -822 0
776 1116 -777 0
776 1096 -1116 777 -822 0
776 1096 -777 822 0
776 -1096 -777 -822 0
776 -1096 -1116 777 822 0
-777 1115 778 0
-777 -1097 778 -818 0
-777 1097 778 818 0
-777 -1097 -1115 -778 818 0
-777 1097 -1115 -778 -818 0
777 1115 -778 0
777 1097 -1115 778 -818 0
777 1097 -778 818 0
777 -1097 -778 -818 0
777 -1097 -1115 778 818 0
-778 1114 779 0
-778 -1098 779 -813 0
-778 1098 779 813 0
-778 -1098 -1114 -779 813 0
-778 1098 -1114 -779 -813 0
778 1114 -779 0
778 1098 -1114 779 -813 0
778 1098 -779 813 0
778 -1098 -779 -813 0
778 -1098 -1114 779 813 0
-779 1113 780 0
-779 -1099 780 -808 0
-779 1099 780 808 0
-779 -1099 -1113 -780 808 0
-779 1099 -1113 -780 -808 0
779 1113 -780 0
779 1099 -1113 780 -808 0
779 1099 -780 808 0
779 -1099 -780 -808 0
779 -1099 -1113 780 808 0
-780 1112 781 0
-780 -1100 781 -804 0
-780 1100 781 804 0
-780 -1100 -1112 -781 804 0
-780 1100 -1112 -781 -804 0
780 1112 -781 0
780 1100 -1112 781 -804 0
780 1100 -781 804 0
780 -1100 -781 -804 0
780 -1100 -1112 781 804 0
-781 1111 782 0
-781 -1101 782 -799 0
-781 1101 782 799 0
-781 -1101 -1111 -782 799 0
-781 1101 -1111 -782 -799 0
781 1111 -782 0
781 1101 -1111 782 -799 0
781 1101 -782 799 0
781 -1101 -782 -799 0
781 -1101 -1111 782 799 0
-782 1110 783 0
-782 -1102 783 -794 0
-782 1102 783 794 0
-782 -1102 -1110 -783 794 0
-782 1102 -1110 -783 -794 0
782 1110 -783 0
782 1102 -1110 783 -794 0
782 1102 -783 794 0
782 -1102 -783 -794 0
782 -1102 -1110 783 794 0
-783 1109 784 0
-783 1103 -1109 -784 -789 0
-783 1103 784 789 0
-783 -1103 784 -789 0
-783 -1103 -1109 -784 789 0
783 1109 -784 0
783 -1103 -784 -789 0
783 1103 -784 789 0
783 -1103 -1109 784 789 0
783 1103 -1109 784 -789 0
784 -1108 -785 0
784 -1108 -788 0
784 -1108 -786 0
-784 1108 0
-784 785 786 788 0
785 -1103 -725 0
-785 1103 0
-785 725 0
786 -730 -787 0
-786 730 0
-786 787 0
787 1103 -725 0
787 -1103 725 0
-787 -1103 -725 0
-787 1103 725 0
788 -732 -661 -787 0
-788 732 0
-788 661 0
-788 787 0
-789 736 791 0
-789 668 791 0
-789 790 791 0
789 -791 0
789 -736 -668 -790 0
790 -1102 724 0
790 1102 -724 0
-790 1102 724 0
-790 -1102 -724 0
-791 792 793 0
791 -792 0
791 -793 0
792 -1102 -724 0
-792 1102 0
-792 724 0
793 -734 -790 0
-793 734 0
-793 790 0
-794 675 795 0
-794 795 798 0
794 -795 0
794 -675 -798 0
-795 796 797 0
-795 738 796 0
795 -796 0
795 -738 -797 0
796 -1101 -723 0
-796 1101 0
-796 723 0
797 -1101 723 0
797 1101 -723 0
-797 1101 723 0
-797 -1101 -723 0
798 -740 -797 0
-798 740 0
-798 797 0
-799 682 800 0
-799 800 803 0
799 -800 0
799 -682 -803 0
-800 801 802 0
-800 742 801 0
800 -801 0
800 -742 -802 0
801 -1100 -722 0
-801 1100 0
-801 722 0
802 -1100 722 0
802 1100 -722 0
-802 1100 722 0
-802 -1100 -722 0
803 -744 -802 0
-803 744 0
-803 802 0
-804 689 805 0
-804 805 807 0
804 -805 0
804 -689 -807 0
-805 806 745 0
-805 747 806 0
805 -806 0
805 -747 -745 0
806 -1099 -721 0
-806 1099 0
-806 721 0
807 -749 -745 0
-807 749 0
-807 745 0
-808 694 809 0
-808 809 812 0
808 -809 0
808 -694 -812 0
-809 810 811 0
809 -810 0
809 -811 0
810 -1098 -720 0
-810 1098 0
-810 720 0
811 -752 -750 0
-811 752 0
-811 750 0
812 -754 -750 0
-812 754 0
-812 750 0
-813 699 814 0
-813 814 817 0
813 -814 0
813 -699 -817 0
-814 815 816 0
814 -815 0
814 -816 0
815 -1097 -719 0
-815 1097 0
-815 719 0
816 -757 -755 0
-816 757 0
-816 755 0
817 -759 -755 0
-817 759 0
-817 755 0
-818 704 819 0
-818 819 821 0
818 -819 0
818 -704 -821 0
-819 820 760 0
-819 762 820 0
819 -820 0
819 -762 -760 0
820 -1096 -718 0
-820 1096 0
-820 718 0
821 -764 -760 0
-821 764 0
-821 760 0
-822 709 823 0
-822 823 825 0
822 -823 0
822 -709 -825 0
-823 824 765 0
-823 767 824 0
823 -824 0
823 -767 -765 0
824 -1095 -717 0
-824 1095 0
-824 717 0
825 -769 -765 0
-825 769 0
-825 765 0
-826 712 827 0
-826 827 829 0
826 -827 0
826 -712 -829 0
-827 828 770 0
-827 772 828 0
827 -828 0
827 -772 -770 0
828 -1094 -716 0
-828 1094 0
-828 716 0
829 -774 -770 0
-829 774 0
-829 770 0
-830 1117 831 0
-830 -1117 874 875 0
-830 -1117 -874 -875 0
830 1117 -831 0
830 -1117 874 -875 0
830 -1117 -874 875 0
-831 1116 832 0
-831 -1116 869 870 0
-831 -1116 -869 -870 0
831 1116 -832 0
831 -1116 869 -870 0
831 -1116 -869 870 0
-832 1115 833 0
-832 -1115 864 865 0
-832 -1115 -864 -865 0
832 1115 -833 0
832 -1115 864 -865 0
832 -1115 -864 865 0
-833 1114 834 0
-833 -1114 859 860 0
-833 -1114 -859 -860 0
833 1114 -834 0
833 -1114 859 -860 0
833 -1114 -859 860 0
-834 1113 835 0
-834 -1113 854 855 0
-834 -1113 -854 -855 0
834 1113 -835 0
834 -1113 854 -855 0
834 -1113 -854 855 0
-835 1112 836 0
-835 -1101 836 -850 0
-835 1101 836 850 0
-835 -1101 -1112 -836 850 0
-835 1101 -1112 -836 -850 0
835 1112 -836 0
835 1101 -1112 836 -850 0
835 1101 -836 850 0
835 -1101 -836 -850 0
835 -1101 -1112 836 850 0
-836 1111 837 0
-836 -1102 837 -846 0
-836 1102 837 846 0
-836 -1102 -1111 -837 846 0
-836 1102 -1111 -837 -846 0
836 1111 -837 0
836 1102 -1111 837 -846 0
836 1102 -837 846 0
836 -1102 -837 -846 0
836 -1102 -1111 837 846 0
-837 1110 838 0
-837 1103 -1110 -838 -842 0
-837 1103 838 842 0
-837 -1103 838 -842 0
-837 -1103 -1110 -838 842 0
837 1110 -838 0
837 -1103 -838 -842 0
837 1103 -838 842 0
837 -1103 -1110 838 842 0
837 1103 -1110 838 -842 0
838 -1109 -839 0
838 -1109 -840 0
-838 1109 0
-838 839 840 0
839 -1103 -784 0
-839 1103 0
-839 784 0
840 -841 -789 0
-840 841 0
-840 789 0
841 1103 -784 0
841 -1103 784 0
-841 -1103 -784 0
-841 1103 784 0
-842 843 844 0
842 -843 0
842 -844 0
843 -1102 -783 0
-843 1102 0
-843 783 0
844 -845 -794 0
-844 845 0
-844 794 0
845 -1102 783 0
845 1102 -783 0
-845 1102 783 0
-845 -1102 -783 0
-846 847 848 0
846 -847 0
846 -848 0
847 -1101 -782 0
-847 1101 0
-847 782 0
848 -849 -799 0
-848 849 0
-848 799 0
849 -1101 782 0
849 1101 -782 0
-849 1101 782 0
-849 -1101 -782 0
-850 851 852 0
850 -851 0
850 -852 0
851 -1100 -781 0
-851 1100 0
-851 781 0
852 -853 -804 0
-852 853 0
-852 804 0
853 -1100 781 0
853 1100 -781 0
-853 1100 781 0
-853 -1100 -781 0
854 -1100 835 0
854 1100 -835 0
-854 1100 835 0
-854 -1100 -835 0
-855 856 857 0
855 -856 0
855 -857 0
856 -1099 -780 0
-856 1099 0
-856 780 0
857 -858 -808 0
-857 858 0
-857 808 0
858 -1099 780 0
858 1099 -780 0
-858 1099 780 0
-858 -1099 -780 0
859 -1099 834 0
859 1099 -834 0
-859 1099 834 0
-859 -1099 -834 0
-860 861 862 0
860 -861 0
860 -862 0
861 -1098 -779 0
-861 1098 0
-861 779 0
862 -863 -813 0
-862 863 0
-862 813 0
863 -1098 779 0
863 1098 -779 0
-863 1098 779 0
-863 -1098 -779 0
864 -1098 833 0
864 1098 -833 0
-864 1098 833 0
-864 -1098 -833 0
-865 866 867 0
865 -866 0
865 -867 0
866 -1097 -778 0
-866 1097 0
-866 778 0
867 -868 -818 0
-867 868 0
-867 818 0
868 -1097 778 0
868 1097 -778 0
-868 1097 778 0
-868 -1097 -778 0
869 -1097 832 0
869 1097 -832 0
-869 1097 832 0
-869 -1097 -832 0
-870 871 872 0
870 -871 0
870 -872 0
871 -1096 -777 0
-871 1096 0
-871 777 0
872 -873 -822 0
-872 873 0
-872 822 0
873 -1096 777 0
873 1096 -777 0
-873 1096 777 0
-873 -1096 -777 0
874 -1096 831 0
874 1096 -831 0
-874 1096 831 0
-874 -1096 -831 0
-875 876 877 0
875 -876 0
875 -877 0
876 -1095 -776 0
-876 1095 0
-876 776 0
877 -878 -826 0
-877 878 0
-877 826 0
878 -1095 776 0
878 1095 -776 0
-878 1095 776 0
-878 -1095 -776 0
-879 1117 880 0
-879 -1097 880 -928 0
-879 1097 880 928 0
-879 -1097 -1117 -880 928 0
-879 1097 -1117 -880 -928 0
879 1117 -880 0
879 1097 -1117 880 -928 0
879 1097 -880 928 0
879 -1097 -880 -928 0
879 -1097 -1117 880 928 0
-880 1116 881 0
-880 -1098 881 -922 0
-880 1098 881 922 0
-880 -1098 -1116 -881 922 0
-880 1098 -1116 -881 -922 0
880 1116 -881 0
880 1098 -1116 881 -922 0
880 1098 -881 922 0
880 -1098 -881 -922 0
880 -1098 -1116 881 922 0
-881 1115 882 0
-881 -1099 882 -916 0
-881 1099 882 916 0
-881 -1099 -1115 -882 916 0
-881 1099 -1115 -882 -916 0
881 1115 -882 0
881 1099 -1115 882 -916 0
881 1099 -882 916 0
881 -1099 -882 -916 0
881 -1099 -1115 882 916 0
-882 1114 883 0
-882 -1100 883 -910 0
-882 1100 883 910 0
-882 -1100 -1114 -883 910 0
-882 1100 -1114 -883 -910 0
882 1114 -883 0
882 1100 -1114 883 -910 0
882 1100 -883 910 0
882 -1100 -883 -910 0
882 -1100 -1114 883 910 0
-883 1113 884 0
-883 -1101 884 -905 0
-883 1101 884 905 0
-883 -1101 -1113 -884 905 0
-883 1101 -1113 -884 -905 0
883 1113 -884 0
883 1101 -1113 884 -905 0
883 1101 -884 905 0
883 -1101 -884 -905 0
883 -1101 -1113 884 905 0
-884 1112 885 0
-884 -1102 885 -899 0
-884 1102 885 899 0
-884 -1102 -1112 -885 899 0
-884 1102 -1112 -885 -899 0
884 1112 -885 0
884 1102 -1112 885 -899 0
884 1102 -885 899 0
884 -1102 -885 -899 0
884 -1102 -1112 885 899 0
-885 1111 886 0
-885 1103 -1111 -886 -893 0
-885 1103 886 893 0
-885 -1103 886 -893 0
-885 -1103 -1111 -886 893 0
885 1111 -886 0
885 -1103 -886 -893 0
885 1103 -886 893 0
885 -1103 -1111 886 893 0
885 1103 -1111 886 -893 0
886 -1110 -887 0
886 -1110 -675 -892 0
-886 1110 0
-886 675 887 0
-886 887 892 0
-887 843 888 890 0
-887 888 889 890 0
887 -890 0
887 -888 0
887 -843 -889 0
888 -1103 -838 0
-888 1103 0
-888 838 0
889 1103 -838 0
889 -1103 838 0
-889 -1103 -838 0
-889 1103 838 0
890 -795 -891 0
-890 795 0
-890 891 0
891 -845 -889 0
-891 845 0
-891 889 0
892 -798 -891 0
-892 798 0
-892 891 0
-893 803 896 0
-893 894 896 0
-893 682 896 0
893 -896 0
893 -682 -803 -894 0
894 -849 -895 0
-894 849 0
-894 895 0
895 -1102 837 0
895 1102 -837 0
-895 1102 837 0
-895 -1102 -837 0
-896 847 897 898 0
-896 897 895 898 0
896 -898 0
896 -897 0
896 -847 -895 0
897 -1102 -837 0
-897 1102 0
-897 837 0
898 -800 -894 0
-898 800 0
-898 894 0
-899 807 902 0
-899 900 902 0
-899 689 902 0
899 -902 0
899 -689 -807 -900 0
900 -853 -901 0
-900 853 0
-900 901 0
901 -1101 836 0
901 1101 -836 0
-901 1101 836 0
-901 -1101 -836 0
-902 851 903 904 0
-902 903 901 904 0
902 -904 0
902 -903 0
902 -851 -901 0
903 -1101 -836 0
-903 1101 0
-903 836 0
904 -805 -900 0
-904 805 0
-904 900 0
-905 812 907 0
-905 906 907 0
-905 694 907 0
905 -907 0
905 -694 -812 -906 0
906 -858 -854 0
-906 858 0
-906 854 0
-907 856 908 909 0
-907 908 854 909 0
907 -909 0
907 -908 0
907 -856 -854 0
908 -1100 -835 0
-908 1100 0
-908 835 0
909 -809 -906 0
-909 809 0
-909 906 0
-910 699 911 0
-910 911 915 0
910 -911 0
910 -699 -915 0
-911 814 912 913 0
-911 912 913 914 0
911 -913 0
911 -912 0
911 -814 -914 0
912 -1099 -834 0
-912 1099 0
-912 834 0
913 -861 -859 0
-913 861 0
-913 859 0
914 -863 -859 0
-914 863 0
-914 859 0
915 -817 -914 0
-915 817 0
-915 914 0
-916 704 917 0
-916 917 921 0
916 -917 0
916 -704 -921 0
-917 819 918 919 0
-917 918 919 920 0
917 -919 0
917 -918 0
917 -819 -920 0
918 -1098 -833 0
-918 1098 0
-918 833 0
919 -866 -864 0
-919 866 0
-919 864 0
920 -868 -864 0
-920 868 0
-920 864 0
921 -821 -920 0
-921 821 0
-921 920 0
-922 709 923 0
-922 923 927 0
922 -923 0
922 -709 -927 0
-923 823 924 925 0
-923 924 925 926 0
923 -925 0
923 -924 0
923 -823 -926 0
924 -1097 -832 0
-924 1097 0
-924 832 0
925 -871 -869 0
-925 871 0
-925 869 0
926 -873 -869 0
-926 873 0
-926 869 0
927 -825 -926 0
-927 825 0
-927 926 0
-928 712 929 0
-928 929 933 0
928 -929 0
928 -712 -933 0
-929 827 930 931 0
-929 930 931 932 0
929 -931 0
929 -930 0
929 -827 -932 0
930 -1096 -831 0
-930 1096 0
-930 831 0
931 -876 -874 0
-931 876 0
-931 874 0
932 -878 -874 0
-932 878 0
-932 874 0
933 -829 -932 0
-933 829 0
-933 932 0
-934 1117 935 0
-934 -1117 966 967 0
-934 -1117 -966 -967 0
934 1117 -935 0
934 -1117 966 -967 0
934 -1117 -966 967 0
-935 1116 936 0
-935 -1116 961 962 0
-935 -1116 -961 -962 0
935 1116 -936 0
935 -1116 961 -962 0
935 -1116 -961 962 0
-936 1115 937 0
-936 -1115 956 957 0
-936 -1115 -956 -957 0
936 1115 -937 0
936 -1115 956 -957 0
936 -1115 -956 957 0
-937 1114 938 0
-937 -1101 938 -952 0
-937 1101 938 952 0
-937 -1101 -1114 -938 952 0
-937 1101 -1114 -938 -952 0
937 1114 -938 0
937 1101 -1114 938 -952 0
937 1101 -938 952 0
937 -1101 -938 -952 0
937 -1101 -1114 938 952 0
-938 1113 939 0
-938 -1102 939 -948 0
-938 1102 939 948 0
-938 -1102 -1113 -939 948 0
-938 1102 -1113 -939 -948 0
938 1113 -939 0
938 1102 -1113 939 -948 0
938 1102 -939 948 0
938 -1102 -939 -948 0
938 -1102 -1113 939 948 0
-939 1112 940 0
-939 1103 -1112 -940 -944 0
-939 1103 940 944 0
-939 -1103 940 -944 0
-939 -1103 -1112 -940 944 0
939 1112 -940 0
939 -1103 -940 -944 0
939 1103 -940 944 0
939 -1103 -1112 940 944 0
939 1103 -1112 940 -944 0
940 -1111 -941 0
940 -1111 -942 0
-940 1111 0
-940 941 942 0
941 -1103 -886 0
-941 1103 0
-941 886 0
942 -943 -893 0
-942 943 0
-942 893 0
943 1103 -886 0
943 -1103 886 0
-943 -1103 -886 0
-943 1103 886 0
-944 945 946 0
944 -945 0
944 -946 0
945 -1102 -885 0
-945 1102 0
-945 885 0
946 -947 -899 0
-946 947 0
-946 899 0
947 -1102 885 0
947 1102 -885 0
-947 1102 885 0
-947 -1102 -885 0
-948 949 950 0
948 -949 0
948 -950 0
949 -1101 -884 0
-949 1101 0
-949 884 0
950 -951 -905 0
-950 951 0
-950 905 0
951 -1101 884 0
951 1101 -884 0
-951 1101 884 0
-951 -1101 -884 0
-952 953 954 0
952 -953 0
952 -954 0
953 -1100 -883 0
-953 1100 0
-953 883 0
954 -955 -910 0
-954 955 0
-954 910 0
955 -1100 883 0
955 1100 -883 0
-955 1100 883 0
-955 -1100 -883 0
956 -1100 937 0
956 1100 -937 0
-956 1100 937 0
-956 -1100 -937 0
-957 958 959 0
957 -958 0
957 -959 0
958 -1099 -882 0
-958 1099 0
-958 882 0
959 -960 -916 0
-959 960 0
-959 916 0
960 -1099 882 0
960 1099 -882 0
-960 1099 882 0
-960 -1099 -882 0
961 -1099 936 0
961 1099 -936 0
-961 1099 936 0
-961 -1099 -936 0
-962 963 964 0
962 -963 0
962 -964 0
963 -1098 -881 0
-963 1098 0
-963 881 0
964 -965 -922 0
-964 965 0
-964 922 0
965 -1098 881 0
965 1098 -881 0
-965 1098 881 0
-965 -1098 -881 0
966 -1098 935 0
966 1098 -935 0
-966 1098 935 0
-966 -1098 -935 0
-967 968 969 0
967 -968 0
967 -969 0
968 -1097 -880 0
-968 1097 0
-968 880 0
969 -970 -928 0
-969 970 0
-969 928 0
970 -1097 880 0
970 1097 -880 0
-970 1097 880 0
-970 -1097 -880 0
-971 1117 972 0
-971 -1099 972 -999 0
-971 1099 972 999 0
-971 -1099 -1117 -972 999 0
-971 1099 -1117 -972 -999 0
971 1117 -972 0
971 1099 -1117 972 -999 0
971 1099 -972 999 0
971 -1099 -972 -999 0
971 -1099 -1117 972 999 0
-972 1116 973 0
-972 -1100 973 -995 0
-972 1100 973 995 0
-972 -1100 -1116 -973 995 0
-972 1100 -1116 -973 -995 0
972 1116 -973 0
972 1100 -1116 973 -995 0
972 1100 -973 995 0
972 -1100 -973 -995 0
972 -1100 -1116 973 995 0
-973 1115 974 0
-973 -1101 974 -991 0
-973 1101 974 991 0
-973 -1101 -1115 -974 991 0
-973 1101 -1115 -974 -991 0
973 1115 -974 0
973 1101 -1115 974 -991 0
973 1101 -974 991 0
973 -1101 -974 -991 0
973 -1101 -1115 974 991 0
-974 1114 975 0
-974 -1102 975 -985 0
-974 1102 975 985 0
-974 -1102 -1114 -975 985 0
-974 1102 -1114 -975 -985 0
974 1114 -975 0
974 1102 -1114 975 -985 0
974 1102 -975 985 0
974 -1102 -975 -985 0
974 -1102 -1114 975 985 0
-975 1113 976 0
-975 1103 -1113 -976 -981 0
-975 1103 976 981 0
-975 -1103 976 -981 0
-975 -1103 -1113 -976 981 0
975 1113 -976 0
975 -1103 -976 -981 0
975 1103 -976 981 0
975 -1103 -1113 976 981 0
975 1103 -1113 976 -981 0
976 -1112 -977 0
976 -1112 -980 0
976 -1112 -978 0
-976 1112 0
-976 977 978 980 0
977 -1103 -940 0
-977 1103 0
-977 940 0
978 -945 -979 0
-978 945 0
-978 979 0
979 1103 -940 0
979 -1103 940 0
-979 -1103 -940 0
-979 1103 940 0
980 -947 -899 -979 0
-980 947 0
-980 899 0
-980 979 0
-981 951 983 0
-981 905 983 0
-981 982 983 0
981 -983 0
981 -951 -905 -982 0
982 -1102 939 0
982 1102 -939 0
-982 1102 939 0
-982 -1102 -939 0
-983 984 982 0
-983 949 984 0
983 -984 0
983 -949 -982 0
984 -1102 -939 0
-984 1102 0
-984 939 0
-985 910 986 0
-985 986 990 0
985 -986 0
985 -910 -990 0
-986 987 988 0
986 -987 0
986 -988 0
987 -1101 -938 0
-987 1101 0
-987 938 0
988 -953 -989 0
-988 953 0
-988 989 0
989 -1101 938 0
989 1101 -938 0
-989 1101 938 0
-989 -1101 -938 0
990 -955 -989 0
-990 955 0
-990 989 0
-991 916 992 0
-991 992 994 0
991 -992 0
991 -916 -994 0
-992 993 956 0
-992 958 993 0
992 -993 0
992 -958 -956 0
993 -1100 -937 0
-993 1100 0
-993 937 0
994 -960 -956 0
-994 960 0
-994 956 0
-995 922 996 0
-995 996 998 0
995 -996 0
995 -922 -998 0
-996 997 961 0
-996 963 997 0
996 -997 0
996 -963 -961 0
997 -1099 -936 0
-997 1099 0
-997 936 0
998 -965 -961 0
-998 965 0
-998 961 0
-999 928 1000 0
-999 1000 1001 0
999 -1000 0
999 -928 -1001 0
-1000 968 935 0
-1000 1098 968 0
-1000 1098 935 0
1000 -1098 -968 0
1000 -968 -935 0
1000 -1098 -935 0
1001 -970 -966 0
-1001 970 0
-1001 966 0
-1002 1117 1003 0
-1002 -1117 1023 1024 0
-1002 -1117 -1023 -1024 0
1002 1117 -1003 0
1002 -1117 1023 -1024 0
1002 -1117 -1023 1024 0
-1003 1116 1004 0
-1003 -1116 1018 1019 0
-1003 -1116 -1018 -1019 0
1003 1116 -1004 0
1003 -1116 1018 -1019 0
1003 -1116 -1018 1019 0
-1004 1115 1005 0
-1004 -1102 1005 -1014 0
-1004 1102 1005 1014 0
-1004 -1102 -1115 -1005 1014 0
-1004 1102 -1115 -1005 -1014 0
1004 1115 -1005 0
1004 1102 -1115 1005 -1014 0
1004 1102 -1005 1014 0
1004 -1102 -1005 -1014 0
1004 -1102 -1115 1005 1014 0
-1005 1114 1006 0
-1005 1103 -1114 -1006 -1010 0
-1005 1103 1006 1010 0
-1005 -1103 1006 -1010 0
-1005 -1103 -1114 -1006 1010 0
1005 1114 -1006 0
1005 -1103 -1006 -1010 0
1005 1103 -1006 1010 0
1005 -1103 -1114 1006 1010 0
1005 1103 -1114 1006 -1010 0
1006 -1113 -1007 0
1006 -1113 -1008 0
-1006 1113 0
-1006 1007 1008 0
1007 -1103 -976 0
-1007 1103 0
-1007 976 0
1008 -1009 -981 0
-1008 1009 0
-1008 981 0
1009 1103 -976 0
1009 -1103 976 0
-1009 -1103 -976 0
-1009 1103 976 0
-1010 1011 1012 0
1010 -1011 0
1010 -1012 0
1011 -1102 -975 0
-1011 1102 0
-1011 975 0
1012 -1013 -985 0
-1012 1013 0
-1012 985 0
1013 -1102 975 0
1013 1102 -975 0
-1013 1102 975 0
-1013 -1102 -975 0
-1014 1015 1016 0
1014 -1015 0
1014 -1016 0
1015 -1101 -974 0
-1015 1101 0
-1015 974 0
1016 -1017 -991 0
-1016 1017 0
-1016 991 0
1017 -1101 974 0
1017 1101 -974 0
-1017 1101 974 0
-1017 -1101 -974 0
1018 -1101 1004 0
1018 1101 -1004 0
-1018 1101 1004 0
-1018 -1101 -1004 0
-1019 1020 1021 0
1019 -1020 0
1019 -1021 0
1020 -1100 -973 0
-1020 1100 0
-1020 973 0
1021 -1022 -995 0
-1021 1022 0
-1021 995 0
1022 -1100 973 0
1022 1100 -973 0
-1022 1100 973 0
-1022 -1100 -973 0
1023 -1100 1003 0
1023 1100 -1003 0
-1023 1100 1003 0
-1023 -1100 -1003 0
-1024 1025 1026 0
1024 -1025 0
1024 -1026 0
1025 -1099 -972 0
-1025 1099 0
-1025 972 0
1026 -1027 -999 0
-1026 1027 0
-1026 999 0
1027 -1099 972 0
1027 1099 -972 0
-1027 1099 972 0
-1027 -1099 -972 0
-1028 1117 1029 0
-1028 -1101 1029 -1055 0
-1028 1101 1029 1055 0
-1028 -1101 -1117 -1029 1055 0
-1028 1101 -1117 -1029 -1055 0
1028 1117 -1029 0
1028 1101 -1117 1029 -1055 0
1028 1101 -1029 1055 0
1028 -1101 -1029 -1055 0
1028 -1101 -1117 1029 1055 0
-1029 1116 1030 0
-1029 -1102 1030 -1048 0
-1029 1102 1030 1048 0
-1029 -1102 -1116 -1030 1048 0
-1029 1102 -1116 -1030 -1048 0
1029 1116 -1030 0
1029 1102 -1116 1030 -1048 0
1029 1102 -1030 1048 0
1029 -1102 -1030 -1048 0
1029 -1102 -1116 1030 1048 0
-1030 1115 1031 0
-1030 1103 -1115 -1031 -1040 0
-1030 1103 1031 1040 0
-1030 -1103 1031 -1040 0
-1030 -1103 -1115 -1031 1040 0
1030 1115 -1031 0
1030 -1103 -1031 -1040 0
1030 1103 -1031 1040 0
1030 -1103 -1115 1031 1040 0
1030 1103 -1115 1031 -1040 0
1031 -1114 -1032 0
1031 -1114 -699 -1039 0
-1031 1114 0
-1031 699 1032 0
-1031 1032 1039 0
-1032 911 1033 1036 0
-1032 1033 1036 1038 0
1032 -1033 0
1032 -1036 0
1032 -911 -1038 0
-1033 1034 1035 0
-1033 1011 1034 0
1033 -1034 0
1033 -1011 -1035 0
1034 -1103 -1006 0
-1034 1103 0
-1034 1006 0
1035 1103 -1006 0
1035 -1103 1006 0
-1035 -1103 -1006 0
-1035 1103 1006 0
1036 -986 -1037 0
-1036 986 0
-1036 1037 0
1037 -1013 -1035 0
-1037 1013 0
-1037 1035 0
1038 -990 -1037 0
-1038 990 0
-1038 1037 0
1039 -915 -1038 0
-1039 915 0
-1039 1038 0
-1040 921 1044 0
-1040 1041 1044 0
-1040 704 1044 0
1040 -1044 0
1040 -704 -921 -1041 0
1041 -994 -1042 0
-1041 994 0
-1041 1042 0
1042 -1017 -1043 0
-1042 1017 0
-1042 1043 0
1043 -1102 1005 0
1043 1102 -1005 0
-1043 1102 1005 0
-1043 -1102 -1005 0
-1044 917 1045 0
-1044 1045 1041 0
1044 -1045 0
1044 -917 -1041 0
-1045 992 1046 1047 0
-1045 1046 1047 1042 0
1045 -1047 0
1045 -1046 0
1045 -992 -1042 0
1046 -1102 -1005 0
-1046 1102 0
-1046 1005 0
1047 -1015 -1043 0
-1047 1015 0
-1047 1043 0
-1048 927 1051 0
-1048 1049 1051 0
-1048 709 1051 0
1048 -1051 0
1048 -709 -927 -1049 0
1049 -998 -1050 0
-1049 998 0
-1049 1050 0
1050 -1022 -1018 0
-1050 1022 0
-1050 1018 0
-1051 923 1052 1054 0
-1051 1052 1054 1049 0
1051 -1052 0
1051 -1054 0
1051 -923 -1049 0
-1052 1053 1018 0
-1052 1020 1053 0
1052 -1053 0
1052 -1020 -1018 0
1053 -1101 -1004 0
-1053 1101 0
-1053 1004 0
1054 -996 -1050 0
-1054 996 0
-1054 1050 0
-1055 933 1058 0
-1055 1056 1058 0
-1055 712 1058 0
1055 -1058 0
1055 -712 -933 -1056 0
1056 -1001 -1057 0
-1056 1001 0
-1056 1057 0
1057 -1027 -1023 0
-1057 1027 0
-1057 1023 0
-1058 929 1059 1061 0
-1058 1059 1061 1056 0
1058 -1059 0
1058 -1061 0
1058 -929 -1056 0
-1059 1060 1023 0
-1059 1025 1060 0
1059 -1060 0
1059 -1025 -1023 0
1060 -1100 -1003 0
-1060 1100 0
-1060 1003 0
1061 -1000 -1057 0
-1061 1000 0
-1061 1057 0
-1062 1117 1063 0
-1062 -1102 1063 -1072 0
-1062 1102 1063 1072 0
-1062 -1102 -1117 -1063 1072 0
-1062 1102 -1117 -1063 -1072 0
1062 1117 -1063 0
1062 1102 -1117 1063 -1072 0
1062 1102 -1063 1072 0
1062 -1102 -1063 -1072 0
1062 -1102 -1117 1063 1072 0
-1063 1116 1064 0
-1063 1103 -1116 -1064 -1068 0
-1063 1103 1064 1068 0
-1063 -1103 1064 -1068 0
-1063 -1103 -1116 -1064 1068 0
1063 1116 -1064 0
1063 -1103 -1064 -1068 0
1063 1103 -1064 1068 0
1063 -1103 -1116 1064 1068 0
1063 1103 -1116 1064 -1068 0
1064 -1115 -1065 0
1064 -1115 -1066 0
-1064 1115 0
-1064 1065 1066 0
1065 -1103 -1031 0
-1065 1103 0
-1065 1031 0
1066 -1067 -1040 0
-1066 1067 0
-1066 1040 0
1067 1103 -1031 0
1067 -1103 1031 0
-1067 -1103 -1031 0
-1067 1103 1031 0
-1068 1069 1070 0
1068 -1069 0
1068 -1070 0
1069 -1102 -1030 0
-1069 1102 0
-1069 1030 0
1070 -1071 -1048 0
-1070 1071 0
-1070 1048 0
1071 -1102 1030 0
1071 1102 -1030 0
-1071 1102 1030 0
-1071 -1102 -1030 0
-1072 1073 1074 0
1072 -1073 0
1072 -1074 0
1073 -1101 -1029 0
-1073 1101 0
-1073 1029 0
1074 -1075 -1055 0
-1074 1075 0
-1074 1055 0
1075 -1101 1029 0
1075 1101 -1029 0
-1075 1101 1029 0
-1075 -1101 -1029 0
-1076 1117 1077 0
-1076 1103 -1117 -1077 -1082 0
-1076 1103 1077 1082 0
-1076 -1103 1077 -1082 0
-1076 -1103 -1117 -1077 1082 0
1076 1117 -1077 0
1076 -1103 -1077 -1082 0
1076 1103 -1077 1082 0
1076 -1103 -1117 1077 1082 0
1076 1103 -1117 1077 -1082 0
1077 -1116 -1078 0
1077 -1116 -1081 0
1077 -1116 -1079 0
-1077 1116 0
-1077 1078 1079 1081 0
1078 -1103 -1064 0
-1078 1103 0
-1078 1064 0
1079 -1069 -1080 0
-1079 1069 0
-1079 1080 0
1080 1103 -1064 0
1080 -1103 1064 0
-1080 -1103 -1064 0
-1080 1103 1064 0
1081 -1071 -1048 -1080 0
-1081 1071 0
-1081 1048 0
-1081 1080 0
-1082 1075 1084 0
-1082 1055 1084 0
-1082 1083 1084 0
1082 -1084 0
1082 -1075 -1055 -1083 0
1083 -1102 1063 0
1083 1102 -1063 0
-1083 1102 1063 0
-1083 -1102 -1063 0
-1084 1085 1083 0
-1084 1073 1085 0
1084 -1085 0
1084 -1073 -1083 0
1085 -1102 -1063 0
-1085 1102 0
-1085 1063 0
1086 -1117 -1087 0
1086 -1117 -1088 0
-1086 1117 0
-1086 1087 1088 0
1087 -1103 -1077 0
-1087 1103 0
-1087 1077 0
1088 -1089 -1082 0
-1088 1089 0
-1088 1082 0
1089 1103 -1077 0
1089 -1103 1077 0
-1089 -1103 -1077 0
-1089 1103 1077 0
-1118 0
2 0
16 0
30 0
46 0
64 0
87 0
114 0
146 0
182 0
224 0
270 0
312 0
370 0
437 0
504 0
562 0
636 0
715 0
775 0
830 0
879 0
934 0
971 0
1002 0
1028 0
1062 0
1076 0
1086 0

