c Result of efficient AIG-to-CNF conversion using package CNF
p cnf 538 2137
-2 3 0
2 -3 0
-3 4 0
3 -4 0
-4 5 0
4 -5 0
-5 6 0
5 -6 0
-6 7 0
6 -7 0
-7 8 0
7 -8 0
-8 9 0
8 -9 0
-9 10 0
9 -10 0
-10 11 0
10 -11 0
11 -518 -528 0
-11 518 0
-11 528 0
-12 13 0
12 -13 0
-13 14 0
13 -14 0
-14 15 0
14 -15 0
-15 16 0
15 -16 0
-16 17 0
16 -17 0
-17 18 0
17 -18 0
-18 19 0
18 -19 0
-19 20 0
19 -20 0
-20 518 21 0
-20 529 21 0
-20 -518 -529 -21 0
20 518 -21 0
20 -518 -529 21 0
20 529 -21 0
21 -519 -528 0
-21 519 0
-21 528 0
-22 23 0
22 -23 0
-23 24 0
23 -24 0
-24 25 0
24 -25 0
-25 26 0
25 -26 0
-26 27 0
26 -27 0
-27 28 0
27 -28 0
-28 29 0
28 -29 0
-29 518 30 0
-29 -518 -530 -30 0
-29 530 30 0
29 518 -30 0
29 530 -30 0
29 -518 -530 30 0
-30 529 32 0
-30 -529 -31 -33 0
-30 -529 31 33 0
30 529 -32 0
30 -529 -31 33 0
30 -529 31 -33 0
31 -518 -519 -528 0
-31 518 0
-31 519 0
-31 528 0
32 -520 -528 0
-32 520 0
-32 528 0
33 519 -32 0
33 -519 32 0
-33 -519 -32 0
-33 519 32 0
-34 35 0
34 -35 0
-35 36 0
35 -36 0
-36 37 0
36 -37 0
-37 38 0
37 -38 0
-38 39 0
38 -39 0
-39 40 0
39 -40 0
-40 518 41 0
-40 -518 -531 -41 0
-40 531 41 0
40 518 -41 0
40 531 -41 0
40 -518 -531 41 0
-41 530 43 0
-41 -530 -42 -47 0
-41 -530 42 47 0
41 530 -43 0
41 -530 -42 47 0
41 -530 42 -47 0
42 -518 -30 0
-42 518 0
-42 30 0
-43 529 44 0
-43 -529 45 46 0
-43 -529 -45 -46 0
43 529 -44 0
43 -529 45 -46 0
43 -529 -45 46 0
44 -521 -528 0
-44 521 0
-44 528 0
45 520 -44 0
45 -520 44 0
-45 -520 -44 0
-45 520 44 0
-46 528 0
-46 519 0
-46 518 520 0
46 -518 -519 -528 0
46 -519 -520 -528 0
47 -519 43 0
47 519 -43 0
-47 519 43 0
-47 -519 -43 0
-48 49 0
48 -49 0
-49 50 0
49 -50 0
-50 51 0
50 -51 0
-51 52 0
51 -52 0
-52 53 0
52 -53 0
-53 518 54 0
-53 -518 -532 -54 0
-53 532 54 0
53 518 -54 0
53 532 -54 0
53 -518 -532 54 0
-54 531 56 0
-54 -531 -55 -66 0
-54 -531 55 66 0
54 531 -56 0
54 -531 -55 66 0
54 -531 55 -66 0
55 -518 -41 0
-55 518 0
-55 41 0
-56 530 57 0
-56 -530 62 63 0
-56 -530 -62 -63 0
56 530 -57 0
56 -530 62 -63 0
56 -530 -62 63 0
-57 529 58 0
-57 -529 59 60 0
-57 -529 -59 -60 0
57 529 -58 0
57 -529 59 -60 0
57 -529 -59 60 0
58 -522 -528 0
-58 522 0
-58 528 0
59 521 -58 0
59 -521 58 0
-59 -521 -58 0
-59 521 58 0
-60 33 61 0
-60 31 61 0
-60 45 61 0
60 -61 0
60 -31 -33 -45 0
-61 528 0
-61 520 0
-61 519 521 0
61 -519 -520 -528 0
61 -520 -521 -528 0
62 -520 57 0
62 520 -57 0
-62 520 57 0
-62 -520 -57 0
-63 64 65 0
63 -64 0
63 -65 0
64 -519 -43 0
-64 519 0
-64 43 0
65 -42 -47 0
-65 42 0
-65 47 0
66 -519 56 0
66 519 -56 0
-66 519 56 0
-66 -519 -56 0
-67 68 0
67 -68 0
-68 69 0
68 -69 0
-69 70 0
69 -70 0
-70 71 0
70 -71 0
-71 518 72 0
-71 -518 -533 -72 0
-71 533 72 0
71 518 -72 0
71 533 -72 0
71 -518 -533 72 0
-72 532 74 0
-72 519 73 74 0
-72 -519 -73 74 0
-72 519 -532 -73 -74 0
-72 -519 -532 73 -74 0
72 532 -74 0
72 -519 -73 -74 0
72 519 73 -74 0
72 519 -532 -73 74 0
72 -519 -532 73 74 0
73 -518 -54 0
-73 518 0
-73 54 0
-74 531 75 0
-74 -531 86 87 0
-74 -531 -86 -87 0
74 531 -75 0
74 -531 86 -87 0
74 -531 -86 87 0
-75 530 76 0
-75 -530 82 83 0
-75 -530 -82 -83 0
75 530 -76 0
75 -530 82 -83 0
75 -530 -82 83 0
-76 529 77 0
-76 -529 78 79 0
-76 -529 -78 -79 0
76 529 -77 0
76 -529 78 -79 0
76 -529 -78 79 0
77 -523 -528 0
-77 523 0
-77 528 0
78 522 -77 0
78 -522 77 0
-78 -522 -77 0
-78 522 77 0
-79 80 81 0
79 -80 0
79 -81 0
80 -521 -522 -528 0
-80 521 0
-80 522 0
-80 528 0
81 -59 -60 0
-81 59 0
-81 60 0
82 -521 76 0
82 521 -76 0
-82 521 76 0
-82 -521 -76 0
-83 84 85 0
83 -84 0
83 -85 0
84 -520 -57 0
-84 520 0
-84 57 0
85 -62 -63 0
-85 62 0
-85 63 0
86 -520 75 0
86 520 -75 0
-86 520 75 0
-86 -520 -75 0
-87 88 89 0
87 -88 0
87 -89 0
88 -519 -56 0
-88 519 0
-88 56 0
89 -55 -66 0
-89 55 0
-89 66 0
-90 91 0
90 -91 0
-91 92 0
91 -92 0
-92 93 0
92 -93 0
-93 518 94 0
-93 -518 -534 -94 0
-93 534 94 0
93 518 -94 0
93 534 -94 0
93 -518 -534 94 0
-94 533 96 0
-94 -533 -95 -118 0
-94 -533 95 118 0
94 533 -96 0
94 -533 -95 118 0
94 -533 95 -118 0
95 -518 -72 0
-95 518 0
-95 72 0
-96 532 97 0
-96 -520 97 -114 0
-96 520 97 114 0
-96 -520 -532 -97 114 0
-96 520 -532 -97 -114 0
96 532 -97 0
96 520 -532 97 -114 0
96 520 -97 114 0
96 -520 -97 -114 0
96 -520 -532 97 114 0
-97 531 98 0
-97 -531 110 111 0
-97 -531 -110 -111 0
97 531 -98 0
97 -531 110 -111 0
97 -531 -110 111 0
-98 530 99 0
-98 -530 105 106 0
-98 -530 -105 -106 0
98 530 -99 0
98 -530 105 -106 0
98 -530 -105 106 0
-99 529 100 0
-99 -529 101 102 0
-99 -529 -101 -102 0
99 529 -100 0
99 -529 101 -102 0
99 -529 -101 102 0
100 -524 -528 0
-100 524 0
-100 528 0
101 523 -100 0
101 -523 100 0
-101 -523 -100 0
-101 523 100 0
-102 60 103 0
-102 103 104 0
102 -103 0
102 -60 -104 0
-103 528 0
-103 522 0
-103 521 523 0
103 -521 -522 -528 0
103 -522 -523 -528 0
104 -59 -78 0
-104 59 0
-104 78 0
105 -522 99 0
105 522 -99 0
-105 522 99 0
-105 -522 -99 0
-106 63 107 0
-106 107 109 0
106 -107 0
106 -63 -109 0
-107 108 82 0
-107 84 108 0
107 -108 0
107 -84 -82 0
108 -521 -76 0
-108 521 0
-108 76 0
109 -62 -82 0
-109 62 0
-109 82 0
110 -521 98 0
110 521 -98 0
-110 521 98 0
-110 -521 -98 0
-111 55 112 0
-111 112 113 0
111 -112 0
111 -55 -113 0
-112 88 75 0
-112 520 88 0
-112 520 75 0
112 -520 -88 0
112 -88 -75 0
112 -520 -75 0
113 -66 -86 0
-113 66 0
-113 86 0
-114 115 116 0
114 -115 0
114 -116 0
115 -519 -74 0
-115 519 0
-115 74 0
116 -73 -117 0
-116 73 0
-116 117 0
117 -519 74 0
117 519 -74 0
-117 519 74 0
-117 -519 -74 0
118 -519 96 0
118 519 -96 0
-118 519 96 0
-118 -519 -96 0
-119 120 0
119 -120 0
-120 121 0
120 -121 0
-121 518 122 0
-121 -518 -535 -122 0
-121 535 122 0
121 518 -122 0
121 535 -122 0
121 -518 -535 122 0
-122 534 124 0
-122 519 123 124 0
-122 -519 -123 124 0
-122 519 -534 -123 -124 0
-122 -519 -534 123 -124 0
122 534 -124 0
122 -519 -123 -124 0
122 519 123 -124 0
122 519 -534 -123 124 0
122 -519 -534 123 124 0
123 -518 -94 0
-123 518 0
-123 94 0
-124 533 125 0
-124 -533 147 148 0
-124 -533 -147 -148 0
124 533 -125 0
124 -533 147 -148 0
124 -533 -147 148 0
-125 532 126 0
-125 -532 142 143 0
-125 -532 -142 -143 0
125 532 -126 0
125 -532 142 -143 0
125 -532 -142 143 0
-126 531 127 0
-126 -531 138 139 0
-126 -531 -138 -139 0
126 531 -127 0
126 -531 138 -139 0
126 -531 -138 139 0
-127 530 128 0
-127 -530 134 135 0
-127 -530 -134 -135 0
127 530 -128 0
127 -530 134 -135 0
127 -530 -134 135 0
-128 529 129 0
-128 -529 130 131 0
-128 -529 -130 -131 0
128 529 -129 0
128 -529 130 -131 0
128 -529 -130 131 0
129 -525 -528 0
-129 525 0
-129 528 0
130 524 -129 0
130 -524 129 0
-130 -524 -129 0
-130 524 129 0
-131 132 133 0
131 -132 0
131 -133 0
132 -523 -524 -528 0
-132 523 0
-132 524 0
-132 528 0
133 -101 -102 0
-133 101 0
-133 102 0
134 -523 128 0
134 523 -128 0
-134 523 128 0
-134 -523 -128 0
-135 136 137 0
135 -136 0
135 -137 0
136 -522 -99 0
-136 522 0
-136 99 0
137 -105 -106 0
-137 105 0
-137 106 0
138 -522 127 0
138 522 -127 0
-138 522 127 0
-138 -522 -127 0
-139 140 141 0
139 -140 0
139 -141 0
140 -521 -98 0
-140 521 0
-140 98 0
141 -110 -111 0
-141 110 0
-141 111 0
142 -521 126 0
142 521 -126 0
-142 521 126 0
-142 -521 -126 0
-143 144 145 0
143 -144 0
143 -145 0
144 -520 -97 0
-144 520 0
-144 97 0
145 -146 -114 0
-145 146 0
-145 114 0
146 -520 97 0
146 520 -97 0
-146 520 97 0
-146 -520 -97 0
147 -520 125 0
147 520 -125 0
-147 520 125 0
-147 -520 -125 0
-148 149 150 0
148 -149 0
148 -150 0
149 -519 -96 0
-149 519 0
-149 96 0
150 -95 -118 0
-150 95 0
-150 118 0
-151 152 0
151 -152 0
-152 518 153 0
-152 -518 -536 -153 0
-152 536 153 0
152 518 -153 0
152 536 -153 0
152 -518 -536 153 0
-153 535 155 0
-153 -535 -154 -188 0
-153 -535 154 188 0
153 535 -155 0
153 -535 -154 188 0
153 -535 154 -188 0
154 -518 -122 0
-154 518 0
-154 122 0
-155 534 156 0
-155 -520 156 -184 0
-155 520 156 184 0
-155 -520 -534 -156 184 0
-155 520 -534 -156 -184 0
155 534 -156 0
155 520 -534 156 -184 0
155 520 -156 184 0
155 -520 -156 -184 0
155 -520 -534 156 184 0
-156 533 157 0
-156 -521 157 -181 0
-156 521 157 181 0
-156 -521 -533 -157 181 0
-156 521 -533 -157 -181 0
156 533 -157 0
156 521 -533 157 -181 0
156 521 -157 181 0
156 -521 -157 -181 0
156 -521 -533 157 181 0
-157 532 158 0
-157 -522 158 -178 0
-157 522 158 178 0
-157 -522 -532 -158 178 0
-157 522 -532 -158 -178 0
157 532 -158 0
157 522 -532 158 -178 0
157 522 -158 178 0
157 -522 -158 -178 0
157 -522 -532 158 178 0
-158 531 159 0
-158 -523 159 -173 0
-158 523 159 173 0
-158 -523 -531 -159 173 0
-158 523 -531 -159 -173 0
158 531 -159 0
158 523 -531 159 -173 0
158 523 -159 173 0
158 -523 -159 -173 0
158 -523 -531 159 173 0
-159 530 160 0
-159 -530 167 168 0
-159 -530 -167 -168 0
159 530 -160 0
159 -530 167 -168 0
159 -530 -167 168 0
-160 529 161 0
-160 -529 162 163 0
-160 -529 -162 -163 0
160 529 -161 0
160 -529 162 -163 0
160 -529 -162 163 0
161 -526 -528 0
-161 526 0
-161 528 0
162 525 -161 0
162 -525 161 0
-162 -525 -161 0
-162 525 161 0
-163 104 165 0
-163 164 165 0
-163 60 165 0
163 -165 0
163 -60 -104 -164 0
164 -101 -130 0
-164 101 0
-164 130 0
-165 103 166 0
-165 166 164 0
165 -166 0
165 -103 -164 0
-166 528 0
-166 524 0
-166 523 525 0
166 -523 -524 -528 0
166 -524 -525 -528 0
167 -524 160 0
167 524 -160 0
-167 524 160 0
-167 -524 -160 0
-168 109 170 0
-168 169 170 0
-168 63 170 0
168 -170 0
168 -63 -109 -169 0
169 -105 -134 0
-169 105 0
-169 134 0
-170 136 171 172 0
-170 171 134 172 0
170 -172 0
170 -171 0
170 -136 -134 0
171 -523 -128 0
-171 523 0
-171 128 0
172 -107 -169 0
-172 107 0
-172 169 0
-173 113 175 0
-173 55 175 0
-173 174 175 0
173 -175 0
173 -55 -113 -174 0
174 -110 -138 0
-174 110 0
-174 138 0
-175 140 176 177 0
-175 176 138 177 0
175 -177 0
175 -176 0
175 -140 -138 0
176 -522 -127 0
-176 522 0
-176 127 0
177 -112 -174 0
-177 112 0
-177 174 0
-178 146 179 0
-178 114 179 0
-178 142 179 0
178 -179 0
178 -146 -114 -142 0
-179 180 142 0
-179 144 180 0
179 -180 0
179 -144 -142 0
180 -521 -126 0
-180 521 0
-180 126 0
-181 118 182 0
-181 95 182 0
-181 147 182 0
181 -182 0
181 -95 -118 -147 0
-182 183 147 0
-182 149 183 0
182 -183 0
182 -149 -147 0
183 -520 -125 0
-183 520 0
-183 125 0
-184 185 186 0
184 -185 0
184 -186 0
185 -519 -124 0
-185 519 0
-185 124 0
186 -123 -187 0
-186 123 0
-186 187 0
187 -519 124 0
187 519 -124 0
-187 519 124 0
-187 -519 -124 0
188 -519 155 0
188 519 -155 0
-188 519 155 0
-188 -519 -155 0
-189 518 190 0
-189 -518 -537 -190 0
-189 537 190 0
189 518 -190 0
189 537 -190 0
189 -518 -537 190 0
-190 536 192 0
-190 519 191 192 0
-190 -519 -191 192 0
-190 519 -536 -191 -192 0
-190 -519 -536 191 -192 0
190 536 -192 0
190 -519 -191 -192 0
190 519 191 -192 0
190 519 -536 -191 192 0
190 -519 -536 191 192 0
191 -518 -153 0
-191 518 0
-191 153 0
-192 535 193 0
-192 -535 228 229 0
-192 -535 -228 -229 0
192 535 -193 0
192 -535 228 -229 0
192 -535 -228 229 0
-193 534 194 0
-193 -534 223 224 0
-193 -534 -223 -224 0
193 534 -194 0
193 -534 223 -224 0
193 -534 -223 224 0
-194 533 195 0
-194 -533 218 219 0
-194 -533 -218 -219 0
194 533 -195 0
194 -533 218 -219 0
194 -533 -218 219 0
-195 532 196 0
-195 -532 213 214 0
-195 -532 -213 -214 0
195 532 -196 0
195 -532 213 -214 0
195 -532 -213 214 0
-196 531 197 0
-196 -531 208 209 0
-196 -531 -208 -209 0
196 531 -197 0
196 -531 208 -209 0
196 -531 -208 209 0
-197 530 198 0
-197 -530 204 205 0
-197 -530 -204 -205 0
197 530 -198 0
197 -530 204 -205 0
197 -530 -204 205 0
-198 529 199 0
-198 -529 200 201 0
-198 -529 -200 -201 0
198 529 -199 0
198 -529 200 -201 0
198 -529 -200 201 0
199 -527 -528 0
-199 527 0
-199 528 0
200 526 -199 0
200 -526 199 0
-200 -526 -199 0
-200 526 199 0
-201 202 203 0
201 -202 0
201 -203 0
202 -525 -526 -528 0
-202 525 0
-202 526 0
-202 528 0
203 -162 -163 0
-203 162 0
-203 163 0
204 -525 198 0
204 525 -198 0
-204 525 198 0
-204 -525 -198 0
-205 206 207 0
205 -206 0
205 -207 0
206 -524 -160 0
-206 524 0
-206 160 0
207 -167 -168 0
-207 167 0
-207 168 0
208 -524 197 0
208 524 -197 0
-208 524 197 0
-208 -524 -197 0
-209 210 211 0
209 -210 0
209 -211 0
210 -523 -159 0
-210 523 0
-210 159 0
211 -212 -173 0
-211 212 0
-211 173 0
212 -523 159 0
212 523 -159 0
-212 523 159 0
-212 -523 -159 0
213 -523 196 0
213 523 -196 0
-213 523 196 0
-213 -523 -196 0
-214 215 216 0
214 -215 0
214 -216 0
215 -522 -158 0
-215 522 0
-215 158 0
216 -217 -178 0
-216 217 0
-216 178 0
217 -522 158 0
217 522 -158 0
-217 522 158 0
-217 -522 -158 0
218 -522 195 0
218 522 -195 0
-218 522 195 0
-218 -522 -195 0
-219 220 221 0
219 -220 0
219 -221 0
220 -521 -157 0
-220 521 0
-220 157 0
221 -222 -181 0
-221 222 0
-221 181 0
222 -521 157 0
222 521 -157 0
-222 521 157 0
-222 -521 -157 0
223 -521 194 0
223 521 -194 0
-223 521 194 0
-223 -521 -194 0
-224 225 226 0
224 -225 0
224 -226 0
225 -520 -156 0
-225 520 0
-225 156 0
226 -227 -184 0
-226 227 0
-226 184 0
227 -520 156 0
227 520 -156 0
-227 520 156 0
-227 -520 -156 0
228 -520 193 0
228 520 -193 0
-228 520 193 0
-228 -520 -193 0
-229 230 231 0
229 -230 0
229 -231 0
230 -519 -155 0
-230 519 0
-230 155 0
231 -154 -188 0
-231 154 0
-231 188 0
-232 537 234 0
-232 519 233 234 0
-232 -519 -233 234 0
-232 519 -537 -233 -234 0
-232 -519 -537 233 -234 0
232 537 -234 0
232 -519 -233 -234 0
232 519 233 -234 0
232 519 -537 -233 234 0
232 -519 -537 233 234 0
233 -518 -190 0
-233 518 0
-233 190 0
-234 536 235 0
-234 -520 235 -267 0
-234 520 235 267 0
-234 -520 -536 -235 267 0
-234 520 -536 -235 -267 0
234 536 -235 0
234 520 -536 235 -267 0
234 520 -235 267 0
234 -520 -235 -267 0
234 -520 -536 235 267 0
-235 535 236 0
-235 -521 236 -263 0
-235 521 236 263 0
-235 -521 -535 -236 263 0
-235 521 -535 -236 -263 0
235 535 -236 0
235 521 -535 236 -263 0
235 521 -236 263 0
235 -521 -236 -263 0
235 -521 -535 236 263 0
-236 534 237 0
-236 -522 237 -260 0
-236 522 237 260 0
-236 -522 -534 -237 260 0
-236 522 -534 -237 -260 0
236 534 -237 0
236 522 -534 237 -260 0
236 522 -237 260 0
236 -522 -237 -260 0
236 -522 -534 237 260 0
-237 533 238 0
-237 -523 238 -256 0
-237 523 238 256 0
-237 -523 -533 -238 256 0
-237 523 -533 -238 -256 0
237 533 -238 0
237 523 -533 238 -256 0
237 523 -238 256 0
237 -523 -238 -256 0
237 -523 -533 238 256 0
-238 532 239 0
-238 -524 239 -252 0
-238 524 239 252 0
-238 -524 -532 -239 252 0
-238 524 -532 -239 -252 0
238 532 -239 0
238 524 -532 239 -252 0
238 524 -239 252 0
238 -524 -239 -252 0
238 -524 -532 239 252 0
-239 531 240 0
-239 -525 240 -249 0
-239 525 240 249 0
-239 -525 -531 -240 249 0
-239 525 -531 -240 -249 0
239 531 -240 0
239 525 -531 240 -249 0
239 525 -240 249 0
239 -525 -240 -249 0
239 -525 -531 240 249 0
-240 530 241 0
-240 -530 244 245 0
-240 -530 -244 -245 0
240 530 -241 0
240 -530 244 -245 0
240 -530 -244 245 0
241 527 -529 -242 0
241 -527 -529 242 0
-241 529 0
-241 -527 -242 0
-241 527 242 0
-242 162 243 0
-242 163 243 0
-242 200 243 0
242 -243 0
242 -162 -163 -200 0
-243 528 0
-243 526 0
-243 525 527 0
243 -525 -526 -528 0
243 -526 -527 -528 0
244 526 -241 0
244 -526 241 0
-244 -526 -241 0
-244 526 241 0
-245 168 246 0
-245 246 248 0
245 -246 0
245 -168 -248 0
-246 247 204 0
-246 206 247 0
246 -247 0
246 -206 -204 0
247 -525 -198 0
-247 525 0
-247 198 0
248 -167 -204 0
-248 167 0
-248 204 0
-249 173 250 0
-249 250 251 0
249 -250 0
249 -173 -251 0
-250 210 197 0
-250 524 210 0
-250 524 197 0
250 -524 -210 0
250 -210 -197 0
250 -524 -197 0
251 -212 -208 0
-251 212 0
-251 208 0
-252 178 253 0
-252 253 255 0
252 -253 0
252 -178 -255 0
-253 254 213 0
-253 215 254 0
253 -254 0
253 -215 -213 0
254 -523 -196 0
-254 523 0
-254 196 0
255 -217 -213 0
-255 217 0
-255 213 0
-256 181 257 0
-256 257 259 0
256 -257 0
256 -181 -259 0
-257 258 218 0
-257 220 258 0
257 -258 0
257 -220 -218 0
258 -522 -195 0
-258 522 0
-258 195 0
259 -222 -218 0
-259 222 0
-259 218 0
-260 184 261 0
-260 261 262 0
260 -261 0
260 -184 -262 0
-261 225 194 0
-261 521 225 0
-261 521 194 0
261 -521 -225 0
261 -225 -194 0
261 -521 -194 0
262 -227 -223 0
-262 227 0
-262 223 0
-263 154 264 0
-263 264 266 0
263 -264 0
263 -154 -266 0
-264 265 228 0
-264 230 265 0
264 -265 0
264 -230 -228 0
265 -520 -193 0
-265 520 0
-265 193 0
266 -188 -228 0
-266 188 0
-266 228 0
-267 268 269 0
267 -268 0
267 -269 0
268 -519 -192 0
-268 519 0
-268 192 0
269 -191 -270 0
-269 191 0
-269 270 0
270 -519 192 0
270 519 -192 0
-270 519 192 0
-270 -519 -192 0
-271 537 272 0
-271 -537 316 317 0
-271 -537 -316 -317 0
271 537 -272 0
271 -537 316 -317 0
271 -537 -316 317 0
-272 536 273 0
-272 -536 311 312 0
-272 -536 -311 -312 0
272 536 -273 0
272 -536 311 -312 0
272 -536 -311 312 0
-273 535 274 0
-273 -535 306 307 0
-273 -535 -306 -307 0
273 535 -274 0
273 -535 306 -307 0
273 -535 -306 307 0
-274 534 275 0
-274 -534 301 302 0
-274 -534 -301 -302 0
274 534 -275 0
274 -534 301 -302 0
274 -534 -301 302 0
-275 533 276 0
-275 -533 296 297 0
-275 -533 -296 -297 0
275 533 -276 0
275 -533 296 -297 0
275 -533 -296 297 0
-276 532 277 0
-276 -532 291 292 0
-276 -532 -291 -292 0
276 532 -277 0
276 -532 291 -292 0
276 -532 -291 292 0
-277 531 278 0
-277 -531 286 287 0
-277 -531 -286 -287 0
277 531 -278 0
277 -531 286 -287 0
277 -531 -286 287 0
-278 530 279 0
-278 -530 281 283 0
-278 -530 -281 -283 0
278 530 -279 0
278 -530 281 -283 0
278 -530 -281 283 0
279 -529 -280 0
-279 529 0
-279 280 0
280 -527 -242 0
-280 527 0
-280 242 0
281 -527 282 0
-281 527 0
-281 -282 0
282 -527 -279 0
-282 527 0
-282 279 0
-283 284 285 0
283 -284 0
283 -285 0
284 -526 -241 0
-284 526 0
-284 241 0
285 -244 -245 0
-285 244 0
-285 245 0
286 -526 278 0
286 526 -278 0
-286 526 278 0
-286 -526 -278 0
-287 288 289 0
287 -288 0
287 -289 0
288 -525 -240 0
-288 525 0
-288 240 0
289 -290 -249 0
-289 290 0
-289 249 0
290 -525 240 0
290 525 -240 0
-290 525 240 0
-290 -525 -240 0
291 -525 277 0
291 525 -277 0
-291 525 277 0
-291 -525 -277 0
-292 293 294 0
292 -293 0
292 -294 0
293 -524 -239 0
-293 524 0
-293 239 0
294 -295 -252 0
-294 295 0
-294 252 0
295 -524 239 0
295 524 -239 0
-295 524 239 0
-295 -524 -239 0
296 -524 276 0
296 524 -276 0
-296 524 276 0
-296 -524 -276 0
-297 298 299 0
297 -298 0
297 -299 0
298 -523 -238 0
-298 523 0
-298 238 0
299 -300 -256 0
-299 300 0
-299 256 0
300 -523 238 0
300 523 -238 0
-300 523 238 0
-300 -523 -238 0
301 -523 275 0
301 523 -275 0
-301 523 275 0
-301 -523 -275 0
-302 303 304 0
302 -303 0
302 -304 0
303 -522 -237 0
-303 522 0
-303 237 0
304 -305 -260 0
-304 305 0
-304 260 0
305 -522 237 0
305 522 -237 0
-305 522 237 0
-305 -522 -237 0
306 -522 274 0
306 522 -274 0
-306 522 274 0
-306 -522 -274 0
-307 308 309 0
307 -308 0
307 -309 0
308 -521 -236 0
-308 521 0
-308 236 0
309 -310 -263 0
-309 310 0
-309 263 0
310 -521 236 0
310 521 -236 0
-310 521 236 0
-310 -521 -236 0
311 -521 273 0
311 521 -273 0
-311 521 273 0
-311 -521 -273 0
-312 313 314 0
312 -313 0
312 -314 0
313 -520 -235 0
-313 520 0
-313 235 0
314 -315 -267 0
-314 315 0
-314 267 0
315 -520 235 0
315 520 -235 0
-315 520 235 0
-315 -520 -235 0
316 -520 272 0
316 520 -272 0
-316 520 272 0
-316 -520 -272 0
-317 318 319 0
317 -318 0
317 -319 0
318 -519 -234 0
-318 519 0
-318 234 0
319 -233 -320 0
-319 233 0
-319 320 0
320 -519 234 0
320 519 -234 0
-320 519 234 0
-320 -519 -234 0
-321 537 322 0
-321 -521 322 -363 0
-321 521 322 363 0
-321 -521 -537 -322 363 0
-321 521 -537 -322 -363 0
321 537 -322 0
321 521 -537 322 -363 0
321 521 -322 363 0
321 -521 -322 -363 0
321 -521 -537 322 363 0
-322 536 323 0
-322 -522 323 -360 0
-322 522 323 360 0
-322 -522 -536 -323 360 0
-322 522 -536 -323 -360 0
322 536 -323 0
322 522 -536 323 -360 0
322 522 -323 360 0
322 -522 -323 -360 0
322 -522 -536 323 360 0
-323 535 324 0
-323 -523 324 -354 0
-323 523 324 354 0
-323 -523 -535 -324 354 0
-323 523 -535 -324 -354 0
323 535 -324 0
323 523 -535 324 -354 0
323 523 -324 354 0
323 -523 -324 -354 0
323 -523 -535 324 354 0
-324 534 325 0
-324 -524 325 -348 0
-324 524 325 348 0
-324 -524 -534 -325 348 0
-324 524 -534 -325 -348 0
324 534 -325 0
324 524 -534 325 -348 0
324 524 -325 348 0
324 -524 -325 -348 0
324 -524 -534 325 348 0
-325 533 326 0
-325 -525 326 -343 0
-325 525 326 343 0
-325 -525 -533 -326 343 0
-325 525 -533 -326 -343 0
325 533 -326 0
325 525 -533 326 -343 0
325 525 -326 343 0
325 -525 -326 -343 0
325 -525 -533 326 343 0
-326 532 327 0
-326 -526 327 -338 0
-326 526 327 338 0
-326 -526 -532 -327 338 0
-326 526 -532 -327 -338 0
326 532 -327 0
326 526 -532 327 -338 0
326 526 -327 338 0
326 -526 -327 -338 0
326 -526 -532 327 338 0
-327 531 328 0
-327 527 -531 -328 -333 0
-327 527 328 333 0
-327 -527 328 -333 0
-327 -527 -531 -328 333 0
327 531 -328 0
327 -527 -328 -333 0
327 527 -328 333 0
327 -527 -531 328 333 0
327 527 -531 328 -333 0
328 -530 -329 0
328 -530 -168 -332 0
-328 530 0
-328 168 329 0
-328 329 332 0
-329 246 282 330 0
-329 282 330 331 0
329 -330 0
329 -282 0
329 -246 -331 0
330 -284 -281 0
-330 284 0
-330 281 0
331 -244 -281 0
-331 244 0
-331 281 0
332 -248 -331 0
-332 248 0
-332 331 0
-333 251 335 0
-333 334 335 0
-333 173 335 0
333 -335 0
333 -173 -251 -334 0
334 -290 -286 0
-334 290 0
-334 286 0
-335 288 336 337 0
-335 336 286 337 0
335 -337 0
335 -336 0
335 -288 -286 0
336 -526 -278 0
-336 526 0
-336 278 0
337 -250 -334 0
-337 250 0
-337 334 0
-338 255 340 0
-338 339 340 0
-338 178 340 0
338 -340 0
338 -178 -255 -339 0
339 -295 -291 0
-339 295 0
-339 291 0
-340 253 341 342 0
-340 341 342 339 0
340 -342 0
340 -341 0
340 -253 -339 0
341 -525 -277 0
-341 525 0
-341 277 0
342 -293 -291 0
-342 293 0
-342 291 0
-343 259 345 0
-343 344 345 0
-343 181 345 0
343 -345 0
343 -181 -259 -344 0
344 -300 -296 0
-344 300 0
-344 296 0
-345 298 346 347 0
-345 346 296 347 0
345 -347 0
345 -346 0
345 -298 -296 0
346 -524 -276 0
-346 524 0
-346 276 0
347 -257 -344 0
-347 257 0
-347 344 0
-348 184 349 0
-348 349 353 0
348 -349 0
348 -184 -353 0
-349 303 350 351 0
-349 350 301 351 0
349 -351 0
349 -350 0
349 -303 -301 0
350 -523 -275 0
-350 523 0
-350 275 0
351 -261 -352 0
-351 261 0
-351 352 0
352 -305 -301 0
-352 305 0
-352 301 0
353 -262 -352 0
-353 262 0
-353 352 0
-354 154 355 0
-354 355 359 0
354 -355 0
354 -154 -359 0
-355 308 356 357 0
-355 356 306 357 0
355 -357 0
355 -356 0
355 -308 -306 0
356 -522 -274 0
-356 522 0
-356 274 0
357 -264 -358 0
-357 264 0
-357 358 0
358 -310 -306 0
-358 310 0
-358 306 0
359 -266 -358 0
-359 266 0
-359 358 0
-360 315 361 0
-360 267 361 0
-360 311 361 0
360 -361 0
360 -315 -267 -311 0
-361 362 311 0
-361 313 362 0
361 -362 0
361 -313 -311 0
362 -521 -273 0
-362 521 0
-362 273 0
-363 320 364 0
-363 233 364 0
-363 316 364 0
363 -364 0
363 -233 -320 -316 0
-364 365 316 0
-364 318 365 0
364 -365 0
364 -318 -316 0
365 -520 -272 0
-365 520 0
-365 272 0
-366 537 367 0
-366 -537 401 402 0
-366 -537 -401 -402 0
366 537 -367 0
366 -537 401 -402 0
366 -537 -401 402 0
-367 536 368 0
-367 -536 396 397 0
-367 -536 -396 -397 0
367 536 -368 0
367 -536 396 -397 0
367 -536 -396 397 0
-368 535 369 0
-368 -535 391 392 0
-368 -535 -391 -392 0
368 535 -369 0
368 -535 391 -392 0
368 -535 -391 392 0
-369 534 370 0
-369 -534 386 387 0
-369 -534 -386 -387 0
369 534 -370 0
369 -534 386 -387 0
369 -534 -386 387 0
-370 533 371 0
-370 -533 381 382 0
-370 -533 -381 -382 0
370 533 -371 0
370 -533 381 -382 0
370 -533 -381 382 0
-371 532 372 0
-371 -532 376 377 0
-371 -532 -376 -377 0
371 532 -372 0
371 -532 376 -377 0
371 -532 -376 377 0
372 -531 -373 0
372 -531 -374 0
-372 531 0
-372 373 374 0
373 -527 -328 0
-373 527 0
-373 328 0
374 -375 -333 0
-374 375 0
-374 333 0
375 527 -328 0
375 -527 328 0
-375 -527 -328 0
-375 527 328 0
376 527 -372 0
376 -527 372 0
-376 -527 -372 0
-376 527 372 0
-377 378 379 0
377 -378 0
377 -379 0
378 -526 -327 0
-378 526 0
-378 327 0
379 -380 -338 0
-379 380 0
-379 338 0
380 -526 327 0
380 526 -327 0
-380 526 327 0
-380 -526 -327 0
381 -526 371 0
381 526 -371 0
-381 526 371 0
-381 -526 -371 0
-382 383 384 0
382 -383 0
382 -384 0
383 -525 -326 0
-383 525 0
-383 326 0
384 -385 -343 0
-384 385 0
-384 343 0
385 -525 326 0
385 525 -326 0
-385 525 326 0
-385 -525 -326 0
386 -525 370 0
386 525 -370 0
-386 525 370 0
-386 -525 -370 0
-387 388 389 0
387 -388 0
387 -389 0
388 -524 -325 0
-388 524 0
-388 325 0
389 -390 -348 0
-389 390 0
-389 348 0
390 -524 325 0
390 524 -325 0
-390 524 325 0
-390 -524 -325 0
391 -524 369 0
391 524 -369 0
-391 524 369 0
-391 -524 -369 0
-392 393 394 0
392 -393 0
392 -394 0
393 -523 -324 0
-393 523 0
-393 324 0
394 -395 -354 0
-394 395 0
-394 354 0
395 -523 324 0
395 523 -324 0
-395 523 324 0
-395 -523 -324 0
396 -523 368 0
396 523 -368 0
-396 523 368 0
-396 -523 -368 0
-397 398 399 0
397 -398 0
397 -399 0
398 -522 -323 0
-398 522 0
-398 323 0
399 -400 -360 0
-399 400 0
-399 360 0
400 -522 323 0
400 522 -323 0
-400 522 323 0
-400 -522 -323 0
401 -522 367 0
401 522 -367 0
-401 522 367 0
-401 -522 -367 0
-402 403 404 0
402 -403 0
402 -404 0
403 -521 -322 0
-403 521 0
-403 322 0
404 -405 -363 0
-404 405 0
-404 363 0
405 -521 322 0
405 521 -322 0
-405 521 322 0
-405 -521 -322 0
-406 537 407 0
-406 -523 407 -430 0
-406 523 407 430 0
-406 -523 -537 -407 430 0
-406 523 -537 -407 -430 0
406 537 -407 0
406 523 -537 407 -430 0
406 523 -407 430 0
406 -523 -407 -430 0
406 -523 -537 407 430 0
-407 536 408 0
-407 -524 408 -426 0
-407 524 408 426 0
-407 -524 -536 -408 426 0
-407 524 -536 -408 -426 0
407 536 -408 0
407 524 -536 408 -426 0
407 524 -408 426 0
407 -524 -408 -426 0
407 -524 -536 408 426 0
-408 535 409 0
-408 -525 409 -422 0
-408 525 409 422 0
-408 -525 -535 -409 422 0
-408 525 -535 -409 -422 0
408 535 -409 0
408 525 -535 409 -422 0
408 525 -409 422 0
408 -525 -409 -422 0
408 -525 -535 409 422 0
-409 534 410 0
-409 -526 410 -418 0
-409 526 410 418 0
-409 -526 -534 -410 418 0
-409 526 -534 -410 -418 0
409 534 -410 0
409 526 -534 410 -418 0
409 526 -410 418 0
409 -526 -410 -418 0
409 -526 -534 410 418 0
-410 533 411 0
-410 527 -533 -411 -415 0
-410 527 411 415 0
-410 -527 411 -415 0
-410 -527 -533 -411 415 0
410 533 -411 0
410 -527 -411 -415 0
410 527 -411 415 0
410 -527 -533 411 415 0
410 527 -533 411 -415 0
411 -532 -412 0
411 -532 -414 0
411 -532 -413 0
-411 532 0
-411 412 413 414 0
412 -527 -372 0
-412 527 0
-412 372 0
413 -378 -376 0
-413 378 0
-413 376 0
414 -380 -338 -376 0
-414 380 0
-414 338 0
-414 376 0
-415 385 416 0
-415 343 416 0
-415 381 416 0
415 -416 0
415 -385 -343 -381 0
-416 417 381 0
-416 383 417 0
416 -417 0
416 -383 -381 0
417 -526 -371 0
-417 526 0
-417 371 0
-418 348 419 0
-418 419 421 0
418 -419 0
418 -348 -421 0
-419 420 386 0
-419 388 420 0
419 -420 0
419 -388 -386 0
420 -525 -370 0
-420 525 0
-420 370 0
421 -390 -386 0
-421 390 0
-421 386 0
-422 354 423 0
-422 423 425 0
422 -423 0
422 -354 -425 0
-423 424 391 0
-423 393 424 0
423 -424 0
423 -393 -391 0
424 -524 -369 0
-424 524 0
-424 369 0
425 -395 -391 0
-425 395 0
-425 391 0
-426 360 427 0
-426 427 429 0
426 -427 0
426 -360 -429 0
-427 428 396 0
-427 398 428 0
427 -428 0
427 -398 -396 0
428 -523 -368 0
-428 523 0
-428 368 0
429 -400 -396 0
-429 400 0
-429 396 0
-430 363 431 0
-430 431 432 0
430 -431 0
430 -363 -432 0
-431 403 367 0
-431 522 403 0
-431 522 367 0
431 -522 -403 0
431 -403 -367 0
431 -522 -367 0
432 -405 -401 0
-432 405 0
-432 401 0
-433 537 434 0
-433 -537 455 456 0
-433 -537 -455 -456 0
433 537 -434 0
433 -537 455 -456 0
433 -537 -455 456 0
-434 536 435 0
-434 -536 450 451 0
-434 -536 -450 -451 0
434 536 -435 0
434 -536 450 -451 0
434 -536 -450 451 0
-435 535 436 0
-435 -535 445 446 0
-435 -535 -445 -446 0
435 535 -436 0
435 -535 445 -446 0
435 -535 -445 446 0
-436 534 437 0
-436 527 -534 -437 -441 0
-436 527 437 441 0
-436 -527 437 -441 0
-436 -527 -534 -437 441 0
436 534 -437 0
436 -527 -437 -441 0
436 527 -437 441 0
436 -527 -534 437 441 0
436 527 -534 437 -441 0
437 -533 -438 0
437 -533 -439 0
-437 533 0
-437 438 439 0
438 -527 -411 0
-438 527 0
-438 411 0
439 -440 -415 0
-439 440 0
-439 415 0
440 527 -411 0
440 -527 411 0
-440 -527 -411 0
-440 527 411 0
-441 442 443 0
441 -442 0
441 -443 0
442 -526 -410 0
-442 526 0
-442 410 0
443 -444 -418 0
-443 444 0
-443 418 0
444 -526 410 0
444 526 -410 0
-444 526 410 0
-444 -526 -410 0
445 -526 436 0
445 526 -436 0
-445 526 436 0
-445 -526 -436 0
-446 447 448 0
446 -447 0
446 -448 0
447 -525 -409 0
-447 525 0
-447 409 0
448 -449 -422 0
-448 449 0
-448 422 0
449 -525 409 0
449 525 -409 0
-449 525 409 0
-449 -525 -409 0
450 -525 435 0
450 525 -435 0
-450 525 435 0
-450 -525 -435 0
-451 452 453 0
451 -452 0
451 -453 0
452 -524 -408 0
-452 524 0
-452 408 0
453 -454 -426 0
-453 454 0
-453 426 0
454 -524 408 0
454 524 -408 0
-454 524 408 0
-454 -524 -408 0
455 -524 434 0
455 524 -434 0
-455 524 434 0
-455 -524 -434 0
-456 457 458 0
456 -457 0
456 -458 0
457 -523 -407 0
-457 523 0
-457 407 0
458 -459 -430 0
-458 459 0
-458 430 0
459 -523 407 0
459 523 -407 0
-459 523 407 0
-459 -523 -407 0
-460 537 461 0
-460 -525 461 -484 0
-460 525 461 484 0
-460 -525 -537 -461 484 0
-460 525 -537 -461 -484 0
460 537 -461 0
460 525 -537 461 -484 0
460 525 -461 484 0
460 -525 -461 -484 0
460 -525 -537 461 484 0
-461 536 462 0
-461 -526 462 -479 0
-461 526 462 479 0
-461 -526 -536 -462 479 0
-461 526 -536 -462 -479 0
461 536 -462 0
461 526 -536 462 -479 0
461 526 -462 479 0
461 -526 -462 -479 0
461 -526 -536 462 479 0
-462 535 463 0
-462 527 -535 -463 -472 0
-462 527 463 472 0
-462 -527 463 -472 0
-462 -527 -535 -463 472 0
462 535 -463 0
462 -527 -463 -472 0
462 527 -463 472 0
462 -527 -535 463 472 0
462 527 -535 463 -472 0
463 -534 -464 0
463 -534 -184 -471 0
-463 534 0
-463 184 464 0
-463 464 471 0
-464 349 465 0
-464 465 470 0
464 -465 0
464 -349 -470 0
-465 419 466 467 0
-465 466 467 469 0
465 -467 0
465 -466 0
465 -419 -469 0
466 -527 -437 0
-466 527 0
-466 437 0
467 -442 -468 0
-467 442 0
-467 468 0
468 527 -437 0
468 -527 437 0
-468 -527 -437 0
-468 527 437 0
469 -444 -468 0
-469 444 0
-469 468 0
470 -421 -469 0
-470 421 0
-470 469 0
471 -353 -470 0
-471 353 0
-471 470 0
-472 359 475 0
-472 154 475 0
-472 473 475 0
472 -475 0
472 -154 -359 -473 0
473 -425 -474 0
-473 425 0
-473 474 0
474 -449 -445 0
-474 449 0
-474 445 0
-475 355 476 478 0
-475 476 478 473 0
475 -476 0
475 -478 0
475 -355 -473 0
-476 477 445 0
-476 447 477 0
476 -477 0
476 -447 -445 0
477 -526 -436 0
-477 526 0
-477 436 0
478 -423 -474 0
-478 423 0
-478 474 0
-479 429 481 0
-479 480 481 0
-479 360 481 0
479 -481 0
479 -360 -429 -480 0
480 -454 -450 0
-480 454 0
-480 450 0
-481 452 482 483 0
-481 482 450 483 0
481 -483 0
481 -482 0
481 -452 -450 0
482 -525 -435 0
-482 525 0
-482 435 0
483 -427 -480 0
-483 427 0
-483 480 0
-484 432 486 0
-484 485 486 0
-484 363 486 0
484 -486 0
484 -363 -432 -485 0
485 -459 -455 0
-485 459 0
-485 455 0
-486 457 487 488 0
-486 487 455 488 0
486 -488 0
486 -487 0
486 -457 -455 0
487 -524 -434 0
-487 524 0
-487 434 0
488 -431 -485 0
-488 431 0
-488 485 0
-489 537 490 0
-489 -526 490 -499 0
-489 526 490 499 0
-489 -526 -537 -490 499 0
-489 526 -537 -490 -499 0
489 537 -490 0
489 526 -537 490 -499 0
489 526 -490 499 0
489 -526 -490 -499 0
489 -526 -537 490 499 0
-490 536 491 0
-490 527 -536 -491 -495 0
-490 527 491 495 0
-490 -527 491 -495 0
-490 -527 -536 -491 495 0
490 536 -491 0
490 -527 -491 -495 0
490 527 -491 495 0
490 -527 -536 491 495 0
490 527 -536 491 -495 0
491 -535 -492 0
491 -535 -493 0
-491 535 0
-491 492 493 0
492 -527 -463 0
-492 527 0
-492 463 0
493 -494 -472 0
-493 494 0
-493 472 0
494 527 -463 0
494 -527 463 0
-494 -527 -463 0
-494 527 463 0
-495 496 497 0
495 -496 0
495 -497 0
496 -526 -462 0
-496 526 0
-496 462 0
497 -498 -479 0
-497 498 0
-497 479 0
498 -526 462 0
498 526 -462 0
-498 526 462 0
-498 -526 -462 0
-499 500 501 0
499 -500 0
499 -501 0
500 -525 -461 0
-500 525 0
-500 461 0
501 -502 -484 0
-501 502 0
-501 484 0
502 -525 461 0
502 525 -461 0
-502 525 461 0
-502 -525 -461 0
-503 537 504 0
-503 527 -537 -504 -509 0
-503 527 504 509 0
-503 -527 504 -509 0
-503 -527 -537 -504 509 0
503 537 -504 0
503 -527 -504 -509 0
503 527 -504 509 0
503 -527 -537 504 509 0
503 527 -537 504 -509 0
504 -536 -505 0
504 -536 -508 0
504 -536 -506 0
-504 536 0
-504 505 506 508 0
505 -527 -491 0
-505 527 0
-505 491 0
506 -496 -507 0
-506 496 0
-506 507 0
507 527 -491 0
507 -527 491 0
-507 -527 -491 0
-507 527 491 0
508 -498 -479 -507 0
-508 498 0
-508 479 0
-508 507 0
-509 502 511 0
-509 484 511 0
-509 510 511 0
509 -511 0
509 -502 -484 -510 0
510 -526 490 0
510 526 -490 0
-510 526 490 0
-510 -526 -490 0
-511 512 513 0
511 -512 0
511 -513 0
512 -526 -490 0
-512 526 0
-512 490 0
513 -500 -510 0
-513 500 0
-513 510 0
514 -537 -515 0
514 -537 -516 0
-514 537 0
-514 515 516 0
515 -527 -504 0
-515 527 0
-515 504 0
516 -517 -509 0
-516 517 0
-516 509 0
517 527 -504 0
517 -527 504 0
-517 -527 -504 0
-517 527 504 0
-538 0
2 0
12 0
22 0
34 0
48 0
67 0
90 0
119 0
151 0
189 0
232 0
271 0
321 0
366 0
406 0
433 0
460 0
489 0
503 0
514 0

