c Result of efficient AIG-to-CNF conversion using package CNF
p cnf 425 1694
-2 3 0
2 -3 0
-3 4 0
3 -4 0
-4 5 0
4 -5 0
-5 6 0
5 -6 0
-6 7 0
6 -7 0
-7 8 0
7 -8 0
-8 9 0
8 -9 0
-9 10 0
9 -10 0
10 -407 -416 0
-10 407 0
-10 416 0
-11 12 0
11 -12 0
-12 13 0
12 -13 0
-13 14 0
13 -14 0
-14 15 0
14 -15 0
-15 16 0
15 -16 0
-16 17 0
16 -17 0
-17 18 0
17 -18 0
-18 407 19 0
-18 417 19 0
-18 -407 -417 -19 0
18 407 -19 0
18 -407 -417 19 0
18 417 -19 0
19 -408 -416 0
-19 408 0
-19 416 0
-20 21 0
20 -21 0
-21 22 0
21 -22 0
-22 23 0
22 -23 0
-23 24 0
23 -24 0
-24 25 0
24 -25 0
-25 26 0
25 -26 0
-26 407 27 0
-26 -407 -418 -27 0
-26 418 27 0
26 407 -27 0
26 418 -27 0
26 -407 -418 27 0
-27 417 29 0
-27 -417 -28 -30 0
-27 -417 28 30 0
27 417 -29 0
27 -417 -28 30 0
27 -417 28 -30 0
28 -407 -408 -416 0
-28 407 0
-28 408 0
-28 416 0
29 -409 -416 0
-29 409 0
-29 416 0
30 408 -29 0
30 -408 29 0
-30 -408 -29 0
-30 408 29 0
-31 32 0
31 -32 0
-32 33 0
32 -33 0
-33 34 0
33 -34 0
-34 35 0
34 -35 0
-35 36 0
35 -36 0
-36 407 37 0
-36 -407 -419 -37 0
-36 419 37 0
36 407 -37 0
36 419 -37 0
36 -407 -419 37 0
-37 418 39 0
-37 -418 -38 -43 0
-37 -418 38 43 0
37 418 -39 0
37 -418 -38 43 0
37 -418 38 -43 0
38 -407 -27 0
-38 407 0
-38 27 0
-39 417 40 0
-39 -417 41 42 0
-39 -417 -41 -42 0
39 417 -40 0
39 -417 41 -42 0
39 -417 -41 42 0
40 -410 -416 0
-40 410 0
-40 416 0
41 409 -40 0
41 -409 40 0
-41 -409 -40 0
-41 409 40 0
-42 416 0
-42 408 0
-42 407 409 0
42 -407 -408 -416 0
42 -408 -409 -416 0
43 -408 39 0
43 408 -39 0
-43 408 39 0
-43 -408 -39 0
-44 45 0
44 -45 0
-45 46 0
45 -46 0
-46 47 0
46 -47 0
-47 48 0
47 -48 0
-48 407 49 0
-48 -407 -420 -49 0
-48 420 49 0
48 407 -49 0
48 420 -49 0
48 -407 -420 49 0
-49 419 51 0
-49 -419 -50 -61 0
-49 -419 50 61 0
49 419 -51 0
49 -419 -50 61 0
49 -419 50 -61 0
50 -407 -37 0
-50 407 0
-50 37 0
-51 418 52 0
-51 -418 57 58 0
-51 -418 -57 -58 0
51 418 -52 0
51 -418 57 -58 0
51 -418 -57 58 0
-52 417 53 0
-52 -417 54 55 0
-52 -417 -54 -55 0
52 417 -53 0
52 -417 54 -55 0
52 -417 -54 55 0
53 -411 -416 0
-53 411 0
-53 416 0
54 410 -53 0
54 -410 53 0
-54 -410 -53 0
-54 410 53 0
-55 30 56 0
-55 28 56 0
-55 41 56 0
55 -56 0
55 -28 -30 -41 0
-56 416 0
-56 409 0
-56 408 410 0
56 -408 -409 -416 0
56 -409 -410 -416 0
57 -409 52 0
57 409 -52 0
-57 409 52 0
-57 -409 -52 0
-58 59 60 0
58 -59 0
58 -60 0
59 -408 -39 0
-59 408 0
-59 39 0
60 -38 -43 0
-60 38 0
-60 43 0
61 -408 51 0
61 408 -51 0
-61 408 51 0
-61 -408 -51 0
-62 63 0
62 -63 0
-63 64 0
63 -64 0
-64 65 0
64 -65 0
-65 407 66 0
-65 -407 -421 -66 0
-65 421 66 0
65 407 -66 0
65 421 -66 0
65 -407 -421 66 0
-66 420 68 0
-66 408 67 68 0
-66 -408 -67 68 0
-66 408 -420 -67 -68 0
-66 -408 -420 67 -68 0
66 420 -68 0
66 -408 -67 -68 0
66 408 67 -68 0
66 408 -420 -67 68 0
66 -408 -420 67 68 0
67 -407 -49 0
-67 407 0
-67 49 0
-68 419 69 0
-68 -419 80 81 0
-68 -419 -80 -81 0
68 419 -69 0
68 -419 80 -81 0
68 -419 -80 81 0
-69 418 70 0
-69 -418 76 77 0
-69 -418 -76 -77 0
69 418 -70 0
69 -418 76 -77 0
69 -418 -76 77 0
-70 417 71 0
-70 -417 72 73 0
-70 -417 -72 -73 0
70 417 -71 0
70 -417 72 -73 0
70 -417 -72 73 0
71 -412 -416 0
-71 412 0
-71 416 0
72 411 -71 0
72 -411 71 0
-72 -411 -71 0
-72 411 71 0
-73 74 75 0
73 -74 0
73 -75 0
74 -410 -411 -416 0
-74 410 0
-74 411 0
-74 416 0
75 -54 -55 0
-75 54 0
-75 55 0
76 -410 70 0
76 410 -70 0
-76 410 70 0
-76 -410 -70 0
-77 78 79 0
77 -78 0
77 -79 0
78 -409 -52 0
-78 409 0
-78 52 0
79 -57 -58 0
-79 57 0
-79 58 0
80 -409 69 0
80 409 -69 0
-80 409 69 0
-80 -409 -69 0
-81 82 83 0
81 -82 0
81 -83 0
82 -408 -51 0
-82 408 0
-82 51 0
83 -50 -61 0
-83 50 0
-83 61 0
-84 85 0
84 -85 0
-85 86 0
85 -86 0
-86 407 87 0
-86 -407 -422 -87 0
-86 422 87 0
86 407 -87 0
86 422 -87 0
86 -407 -422 87 0
-87 421 89 0
-87 -421 -88 -112 0
-87 -421 88 112 0
87 421 -89 0
87 -421 -88 112 0
87 -421 88 -112 0
88 -407 -66 0
-88 407 0
-88 66 0
-89 420 90 0
-89 -409 90 -108 0
-89 409 90 108 0
-89 -409 -420 -90 108 0
-89 409 -420 -90 -108 0
89 420 -90 0
89 409 -420 90 -108 0
89 409 -90 108 0
89 -409 -90 -108 0
89 -409 -420 90 108 0
-90 419 91 0
-90 -419 103 104 0
-90 -419 -103 -104 0
90 419 -91 0
90 -419 103 -104 0
90 -419 -103 104 0
-91 418 92 0
-91 -418 98 99 0
-91 -418 -98 -99 0
91 418 -92 0
91 -418 98 -99 0
91 -418 -98 99 0
-92 417 93 0
-92 -417 94 95 0
-92 -417 -94 -95 0
92 417 -93 0
92 -417 94 -95 0
92 -417 -94 95 0
93 -413 -416 0
-93 413 0
-93 416 0
94 412 -93 0
94 -412 93 0
-94 -412 -93 0
-94 412 93 0
-95 55 96 0
-95 96 97 0
95 -96 0
95 -55 -97 0
-96 416 0
-96 411 0
-96 410 412 0
96 -410 -411 -416 0
96 -411 -412 -416 0
97 -54 -72 0
-97 54 0
-97 72 0
98 -411 92 0
98 411 -92 0
-98 411 92 0
-98 -411 -92 0
-99 58 100 0
-99 100 102 0
99 -100 0
99 -58 -102 0
-100 101 76 0
-100 78 101 0
100 -101 0
100 -78 -76 0
101 -410 -70 0
-101 410 0
-101 70 0
102 -57 -76 0
-102 57 0
-102 76 0
103 -410 91 0
103 410 -91 0
-103 410 91 0
-103 -410 -91 0
-104 50 105 0
-104 105 107 0
104 -105 0
104 -50 -107 0
-105 106 80 0
-105 82 106 0
105 -106 0
105 -82 -80 0
106 -409 -69 0
-106 409 0
-106 69 0
107 -61 -80 0
-107 61 0
-107 80 0
-108 109 110 0
108 -109 0
108 -110 0
109 -408 -68 0
-109 408 0
-109 68 0
110 -67 -111 0
-110 67 0
-110 111 0
111 -408 68 0
111 408 -68 0
-111 408 68 0
-111 -408 -68 0
112 -408 89 0
112 408 -89 0
-112 408 89 0
-112 -408 -89 0
-113 114 0
113 -114 0
-114 407 115 0
-114 -407 -423 -115 0
-114 423 115 0
114 407 -115 0
114 423 -115 0
114 -407 -423 115 0
-115 422 117 0
-115 408 116 117 0
-115 -408 -116 117 0
-115 408 -422 -116 -117 0
-115 -408 -422 116 -117 0
115 422 -117 0
115 -408 -116 -117 0
115 408 116 -117 0
115 408 -422 -116 117 0
115 -408 -422 116 117 0
116 -407 -87 0
-116 407 0
-116 87 0
-117 421 118 0
-117 -421 140 141 0
-117 -421 -140 -141 0
117 421 -118 0
117 -421 140 -141 0
117 -421 -140 141 0
-118 420 119 0
-118 -420 135 136 0
-118 -420 -135 -136 0
118 420 -119 0
118 -420 135 -136 0
118 -420 -135 136 0
-119 419 120 0
-119 -419 131 132 0
-119 -419 -131 -132 0
119 419 -120 0
119 -419 131 -132 0
119 -419 -131 132 0
-120 418 121 0
-120 -418 127 128 0
-120 -418 -127 -128 0
120 418 -121 0
120 -418 127 -128 0
120 -418 -127 128 0
-121 417 122 0
-121 -417 123 124 0
-121 -417 -123 -124 0
121 417 -122 0
121 -417 123 -124 0
121 -417 -123 124 0
122 -414 -416 0
-122 414 0
-122 416 0
123 413 -122 0
123 -413 122 0
-123 -413 -122 0
-123 413 122 0
-124 125 126 0
124 -125 0
124 -126 0
125 -412 -413 -416 0
-125 412 0
-125 413 0
-125 416 0
126 -94 -95 0
-126 94 0
-126 95 0
127 -412 121 0
127 412 -121 0
-127 412 121 0
-127 -412 -121 0
-128 129 130 0
128 -129 0
128 -130 0
129 -411 -92 0
-129 411 0
-129 92 0
130 -98 -99 0
-130 98 0
-130 99 0
131 -411 120 0
131 411 -120 0
-131 411 120 0
-131 -411 -120 0
-132 133 134 0
132 -133 0
132 -134 0
133 -410 -91 0
-133 410 0
-133 91 0
134 -103 -104 0
-134 103 0
-134 104 0
135 -410 119 0
135 410 -119 0
-135 410 119 0
-135 -410 -119 0
-136 137 138 0
136 -137 0
136 -138 0
137 -409 -90 0
-137 409 0
-137 90 0
138 -139 -108 0
-138 139 0
-138 108 0
139 -409 90 0
139 409 -90 0
-139 409 90 0
-139 -409 -90 0
140 -409 118 0
140 409 -118 0
-140 409 118 0
-140 -409 -118 0
-141 142 143 0
141 -142 0
141 -143 0
142 -408 -89 0
-142 408 0
-142 89 0
143 -88 -112 0
-143 88 0
-143 112 0
-144 407 145 0
-144 -407 -424 -145 0
-144 424 145 0
144 407 -145 0
144 424 -145 0
144 -407 -424 145 0
-145 423 147 0
-145 -423 -146 -178 0
-145 -423 146 178 0
145 423 -147 0
145 -423 -146 178 0
145 -423 146 -178 0
146 -407 -115 0
-146 407 0
-146 115 0
-147 422 148 0
-147 -409 148 -174 0
-147 409 148 174 0
-147 -409 -422 -148 174 0
-147 409 -422 -148 -174 0
147 422 -148 0
147 409 -422 148 -174 0
147 409 -148 174 0
147 -409 -148 -174 0
147 -409 -422 148 174 0
-148 421 149 0
-148 -410 149 -172 0
-148 410 149 172 0
-148 -410 -421 -149 172 0
-148 410 -421 -149 -172 0
148 421 -149 0
148 410 -421 149 -172 0
148 410 -149 172 0
148 -410 -149 -172 0
148 -410 -421 149 172 0
-149 420 150 0
-149 -411 150 -170 0
-149 411 150 170 0
-149 -411 -420 -150 170 0
-149 411 -420 -150 -170 0
149 420 -150 0
149 411 -420 150 -170 0
149 411 -150 170 0
149 -411 -150 -170 0
149 -411 -420 150 170 0
-150 419 151 0
-150 -412 151 -165 0
-150 412 151 165 0
-150 -412 -419 -151 165 0
-150 412 -419 -151 -165 0
150 419 -151 0
150 412 -419 151 -165 0
150 412 -151 165 0
150 -412 -151 -165 0
150 -412 -419 151 165 0
-151 418 152 0
-151 -418 159 160 0
-151 -418 -159 -160 0
151 418 -152 0
151 -418 159 -160 0
151 -418 -159 160 0
-152 417 153 0
-152 -417 154 155 0
-152 -417 -154 -155 0
152 417 -153 0
152 -417 154 -155 0
152 -417 -154 155 0
153 -415 -416 0
-153 415 0
-153 416 0
154 414 -153 0
154 -414 153 0
-154 -414 -153 0
-154 414 153 0
-155 97 157 0
-155 156 157 0
-155 55 157 0
155 -157 0
155 -55 -97 -156 0
156 -94 -123 0
-156 94 0
-156 123 0
-157 96 158 0
-157 158 156 0
157 -158 0
157 -96 -156 0
-158 416 0
-158 413 0
-158 412 414 0
158 -412 -413 -416 0
158 -413 -414 -416 0
159 -413 152 0
159 413 -152 0
-159 413 152 0
-159 -413 -152 0
-160 102 162 0
-160 161 162 0
-160 58 162 0
160 -162 0
160 -58 -102 -161 0
161 -98 -127 0
-161 98 0
-161 127 0
-162 129 163 164 0
-162 163 127 164 0
162 -164 0
162 -163 0
162 -129 -127 0
163 -412 -121 0
-163 412 0
-163 121 0
164 -100 -161 0
-164 100 0
-164 161 0
-165 107 167 0
-165 50 167 0
-165 166 167 0
165 -167 0
165 -50 -107 -166 0
166 -103 -131 0
-166 103 0
-166 131 0
-167 105 168 169 0
-167 168 169 166 0
167 -169 0
167 -168 0
167 -105 -166 0
168 -411 -120 0
-168 411 0
-168 120 0
169 -133 -131 0
-169 133 0
-169 131 0
-170 410 137 171 0
-170 137 119 171 0
-170 410 119 171 0
170 -410 -137 0
170 -137 -119 0
170 -171 0
170 -410 -119 0
171 -139 -108 -135 0
-171 139 0
-171 108 0
-171 135 0
-172 409 142 173 0
-172 142 118 173 0
-172 409 118 173 0
172 -409 -142 0
172 -142 -118 0
172 -173 0
172 -409 -118 0
173 -88 -112 -140 0
-173 88 0
-173 112 0
-173 140 0
-174 175 176 0
174 -175 0
174 -176 0
175 -408 -117 0
-175 408 0
-175 117 0
176 -116 -177 0
-176 116 0
-176 177 0
177 -408 117 0
177 408 -117 0
-177 408 117 0
-177 -408 -117 0
178 -408 147 0
178 408 -147 0
-178 408 147 0
-178 -408 -147 0
-179 424 181 0
-179 408 180 181 0
-179 -408 -180 181 0
-179 408 -424 -180 -181 0
-179 -408 -424 180 -181 0
179 424 -181 0
179 -408 -180 -181 0
179 408 180 -181 0
179 408 -424 -180 181 0
179 -408 -424 180 181 0
180 -407 -145 0
-180 407 0
-180 145 0
-181 423 182 0
-181 -423 215 216 0
-181 -423 -215 -216 0
181 423 -182 0
181 -423 215 -216 0
181 -423 -215 216 0
-182 422 183 0
-182 -422 210 211 0
-182 -422 -210 -211 0
182 422 -183 0
182 -422 210 -211 0
182 -422 -210 211 0
-183 421 184 0
-183 -421 205 206 0
-183 -421 -205 -206 0
183 421 -184 0
183 -421 205 -206 0
183 -421 -205 206 0
-184 420 185 0
-184 -420 200 201 0
-184 -420 -200 -201 0
184 420 -185 0
184 -420 200 -201 0
184 -420 -200 201 0
-185 419 186 0
-185 -419 195 196 0
-185 -419 -195 -196 0
185 419 -186 0
185 -419 195 -196 0
185 -419 -195 196 0
-186 418 187 0
-186 -418 191 192 0
-186 -418 -191 -192 0
186 418 -187 0
186 -418 191 -192 0
186 -418 -191 192 0
187 415 -417 -188 0
187 -415 -417 188 0
-187 417 0
-187 -415 -188 0
-187 415 188 0
-188 189 190 0
188 -189 0
188 -190 0
189 -414 -415 -416 0
-189 414 0
-189 415 0
-189 416 0
190 -154 -155 0
-190 154 0
-190 155 0
191 414 -187 0
191 -414 187 0
-191 -414 -187 0
-191 414 187 0
-192 193 194 0
192 -193 0
192 -194 0
193 -413 -152 0
-193 413 0
-193 152 0
194 -159 -160 0
-194 159 0
-194 160 0
195 -413 186 0
195 413 -186 0
-195 413 186 0
-195 -413 -186 0
-196 197 198 0
196 -197 0
196 -198 0
197 -412 -151 0
-197 412 0
-197 151 0
198 -199 -165 0
-198 199 0
-198 165 0
199 -412 151 0
199 412 -151 0
-199 412 151 0
-199 -412 -151 0
200 -412 185 0
200 412 -185 0
-200 412 185 0
-200 -412 -185 0
-201 202 203 0
201 -202 0
201 -203 0
202 -411 -150 0
-202 411 0
-202 150 0
203 -204 -170 0
-203 204 0
-203 170 0
204 -411 150 0
204 411 -150 0
-204 411 150 0
-204 -411 -150 0
205 -411 184 0
205 411 -184 0
-205 411 184 0
-205 -411 -184 0
-206 207 208 0
206 -207 0
206 -208 0
207 -410 -149 0
-207 410 0
-207 149 0
208 -209 -172 0
-208 209 0
-208 172 0
209 -410 149 0
209 410 -149 0
-209 410 149 0
-209 -410 -149 0
210 -410 183 0
210 410 -183 0
-210 410 183 0
-210 -410 -183 0
-211 212 213 0
211 -212 0
211 -213 0
212 -409 -148 0
-212 409 0
-212 148 0
213 -214 -174 0
-213 214 0
-213 174 0
214 -409 148 0
214 409 -148 0
-214 409 148 0
-214 -409 -148 0
215 -409 182 0
215 409 -182 0
-215 409 182 0
-215 -409 -182 0
-216 217 218 0
216 -217 0
216 -218 0
217 -408 -147 0
-217 408 0
-217 147 0
218 -146 -178 0
-218 146 0
-218 178 0
-219 424 220 0
-219 -409 220 -246 0
-219 409 220 246 0
-219 -409 -424 -220 246 0
-219 409 -424 -220 -246 0
219 424 -220 0
219 409 -424 220 -246 0
219 409 -220 246 0
219 -409 -220 -246 0
219 -409 -424 220 246 0
-220 423 221 0
-220 -410 221 -243 0
-220 410 221 243 0
-220 -410 -423 -221 243 0
-220 410 -423 -221 -243 0
220 423 -221 0
220 410 -423 221 -243 0
220 410 -221 243 0
220 -410 -221 -243 0
220 -410 -423 221 243 0
-221 422 222 0
-221 -411 222 -240 0
-221 411 222 240 0
-221 -411 -422 -222 240 0
-221 411 -422 -222 -240 0
221 422 -222 0
221 411 -422 222 -240 0
221 411 -222 240 0
221 -411 -222 -240 0
221 -411 -422 222 240 0
-222 421 223 0
-222 -412 223 -237 0
-222 412 223 237 0
-222 -412 -421 -223 237 0
-222 412 -421 -223 -237 0
222 421 -223 0
222 412 -421 223 -237 0
222 412 -223 237 0
222 -412 -223 -237 0
222 -412 -421 223 237 0
-223 420 224 0
-223 -413 224 -234 0
-223 413 224 234 0
-223 -413 -420 -224 234 0
-223 413 -420 -224 -234 0
223 420 -224 0
223 413 -420 224 -234 0
223 413 -224 234 0
223 -413 -224 -234 0
223 -413 -420 224 234 0
-224 419 225 0
-224 -414 225 -230 0
-224 414 225 230 0
-224 -414 -419 -225 230 0
-224 414 -419 -225 -230 0
224 419 -225 0
224 414 -419 225 -230 0
224 414 -225 230 0
224 -414 -225 -230 0
224 -414 -419 225 230 0
-225 418 226 0
-225 415 -418 -226 -228 0
-225 415 226 228 0
-225 -415 226 -228 0
-225 -415 -418 -226 228 0
225 418 -226 0
225 -415 -226 -228 0
225 415 -226 228 0
225 -415 -418 226 228 0
225 415 -418 226 -228 0
226 -417 -227 0
-226 417 0
-226 227 0
-227 414 155 0
-227 416 155 0
-227 415 0
-227 414 416 0
227 -414 -415 -155 0
227 -415 -416 -155 0
227 -414 -415 -416 0
-228 414 193 229 0
-228 414 187 229 0
-228 193 187 229 0
228 -414 -193 0
228 -193 -187 0
228 -229 0
228 -414 -187 0
229 -159 -160 -191 0
-229 159 0
-229 160 0
-229 191 0
-230 165 231 0
-230 231 233 0
230 -231 0
230 -165 -233 0
-231 232 195 0
-231 197 232 0
231 -232 0
231 -197 -195 0
232 -413 -186 0
-232 413 0
-232 186 0
233 -199 -195 0
-233 199 0
-233 195 0
-234 170 235 0
-234 235 236 0
234 -235 0
234 -170 -236 0
-235 202 185 0
-235 412 202 0
-235 412 185 0
235 -412 -202 0
235 -202 -185 0
235 -412 -185 0
236 -204 -200 0
-236 204 0
-236 200 0
-237 172 238 0
-237 238 239 0
237 -238 0
237 -172 -239 0
-238 207 184 0
-238 411 207 0
-238 411 184 0
238 -411 -207 0
238 -207 -184 0
238 -411 -184 0
239 -209 -205 0
-239 209 0
-239 205 0
-240 174 241 0
-240 241 242 0
240 -241 0
240 -174 -242 0
-241 212 183 0
-241 410 212 0
-241 410 183 0
241 -410 -212 0
241 -212 -183 0
241 -410 -183 0
242 -214 -210 0
-242 214 0
-242 210 0
-243 146 244 0
-243 244 245 0
243 -244 0
243 -146 -245 0
-244 217 182 0
-244 409 217 0
-244 409 182 0
244 -409 -217 0
244 -217 -182 0
244 -409 -182 0
245 -178 -215 0
-245 178 0
-245 215 0
-246 247 248 0
246 -247 0
246 -248 0
247 -408 -181 0
-247 408 0
-247 181 0
248 -180 -249 0
-248 180 0
-248 249 0
249 -408 181 0
249 408 -181 0
-249 408 181 0
-249 -408 -181 0
-250 424 251 0
-250 -424 285 286 0
-250 -424 -285 -286 0
250 424 -251 0
250 -424 285 -286 0
250 -424 -285 286 0
-251 423 252 0
-251 -423 280 281 0
-251 -423 -280 -281 0
251 423 -252 0
251 -423 280 -281 0
251 -423 -280 281 0
-252 422 253 0
-252 -422 275 276 0
-252 -422 -275 -276 0
252 422 -253 0
252 -422 275 -276 0
252 -422 -275 276 0
-253 421 254 0
-253 -421 270 271 0
-253 -421 -270 -271 0
253 421 -254 0
253 -421 270 -271 0
253 -421 -270 271 0
-254 420 255 0
-254 -420 265 266 0
-254 -420 -265 -266 0
254 420 -255 0
254 -420 265 -266 0
254 -420 -265 266 0
-255 419 256 0
-255 -419 260 261 0
-255 -419 -260 -261 0
255 419 -256 0
255 -419 260 -261 0
255 -419 -260 261 0
256 -418 -257 0
256 -418 -258 0
-256 418 0
-256 257 258 0
257 -415 -226 0
-257 415 0
-257 226 0
258 -259 -228 0
-258 259 0
-258 228 0
259 415 -226 0
259 -415 226 0
-259 -415 -226 0
-259 415 226 0
260 415 -256 0
260 -415 256 0
-260 -415 -256 0
-260 415 256 0
-261 262 263 0
261 -262 0
261 -263 0
262 -414 -225 0
-262 414 0
-262 225 0
263 -264 -230 0
-263 264 0
-263 230 0
264 -414 225 0
264 414 -225 0
-264 414 225 0
-264 -414 -225 0
265 -414 255 0
265 414 -255 0
-265 414 255 0
-265 -414 -255 0
-266 267 268 0
266 -267 0
266 -268 0
267 -413 -224 0
-267 413 0
-267 224 0
268 -269 -234 0
-268 269 0
-268 234 0
269 -413 224 0
269 413 -224 0
-269 413 224 0
-269 -413 -224 0
270 -413 254 0
270 413 -254 0
-270 413 254 0
-270 -413 -254 0
-271 272 273 0
271 -272 0
271 -273 0
272 -412 -223 0
-272 412 0
-272 223 0
273 -274 -237 0
-273 274 0
-273 237 0
274 -412 223 0
274 412 -223 0
-274 412 223 0
-274 -412 -223 0
275 -412 253 0
275 412 -253 0
-275 412 253 0
-275 -412 -253 0
-276 277 278 0
276 -277 0
276 -278 0
277 -411 -222 0
-277 411 0
-277 222 0
278 -279 -240 0
-278 279 0
-278 240 0
279 -411 222 0
279 411 -222 0
-279 411 222 0
-279 -411 -222 0
280 -411 252 0
280 411 -252 0
-280 411 252 0
-280 -411 -252 0
-281 282 283 0
281 -282 0
281 -283 0
282 -410 -221 0
-282 410 0
-282 221 0
283 -284 -243 0
-283 284 0
-283 243 0
284 -410 221 0
284 410 -221 0
-284 410 221 0
-284 -410 -221 0
285 -410 251 0
285 410 -251 0
-285 410 251 0
-285 -410 -251 0
-286 287 288 0
286 -287 0
286 -288 0
287 -409 -220 0
-287 409 0
-287 220 0
288 -289 -246 0
-288 289 0
-288 246 0
289 -409 220 0
289 409 -220 0
-289 409 220 0
-289 -409 -220 0
-290 424 291 0
-290 -411 291 -322 0
-290 411 291 322 0
-290 -411 -424 -291 322 0
-290 411 -424 -291 -322 0
290 424 -291 0
290 411 -424 291 -322 0
290 411 -291 322 0
290 -411 -291 -322 0
290 -411 -424 291 322 0
-291 423 292 0
-291 -412 292 -316 0
-291 412 292 316 0
-291 -412 -423 -292 316 0
-291 412 -423 -292 -316 0
291 423 -292 0
291 412 -423 292 -316 0
291 412 -292 316 0
291 -412 -292 -316 0
291 -412 -423 292 316 0
-292 422 293 0
-292 -413 293 -311 0
-292 413 293 311 0
-292 -413 -422 -293 311 0
-292 413 -422 -293 -311 0
292 422 -293 0
292 413 -422 293 -311 0
292 413 -293 311 0
292 -413 -293 -311 0
292 -413 -422 293 311 0
-293 421 294 0
-293 -414 294 -306 0
-293 414 294 306 0
-293 -414 -421 -294 306 0
-293 414 -421 -294 -306 0
293 421 -294 0
293 414 -421 294 -306 0
293 414 -294 306 0
293 -414 -294 -306 0
293 -414 -421 294 306 0
-294 420 295 0
-294 415 -420 -295 -301 0
-294 415 295 301 0
-294 -415 295 -301 0
-294 -415 -420 -295 301 0
294 420 -295 0
294 -415 -295 -301 0
294 415 -295 301 0
294 -415 -420 295 301 0
294 415 -420 295 -301 0
295 -419 -296 0
295 -419 -165 -300 0
-295 419 0
-295 165 296 0
-295 296 300 0
-296 262 297 298 0
-296 297 260 298 0
296 -298 0
296 -297 0
296 -262 -260 0
297 -415 -256 0
-297 415 0
-297 256 0
298 -231 -299 0
-298 231 0
-298 299 0
299 -264 -260 0
-299 264 0
-299 260 0
300 -233 -299 0
-300 233 0
-300 299 0
-301 236 303 0
-301 302 303 0
-301 170 303 0
301 -303 0
301 -170 -236 -302 0
302 -269 -265 0
-302 269 0
-302 265 0
-303 267 304 305 0
-303 304 265 305 0
303 -305 0
303 -304 0
303 -267 -265 0
304 -414 -255 0
-304 414 0
-304 255 0
305 -235 -302 0
-305 235 0
-305 302 0
-306 239 308 0
-306 307 308 0
-306 172 308 0
306 -308 0
306 -172 -239 -307 0
307 -274 -270 0
-307 274 0
-307 270 0
-308 238 309 310 0
-308 309 310 307 0
308 -310 0
308 -309 0
308 -238 -307 0
309 -413 -254 0
-309 413 0
-309 254 0
310 -272 -270 0
-310 272 0
-310 270 0
-311 242 313 0
-311 312 313 0
-311 174 313 0
311 -313 0
311 -174 -242 -312 0
312 -279 -275 0
-312 279 0
-312 275 0
-313 277 314 315 0
-313 314 275 315 0
313 -315 0
313 -314 0
313 -277 -275 0
314 -412 -253 0
-314 412 0
-314 253 0
315 -241 -312 0
-315 241 0
-315 312 0
-316 146 317 0
-316 317 321 0
316 -317 0
316 -146 -321 0
-317 244 318 319 0
-317 318 319 320 0
317 -319 0
317 -318 0
317 -244 -320 0
318 -411 -252 0
-318 411 0
-318 252 0
319 -282 -280 0
-319 282 0
-319 280 0
320 -284 -280 0
-320 284 0
-320 280 0
321 -245 -320 0
-321 245 0
-321 320 0
-322 289 323 0
-322 246 323 0
-322 285 323 0
322 -323 0
322 -289 -246 -285 0
-323 324 285 0
-323 287 324 0
323 -324 0
323 -287 -285 0
324 -410 -251 0
-324 410 0
-324 251 0
-325 424 326 0
-325 -424 346 347 0
-325 -424 -346 -347 0
325 424 -326 0
325 -424 346 -347 0
325 -424 -346 347 0
-326 423 327 0
-326 -423 341 342 0
-326 -423 -341 -342 0
326 423 -327 0
326 -423 341 -342 0
326 -423 -341 342 0
-327 422 328 0
-327 -414 328 -337 0
-327 414 328 337 0
-327 -414 -422 -328 337 0
-327 414 -422 -328 -337 0
327 422 -328 0
327 414 -422 328 -337 0
327 414 -328 337 0
327 -414 -328 -337 0
327 -414 -422 328 337 0
-328 421 329 0
-328 415 -421 -329 -333 0
-328 415 329 333 0
-328 -415 329 -333 0
-328 -415 -421 -329 333 0
328 421 -329 0
328 -415 -329 -333 0
328 415 -329 333 0
328 -415 -421 329 333 0
328 415 -421 329 -333 0
329 -420 -330 0
329 -420 -331 0
-329 420 0
-329 330 331 0
330 -415 -295 0
-330 415 0
-330 295 0
331 -332 -301 0
-331 332 0
-331 301 0
332 415 -295 0
332 -415 295 0
-332 -415 -295 0
-332 415 295 0
-333 334 335 0
333 -334 0
333 -335 0
334 -414 -294 0
-334 414 0
-334 294 0
335 -336 -306 0
-335 336 0
-335 306 0
336 -414 294 0
336 414 -294 0
-336 414 294 0
-336 -414 -294 0
-337 338 339 0
337 -338 0
337 -339 0
338 -413 -293 0
-338 413 0
-338 293 0
339 -340 -311 0
-339 340 0
-339 311 0
340 -413 293 0
340 413 -293 0
-340 413 293 0
-340 -413 -293 0
341 -413 327 0
341 413 -327 0
-341 413 327 0
-341 -413 -327 0
-342 343 344 0
342 -343 0
342 -344 0
343 -412 -292 0
-343 412 0
-343 292 0
344 -345 -316 0
-344 345 0
-344 316 0
345 -412 292 0
345 412 -292 0
-345 412 292 0
-345 -412 -292 0
346 -412 326 0
346 412 -326 0
-346 412 326 0
-346 -412 -326 0
-347 348 349 0
347 -348 0
347 -349 0
348 -411 -291 0
-348 411 0
-348 291 0
349 -350 -322 0
-349 350 0
-349 322 0
350 -411 291 0
350 411 -291 0
-350 411 291 0
-350 -411 -291 0
-351 424 352 0
-351 -413 352 -368 0
-351 413 352 368 0
-351 -413 -424 -352 368 0
-351 413 -424 -352 -368 0
351 424 -352 0
351 413 -424 352 -368 0
351 413 -352 368 0
351 -413 -352 -368 0
351 -413 -424 352 368 0
-352 423 353 0
-352 -414 353 -363 0
-352 414 353 363 0
-352 -414 -423 -353 363 0
-352 414 -423 -353 -363 0
352 423 -353 0
352 414 -423 353 -363 0
352 414 -353 363 0
352 -414 -353 -363 0
352 -414 -423 353 363 0
-353 422 354 0
-353 415 -422 -354 -359 0
-353 415 354 359 0
-353 -415 354 -359 0
-353 -415 -422 -354 359 0
353 422 -354 0
353 -415 -354 -359 0
353 415 -354 359 0
353 -415 -422 354 359 0
353 415 -422 354 -359 0
354 -421 -355 0
354 -421 -358 0
354 -421 -356 0
-354 421 0
-354 355 356 358 0
355 -415 -329 0
-355 415 0
-355 329 0
356 -334 -357 0
-356 334 0
-356 357 0
357 415 -329 0
357 -415 329 0
-357 -415 -329 0
-357 415 329 0
358 -336 -306 -357 0
-358 336 0
-358 306 0
-358 357 0
-359 340 361 0
-359 311 361 0
-359 360 361 0
359 -361 0
359 -340 -311 -360 0
360 -414 328 0
360 414 -328 0
-360 414 328 0
-360 -414 -328 0
-361 362 360 0
-361 338 362 0
361 -362 0
361 -338 -360 0
362 -414 -328 0
-362 414 0
-362 328 0
-363 316 364 0
-363 364 367 0
363 -364 0
363 -316 -367 0
-364 365 366 0
364 -365 0
364 -366 0
365 -413 -327 0
-365 413 0
-365 327 0
366 -343 -341 0
-366 343 0
-366 341 0
367 -345 -341 0
-367 345 0
-367 341 0
-368 322 369 0
-368 369 372 0
368 -369 0
368 -322 -372 0
-369 370 371 0
369 -370 0
369 -371 0
370 -412 -326 0
-370 412 0
-370 326 0
371 -348 -346 0
-371 348 0
-371 346 0
372 -350 -346 0
-372 350 0
-372 346 0
-373 424 374 0
-373 -424 383 384 0
-373 -424 -383 -384 0
373 424 -374 0
373 -424 383 -384 0
373 -424 -383 384 0
-374 423 375 0
-374 415 -423 -375 -379 0
-374 415 375 379 0
-374 -415 375 -379 0
-374 -415 -423 -375 379 0
374 423 -375 0
374 -415 -375 -379 0
374 415 -375 379 0
374 -415 -423 375 379 0
374 415 -423 375 -379 0
375 -422 -376 0
375 -422 -377 0
-375 422 0
-375 376 377 0
376 -415 -354 0
-376 415 0
-376 354 0
377 -378 -359 0
-377 378 0
-377 359 0
378 415 -354 0
378 -415 354 0
-378 -415 -354 0
-378 415 354 0
-379 380 381 0
379 -380 0
379 -381 0
380 -414 -353 0
-380 414 0
-380 353 0
381 -382 -363 0
-381 382 0
-381 363 0
382 -414 353 0
382 414 -353 0
-382 414 353 0
-382 -414 -353 0
383 -414 374 0
383 414 -374 0
-383 414 374 0
-383 -414 -374 0
-384 385 386 0
384 -385 0
384 -386 0
385 -413 -352 0
-385 413 0
-385 352 0
386 -387 -368 0
-386 387 0
-386 368 0
387 -413 352 0
387 413 -352 0
-387 413 352 0
-387 -413 -352 0
-388 424 389 0
-388 415 -424 -389 -398 0
-388 415 389 398 0
-388 -415 389 -398 0
-388 -415 -424 -389 398 0
388 424 -389 0
388 -415 -389 -398 0
388 415 -389 398 0
388 -415 -424 389 398 0
388 415 -424 389 -398 0
389 -423 -390 0
389 -423 -146 -397 0
-389 423 0
-389 146 390 0
-389 390 397 0
-390 317 391 394 0
-390 391 394 396 0
390 -391 0
390 -394 0
390 -317 -396 0
-391 392 393 0
-391 380 392 0
391 -392 0
391 -380 -393 0
392 -415 -375 0
-392 415 0
-392 375 0
393 415 -375 0
393 -415 375 0
-393 -415 -375 0
-393 415 375 0
394 -364 -395 0
-394 364 0
-394 395 0
395 -382 -393 0
-395 382 0
-395 393 0
396 -367 -395 0
-396 367 0
-396 395 0
397 -321 -396 0
-397 321 0
-397 396 0
-398 372 400 0
-398 399 400 0
-398 322 400 0
398 -400 0
398 -322 -372 -399 0
399 -387 -383 0
-399 387 0
-399 383 0
-400 385 401 402 0
-400 401 383 402 0
400 -402 0
400 -401 0
400 -385 -383 0
401 -414 -374 0
-401 414 0
-401 374 0
402 -369 -399 0
-402 369 0
-402 399 0
403 -424 -404 0
403 -424 -405 0
-403 424 0
-403 404 405 0
404 -415 -389 0
-404 415 0
-404 389 0
405 -406 -398 0
-405 406 0
-405 398 0
406 415 -389 0
406 -415 389 0
-406 -415 -389 0
-406 415 389 0
-425 0
2 0
11 0
20 0
31 0
44 0
62 0
84 0
113 0
144 0
179 0
219 0
250 0
290 0
325 0
351 0
373 0
388 0
403 0

