c Result of efficient AIG-to-CNF conversion using package CNF
p cnf 34 107
-2 3 0
2 -3 0
-3 4 0
3 -4 0
4 -28 -31 0
-4 28 0
-4 31 0
-5 6 0
5 -6 0
-6 28 7 0
-6 32 7 0
-6 -28 -32 -7 0
6 28 -7 0
6 -28 -32 7 0
6 32 -7 0
7 -29 -31 0
-7 29 0
-7 31 0
-8 28 9 0
-8 -28 -33 -9 0
-8 33 9 0
8 28 -9 0
8 33 -9 0
8 -28 -33 9 0
-9 32 11 0
-9 -32 -10 -12 0
-9 -32 10 12 0
9 32 -11 0
9 -32 -10 12 0
9 -32 10 -12 0
10 -28 -29 -31 0
-10 28 0
-10 29 0
-10 31 0
11 -30 -31 0
-11 30 0
-11 31 0
12 29 -11 0
12 -29 11 0
-12 -29 -11 0
-12 29 11 0
-13 33 15 0
-13 -33 -14 -17 0
-13 -33 14 17 0
13 33 -15 0
13 -33 -14 17 0
13 -33 14 -17 0
14 -28 -9 0
-14 28 0
-14 9 0
15 30 -32 -16 0
15 -30 -32 16 0
-15 32 0
-15 -30 -16 0
-15 30 16 0
-16 31 0
-16 29 0
-16 28 30 0
16 -28 -29 -31 0
16 -29 -30 -31 0
17 29 -15 0
17 -29 15 0
-17 -29 -15 0
-17 29 15 0
-18 33 19 0
-18 -33 21 22 0
-18 -33 -21 -22 0
18 33 -19 0
18 -33 21 -22 0
18 -33 -21 22 0
19 -32 -20 0
-19 32 0
-19 20 0
20 -29 -30 -31 0
-20 29 0
-20 30 0
-20 31 0
21 30 -19 0
21 -30 19 0
-21 -30 -19 0
-21 30 19 0
-22 23 24 0
22 -23 0
22 -24 0
23 -29 -15 0
-23 29 0
-23 15 0
24 -14 -17 0
-24 14 0
-24 17 0
25 -33 -26 0
25 -33 -27 0
-25 33 0
-25 26 27 0
26 -30 -19 0
-26 30 0
-26 19 0
27 -21 -22 0
-27 21 0
-27 22 0
-34 0
2 0
5 0
8 0
13 0
18 0
25 0

