c Result of efficient AIG-to-CNF conversion using package CNF
p cnf 113 426
-2 3 0
2 -3 0
-3 4 0
3 -4 0
-4 5 0
4 -5 0
-5 6 0
5 -6 0
6 -103 -108 0
-6 103 0
-6 108 0
-7 8 0
7 -8 0
-8 9 0
8 -9 0
-9 10 0
9 -10 0
-10 103 11 0
-10 109 11 0
-10 -103 -109 -11 0
10 103 -11 0
10 -103 -109 11 0
10 109 -11 0
11 -104 -108 0
-11 104 0
-11 108 0
-12 13 0
12 -13 0
-13 14 0
13 -14 0
-14 103 15 0
-14 -103 -110 -15 0
-14 110 15 0
14 103 -15 0
14 110 -15 0
14 -103 -110 15 0
-15 109 17 0
-15 -109 -16 -18 0
-15 -109 16 18 0
15 109 -17 0
15 -109 -16 18 0
15 -109 16 -18 0
16 -103 -104 -108 0
-16 103 0
-16 104 0
-16 108 0
17 -105 -108 0
-17 105 0
-17 108 0
18 104 -17 0
18 -104 17 0
-18 -104 -17 0
-18 104 17 0
-19 20 0
19 -20 0
-20 103 21 0
-20 -103 -111 -21 0
-20 111 21 0
20 103 -21 0
20 111 -21 0
20 -103 -111 21 0
-21 110 23 0
-21 -110 -22 -27 0
-21 -110 22 27 0
21 110 -23 0
21 -110 -22 27 0
21 -110 22 -27 0
22 -103 -15 0
-22 103 0
-22 15 0
-23 109 24 0
-23 -109 25 26 0
-23 -109 -25 -26 0
23 109 -24 0
23 -109 25 -26 0
23 -109 -25 26 0
24 -106 -108 0
-24 106 0
-24 108 0
25 105 -24 0
25 -105 24 0
-25 -105 -24 0
-25 105 24 0
-26 108 0
-26 104 0
-26 103 105 0
26 -103 -104 -108 0
26 -104 -105 -108 0
27 -104 23 0
27 104 -23 0
-27 104 23 0
-27 -104 -23 0
-28 103 29 0
-28 -103 -112 -29 0
-28 112 29 0
28 103 -29 0
28 112 -29 0
28 -103 -112 29 0
-29 111 31 0
-29 -111 -30 -41 0
-29 -111 30 41 0
29 111 -31 0
29 -111 -30 41 0
29 -111 30 -41 0
30 -103 -21 0
-30 103 0
-30 21 0
-31 110 32 0
-31 -110 37 38 0
-31 -110 -37 -38 0
31 110 -32 0
31 -110 37 -38 0
31 -110 -37 38 0
-32 109 33 0
-32 -109 34 35 0
-32 -109 -34 -35 0
32 109 -33 0
32 -109 34 -35 0
32 -109 -34 35 0
33 -107 -108 0
-33 107 0
-33 108 0
34 106 -33 0
34 -106 33 0
-34 -106 -33 0
-34 106 33 0
-35 18 36 0
-35 16 36 0
-35 25 36 0
35 -36 0
35 -16 -18 -25 0
-36 108 0
-36 105 0
-36 104 106 0
36 -104 -105 -108 0
36 -105 -106 -108 0
37 -105 32 0
37 105 -32 0
-37 105 32 0
-37 -105 -32 0
-38 39 40 0
38 -39 0
38 -40 0
39 -104 -23 0
-39 104 0
-39 23 0
40 -22 -27 0
-40 22 0
-40 27 0
41 -104 31 0
41 104 -31 0
-41 104 31 0
-41 -104 -31 0
-42 112 44 0
-42 104 43 44 0
-42 -104 -43 44 0
-42 104 -112 -43 -44 0
-42 -104 -112 43 -44 0
42 112 -44 0
42 -104 -43 -44 0
42 104 43 -44 0
42 104 -112 -43 44 0
42 -104 -112 43 44 0
43 -103 -29 0
-43 103 0
-43 29 0
-44 111 45 0
-44 -111 54 55 0
-44 -111 -54 -55 0
44 111 -45 0
44 -111 54 -55 0
44 -111 -54 55 0
-45 110 46 0
-45 -110 50 51 0
-45 -110 -50 -51 0
45 110 -46 0
45 -110 50 -51 0
45 -110 -50 51 0
46 107 -109 -47 0
46 -107 -109 47 0
-46 109 0
-46 -107 -47 0
-46 107 47 0
-47 48 49 0
47 -48 0
47 -49 0
48 -106 -107 -108 0
-48 106 0
-48 107 0
-48 108 0
49 -34 -35 0
-49 34 0
-49 35 0
50 106 -46 0
50 -106 46 0
-50 -106 -46 0
-50 106 46 0
-51 52 53 0
51 -52 0
51 -53 0
52 -105 -32 0
-52 105 0
-52 32 0
53 -37 -38 0
-53 37 0
-53 38 0
54 -105 45 0
54 105 -45 0
-54 105 45 0
-54 -105 -45 0
-55 56 57 0
55 -56 0
55 -57 0
56 -104 -31 0
-56 104 0
-56 31 0
57 -30 -41 0
-57 30 0
-57 41 0
-58 112 59 0
-58 -105 59 -69 0
-58 105 59 69 0
-58 -105 -112 -59 69 0
-58 105 -112 -59 -69 0
58 112 -59 0
58 105 -112 59 -69 0
58 105 -59 69 0
58 -105 -59 -69 0
58 -105 -112 59 69 0
-59 111 60 0
-59 -106 60 -65 0
-59 106 60 65 0
-59 -106 -111 -60 65 0
-59 106 -111 -60 -65 0
59 111 -60 0
59 106 -111 60 -65 0
59 106 -60 65 0
59 -106 -60 -65 0
59 -106 -111 60 65 0
-60 110 61 0
-60 107 -110 -61 -63 0
-60 107 61 63 0
-60 -107 61 -63 0
-60 -107 -110 -61 63 0
60 110 -61 0
60 -107 -61 -63 0
60 107 -61 63 0
60 -107 -110 61 63 0
60 107 -110 61 -63 0
61 -109 -62 0
-61 109 0
-61 62 0
-62 106 35 0
-62 108 35 0
-62 107 0
-62 106 108 0
62 -106 -107 -35 0
62 -107 -108 -35 0
62 -106 -107 -108 0
-63 106 52 64 0
-63 106 46 64 0
-63 52 46 64 0
63 -106 -52 0
63 -52 -46 0
63 -64 0
63 -106 -46 0
64 -37 -38 -50 0
-64 37 0
-64 38 0
-64 50 0
-65 30 66 0
-65 66 68 0
65 -66 0
65 -30 -68 0
-66 67 54 0
-66 56 67 0
66 -67 0
66 -56 -54 0
67 -105 -45 0
-67 105 0
-67 45 0
68 -41 -54 0
-68 41 0
-68 54 0
-69 70 71 0
69 -70 0
69 -71 0
70 -104 -44 0
-70 104 0
-70 44 0
71 -43 -72 0
-71 43 0
-71 72 0
72 -104 44 0
72 104 -44 0
-72 104 44 0
-72 -104 -44 0
-73 112 74 0
-73 -112 84 85 0
-73 -112 -84 -85 0
73 112 -74 0
73 -112 84 -85 0
73 -112 -84 85 0
-74 111 75 0
-74 -111 79 80 0
-74 -111 -79 -80 0
74 111 -75 0
74 -111 79 -80 0
74 -111 -79 80 0
75 -110 -76 0
75 -110 -77 0
-75 110 0
-75 76 77 0
76 -107 -61 0
-76 107 0
-76 61 0
77 -78 -63 0
-77 78 0
-77 63 0
78 107 -61 0
78 -107 61 0
-78 -107 -61 0
-78 107 61 0
79 107 -75 0
79 -107 75 0
-79 -107 -75 0
-79 107 75 0
-80 81 82 0
80 -81 0
80 -82 0
81 -106 -60 0
-81 106 0
-81 60 0
82 -83 -65 0
-82 83 0
-82 65 0
83 -106 60 0
83 106 -60 0
-83 106 60 0
-83 -106 -60 0
84 -106 74 0
84 106 -74 0
-84 106 74 0
-84 -106 -74 0
-85 86 87 0
85 -86 0
85 -87 0
86 -105 -59 0
-86 105 0
-86 59 0
87 -88 -69 0
-87 88 0
-87 69 0
88 -105 59 0
88 105 -59 0
-88 105 59 0
-88 -105 -59 0
-89 112 90 0
-89 107 -112 -90 -96 0
-89 107 90 96 0
-89 -107 90 -96 0
-89 -107 -112 -90 96 0
89 112 -90 0
89 -107 -90 -96 0
89 107 -90 96 0
89 -107 -112 90 96 0
89 107 -112 90 -96 0
90 -111 -91 0
90 -111 -30 -95 0
-90 111 0
-90 30 91 0
-90 91 95 0
-91 81 92 93 0
-91 92 79 93 0
91 -93 0
91 -92 0
91 -81 -79 0
92 -107 -75 0
-92 107 0
-92 75 0
93 -66 -94 0
-93 66 0
-93 94 0
94 -83 -79 0
-94 83 0
-94 79 0
95 -68 -94 0
-95 68 0
-95 94 0
-96 88 97 0
-96 69 97 0
-96 84 97 0
96 -97 0
96 -88 -69 -84 0
-97 98 84 0
-97 86 98 0
97 -98 0
97 -86 -84 0
98 -106 -74 0
-98 106 0
-98 74 0
99 -112 -100 0
99 -112 -101 0
-99 112 0
-99 100 101 0
100 -107 -90 0
-100 107 0
-100 90 0
101 -102 -96 0
-101 102 0
-101 96 0
102 107 -90 0
102 -107 90 0
-102 -107 -90 0
-102 107 90 0
-113 0
2 0
7 0
12 0
19 0
28 0
42 0
58 0
73 0
89 0
99 0

