c Result of efficient AIG-to-CNF conversion using package CNF
p cnf 170 644
-2 3 0
2 -3 0
-3 4 0
3 -4 0
-4 5 0
4 -5 0
-5 6 0
5 -6 0
-6 7 0
6 -7 0
7 -158 -164 0
-7 158 0
-7 164 0
-8 9 0
8 -9 0
-9 10 0
9 -10 0
-10 11 0
10 -11 0
-11 12 0
11 -12 0
-12 158 13 0
-12 165 13 0
-12 -158 -165 -13 0
12 158 -13 0
12 -158 -165 13 0
12 165 -13 0
13 -159 -164 0
-13 159 0
-13 164 0
-14 15 0
14 -15 0
-15 16 0
15 -16 0
-16 17 0
16 -17 0
-17 158 18 0
-17 -158 -166 -18 0
-17 166 18 0
17 158 -18 0
17 166 -18 0
17 -158 -166 18 0
-18 165 20 0
-18 -165 -19 -21 0
-18 -165 19 21 0
18 165 -20 0
18 -165 -19 21 0
18 -165 19 -21 0
19 -158 -159 -164 0
-19 158 0
-19 159 0
-19 164 0
20 -160 -164 0
-20 160 0
-20 164 0
21 159 -20 0
21 -159 20 0
-21 -159 -20 0
-21 159 20 0
-22 23 0
22 -23 0
-23 24 0
23 -24 0
-24 158 25 0
-24 -158 -167 -25 0
-24 167 25 0
24 158 -25 0
24 167 -25 0
24 -158 -167 25 0
-25 166 27 0
-25 -166 -26 -31 0
-25 -166 26 31 0
25 166 -27 0
25 -166 -26 31 0
25 -166 26 -31 0
26 -158 -18 0
-26 158 0
-26 18 0
-27 165 28 0
-27 -165 29 30 0
-27 -165 -29 -30 0
27 165 -28 0
27 -165 29 -30 0
27 -165 -29 30 0
28 -161 -164 0
-28 161 0
-28 164 0
29 160 -28 0
29 -160 28 0
-29 -160 -28 0
-29 160 28 0
-30 164 0
-30 159 0
-30 158 160 0
30 -158 -159 -164 0
30 -159 -160 -164 0
31 -159 27 0
31 159 -27 0
-31 159 27 0
-31 -159 -27 0
-32 33 0
32 -33 0
-33 158 34 0
-33 -158 -168 -34 0
-33 168 34 0
33 158 -34 0
33 168 -34 0
33 -158 -168 34 0
-34 167 36 0
-34 -167 -35 -46 0
-34 -167 35 46 0
34 167 -36 0
34 -167 -35 46 0
34 -167 35 -46 0
35 -158 -25 0
-35 158 0
-35 25 0
-36 166 37 0
-36 -166 42 43 0
-36 -166 -42 -43 0
36 166 -37 0
36 -166 42 -43 0
36 -166 -42 43 0
-37 165 38 0
-37 -165 39 40 0
-37 -165 -39 -40 0
37 165 -38 0
37 -165 39 -40 0
37 -165 -39 40 0
38 -162 -164 0
-38 162 0
-38 164 0
39 161 -38 0
39 -161 38 0
-39 -161 -38 0
-39 161 38 0
-40 21 41 0
-40 19 41 0
-40 29 41 0
40 -41 0
40 -19 -21 -29 0
-41 164 0
-41 160 0
-41 159 161 0
41 -159 -160 -164 0
41 -160 -161 -164 0
42 -160 37 0
42 160 -37 0
-42 160 37 0
-42 -160 -37 0
-43 44 45 0
43 -44 0
43 -45 0
44 -159 -27 0
-44 159 0
-44 27 0
45 -26 -31 0
-45 26 0
-45 31 0
46 -159 36 0
46 159 -36 0
-46 159 36 0
-46 -159 -36 0
-47 158 48 0
-47 -158 -169 -48 0
-47 169 48 0
47 158 -48 0
47 169 -48 0
47 -158 -169 48 0
-48 168 50 0
-48 159 49 50 0
-48 -159 -49 50 0
-48 159 -168 -49 -50 0
-48 -159 -168 49 -50 0
48 168 -50 0
48 -159 -49 -50 0
48 159 49 -50 0
48 159 -168 -49 50 0
48 -159 -168 49 50 0
49 -158 -34 0
-49 158 0
-49 34 0
-50 167 51 0
-50 -167 62 63 0
-50 -167 -62 -63 0
50 167 -51 0
50 -167 62 -63 0
50 -167 -62 63 0
-51 166 52 0
-51 -166 58 59 0
-51 -166 -58 -59 0
51 166 -52 0
51 -166 58 -59 0
51 -166 -58 59 0
-52 165 53 0
-52 -165 54 55 0
-52 -165 -54 -55 0
52 165 -53 0
52 -165 54 -55 0
52 -165 -54 55 0
53 -163 -164 0
-53 163 0
-53 164 0
54 162 -53 0
54 -162 53 0
-54 -162 -53 0
-54 162 53 0
-55 56 57 0
55 -56 0
55 -57 0
56 -161 -162 -164 0
-56 161 0
-56 162 0
-56 164 0
57 -39 -40 0
-57 39 0
-57 40 0
58 -161 52 0
58 161 -52 0
-58 161 52 0
-58 -161 -52 0
-59 60 61 0
59 -60 0
59 -61 0
60 -160 -37 0
-60 160 0
-60 37 0
61 -42 -43 0
-61 42 0
-61 43 0
62 -160 51 0
62 160 -51 0
-62 160 51 0
-62 -160 -51 0
-63 64 65 0
63 -64 0
63 -65 0
64 -159 -36 0
-64 159 0
-64 36 0
65 -35 -46 0
-65 35 0
-65 46 0
-66 169 68 0
-66 -169 -67 -87 0
-66 -169 67 87 0
66 169 -68 0
66 -169 -67 87 0
66 -169 67 -87 0
67 -158 -48 0
-67 158 0
-67 48 0
-68 168 69 0
-68 -160 69 -83 0
-68 160 69 83 0
-68 -160 -168 -69 83 0
-68 160 -168 -69 -83 0
68 168 -69 0
68 160 -168 69 -83 0
68 160 -69 83 0
68 -160 -69 -83 0
68 -160 -168 69 83 0
-69 167 70 0
-69 -167 79 80 0
-69 -167 -79 -80 0
69 167 -70 0
69 -167 79 -80 0
69 -167 -79 80 0
-70 166 71 0
-70 -166 74 75 0
-70 -166 -74 -75 0
70 166 -71 0
70 -166 74 -75 0
70 -166 -74 75 0
71 163 -165 -72 0
71 -163 -165 72 0
-71 165 0
-71 -163 -72 0
-71 163 72 0
-72 39 73 0
-72 40 73 0
-72 54 73 0
72 -73 0
72 -39 -40 -54 0
-73 164 0
-73 162 0
-73 161 163 0
73 -161 -162 -164 0
73 -162 -163 -164 0
74 162 -71 0
74 -162 71 0
-74 -162 -71 0
-74 162 71 0
-75 43 76 0
-75 76 78 0
75 -76 0
75 -43 -78 0
-76 77 58 0
-76 60 77 0
76 -77 0
76 -60 -58 0
77 -161 -52 0
-77 161 0
-77 52 0
78 -42 -58 0
-78 42 0
-78 58 0
79 -161 70 0
79 161 -70 0
-79 161 70 0
-79 -161 -70 0
-80 35 81 0
-80 81 82 0
80 -81 0
80 -35 -82 0
-81 64 51 0
-81 160 64 0
-81 160 51 0
81 -160 -64 0
81 -64 -51 0
81 -160 -51 0
82 -46 -62 0
-82 46 0
-82 62 0
-83 84 85 0
83 -84 0
83 -85 0
84 -159 -50 0
-84 159 0
-84 50 0
85 -49 -86 0
-85 49 0
-85 86 0
86 -159 50 0
86 159 -50 0
-86 159 50 0
-86 -159 -50 0
87 -159 68 0
87 159 -68 0
-87 159 68 0
-87 -159 -68 0
-88 169 89 0
-88 -169 107 108 0
-88 -169 -107 -108 0
88 169 -89 0
88 -169 107 -108 0
88 -169 -107 108 0
-89 168 90 0
-89 -168 102 103 0
-89 -168 -102 -103 0
89 168 -90 0
89 -168 102 -103 0
89 -168 -102 103 0
-90 167 91 0
-90 -167 98 99 0
-90 -167 -98 -99 0
90 167 -91 0
90 -167 98 -99 0
90 -167 -98 99 0
-91 166 92 0
-91 -166 94 95 0
-91 -166 -94 -95 0
91 166 -92 0
91 -166 94 -95 0
91 -166 -94 95 0
92 -165 -93 0
-92 165 0
-92 93 0
93 -163 -72 0
-93 163 0
-93 72 0
94 -163 92 0
-94 163 0
-94 -92 0
-95 96 97 0
95 -96 0
95 -97 0
96 -162 -71 0
-96 162 0
-96 71 0
97 -74 -75 0
-97 74 0
-97 75 0
98 -162 91 0
98 162 -91 0
-98 162 91 0
-98 -162 -91 0
-99 100 101 0
99 -100 0
99 -101 0
100 -161 -70 0
-100 161 0
-100 70 0
101 -79 -80 0
-101 79 0
-101 80 0
102 -161 90 0
102 161 -90 0
-102 161 90 0
-102 -161 -90 0
-103 104 105 0
103 -104 0
103 -105 0
104 -160 -69 0
-104 160 0
-104 69 0
105 -106 -83 0
-105 106 0
-105 83 0
106 -160 69 0
106 160 -69 0
-106 160 69 0
-106 -160 -69 0
107 -160 89 0
107 160 -89 0
-107 160 89 0
-107 -160 -89 0
-108 109 110 0
108 -109 0
108 -110 0
109 -159 -68 0
-109 159 0
-109 68 0
110 -67 -87 0
-110 67 0
-110 87 0
-111 169 112 0
-111 -161 112 -127 0
-111 161 112 127 0
-111 -161 -169 -112 127 0
-111 161 -169 -112 -127 0
111 169 -112 0
111 161 -169 112 -127 0
111 161 -112 127 0
111 -161 -112 -127 0
111 -161 -169 112 127 0
-112 168 113 0
-112 -162 113 -125 0
-112 162 113 125 0
-112 -162 -168 -113 125 0
-112 162 -168 -113 -125 0
112 168 -113 0
112 162 -168 113 -125 0
112 162 -113 125 0
112 -162 -113 -125 0
112 -162 -168 113 125 0
-113 167 114 0
-113 163 -167 -114 -120 0
-113 163 114 120 0
-113 -163 114 -120 0
-113 -163 -167 -114 120 0
113 167 -114 0
113 -163 -114 -120 0
113 163 -114 120 0
113 -163 -167 114 120 0
113 163 -167 114 -120 0
114 -166 -115 0
114 -166 -43 -119 0
-114 166 0
-114 43 115 0
-114 115 119 0
-115 76 116 117 0
-115 116 117 118 0
115 -117 0
115 -116 0
115 -76 -118 0
116 -163 -92 0
-116 163 0
-116 92 0
117 -96 -94 0
-117 96 0
-117 94 0
118 -74 -94 0
-118 74 0
-118 94 0
119 -78 -118 0
-119 78 0
-119 118 0
-120 82 122 0
-120 35 122 0
-120 121 122 0
120 -122 0
120 -35 -82 -121 0
121 -79 -98 0
-121 79 0
-121 98 0
-122 100 123 124 0
-122 123 98 124 0
122 -124 0
122 -123 0
122 -100 -98 0
123 -162 -91 0
-123 162 0
-123 91 0
124 -81 -121 0
-124 81 0
-124 121 0
-125 161 104 126 0
-125 104 90 126 0
-125 161 90 126 0
125 -161 -104 0
125 -104 -90 0
125 -126 0
125 -161 -90 0
126 -106 -83 -102 0
-126 106 0
-126 83 0
-126 102 0
-127 87 128 0
-127 67 128 0
-127 107 128 0
127 -128 0
127 -67 -87 -107 0
-128 129 107 0
-128 109 129 0
128 -129 0
128 -109 -107 0
129 -160 -89 0
-129 160 0
-129 89 0
-130 169 131 0
-130 -169 141 142 0
-130 -169 -141 -142 0
130 169 -131 0
130 -169 141 -142 0
130 -169 -141 142 0
-131 168 132 0
-131 -168 136 137 0
-131 -168 -136 -137 0
131 168 -132 0
131 -168 136 -137 0
131 -168 -136 137 0
132 -167 -133 0
132 -167 -134 0
-132 167 0
-132 133 134 0
133 -163 -114 0
-133 163 0
-133 114 0
134 -135 -120 0
-134 135 0
-134 120 0
135 163 -114 0
135 -163 114 0
-135 -163 -114 0
-135 163 114 0
136 163 -132 0
136 -163 132 0
-136 -163 -132 0
-136 163 132 0
-137 138 139 0
137 -138 0
137 -139 0
138 -162 -113 0
-138 162 0
-138 113 0
139 -140 -125 0
-139 140 0
-139 125 0
140 -162 113 0
140 162 -113 0
-140 162 113 0
-140 -162 -113 0
141 -162 131 0
141 162 -131 0
-141 162 131 0
-141 -162 -131 0
-142 143 144 0
142 -143 0
142 -144 0
143 -161 -112 0
-143 161 0
-143 112 0
144 -145 -127 0
-144 145 0
-144 127 0
145 -161 112 0
145 161 -112 0
-145 161 112 0
-145 -161 -112 0
-146 169 147 0
-146 163 -169 -147 -151 0
-146 163 147 151 0
-146 -163 147 -151 0
-146 -163 -169 -147 151 0
146 169 -147 0
146 -163 -147 -151 0
146 163 -147 151 0
146 -163 -169 147 151 0
146 163 -169 147 -151 0
147 -168 -148 0
147 -168 -125 -150 0
-147 168 0
-147 125 148 0
-147 148 150 0
-148 149 136 0
-148 138 149 0
148 -149 0
148 -138 -136 0
149 -163 -132 0
-149 163 0
-149 132 0
150 -140 -136 0
-150 140 0
-150 136 0
-151 145 152 0
-151 127 152 0
-151 141 152 0
151 -152 0
151 -145 -127 -141 0
-152 153 141 0
-152 143 153 0
152 -153 0
152 -143 -141 0
153 -162 -131 0
-153 162 0
-153 131 0
154 -169 -155 0
154 -169 -156 0
-154 169 0
-154 155 156 0
155 -163 -147 0
-155 163 0
-155 147 0
156 -157 -151 0
-156 157 0
-156 151 0
157 163 -147 0
157 -163 147 0
-157 -163 -147 0
-157 163 147 0
-170 0
2 0
8 0
14 0
22 0
32 0
47 0
66 0
88 0
111 0
130 0
146 0
154 0

