c Result of efficient AIG-to-CNF conversion using package CNF
p cnf 667 2668
-2 3 0
2 -3 0
-3 4 0
3 -4 0
-4 5 0
4 -5 0
-5 6 0
5 -6 0
-6 7 0
6 -7 0
-7 8 0
7 -8 0
-8 9 0
8 -9 0
-9 10 0
9 -10 0
-10 11 0
10 -11 0
-11 12 0
11 -12 0
12 -645 -656 0
-12 645 0
-12 656 0
-13 14 0
13 -14 0
-14 15 0
14 -15 0
-15 16 0
15 -16 0
-16 17 0
16 -17 0
-17 18 0
17 -18 0
-18 19 0
18 -19 0
-19 20 0
19 -20 0
-20 21 0
20 -21 0
-21 22 0
21 -22 0
-22 645 23 0
-22 657 23 0
-22 -645 -657 -23 0
22 645 -23 0
22 -645 -657 23 0
22 657 -23 0
23 -646 -656 0
-23 646 0
-23 656 0
-24 25 0
24 -25 0
-25 26 0
25 -26 0
-26 27 0
26 -27 0
-27 28 0
27 -28 0
-28 29 0
28 -29 0
-29 30 0
29 -30 0
-30 31 0
30 -31 0
-31 32 0
31 -32 0
-32 645 33 0
-32 -645 -658 -33 0
-32 658 33 0
32 645 -33 0
32 658 -33 0
32 -645 -658 33 0
-33 657 35 0
-33 -657 -34 -36 0
-33 -657 34 36 0
33 657 -35 0
33 -657 -34 36 0
33 -657 34 -36 0
34 -645 -646 -656 0
-34 645 0
-34 646 0
-34 656 0
35 -647 -656 0
-35 647 0
-35 656 0
36 646 -35 0
36 -646 35 0
-36 -646 -35 0
-36 646 35 0
-37 38 0
37 -38 0
-38 39 0
38 -39 0
-39 40 0
39 -40 0
-40 41 0
40 -41 0
-41 42 0
41 -42 0
-42 43 0
42 -43 0
-43 44 0
43 -44 0
-44 645 45 0
-44 -645 -659 -45 0
-44 659 45 0
44 645 -45 0
44 659 -45 0
44 -645 -659 45 0
-45 658 47 0
-45 -658 -46 -51 0
-45 -658 46 51 0
45 658 -47 0
45 -658 -46 51 0
45 -658 46 -51 0
46 -645 -33 0
-46 645 0
-46 33 0
-47 657 48 0
-47 -657 49 50 0
-47 -657 -49 -50 0
47 657 -48 0
47 -657 49 -50 0
47 -657 -49 50 0
48 -648 -656 0
-48 648 0
-48 656 0
49 647 -48 0
49 -647 48 0
-49 -647 -48 0
-49 647 48 0
-50 656 0
-50 646 0
-50 645 647 0
50 -645 -646 -656 0
50 -646 -647 -656 0
51 -646 47 0
51 646 -47 0
-51 646 47 0
-51 -646 -47 0
-52 53 0
52 -53 0
-53 54 0
53 -54 0
-54 55 0
54 -55 0
-55 56 0
55 -56 0
-56 57 0
56 -57 0
-57 58 0
57 -58 0
-58 645 59 0
-58 -645 -660 -59 0
-58 660 59 0
58 645 -59 0
58 660 -59 0
58 -645 -660 59 0
-59 659 61 0
-59 -659 -60 -71 0
-59 -659 60 71 0
59 659 -61 0
59 -659 -60 71 0
59 -659 60 -71 0
60 -645 -45 0
-60 645 0
-60 45 0
-61 658 62 0
-61 -658 67 68 0
-61 -658 -67 -68 0
61 658 -62 0
61 -658 67 -68 0
61 -658 -67 68 0
-62 657 63 0
-62 -657 64 65 0
-62 -657 -64 -65 0
62 657 -63 0
62 -657 64 -65 0
62 -657 -64 65 0
63 -649 -656 0
-63 649 0
-63 656 0
64 648 -63 0
64 -648 63 0
-64 -648 -63 0
-64 648 63 0
-65 36 66 0
-65 34 66 0
-65 49 66 0
65 -66 0
65 -34 -36 -49 0
-66 656 0
-66 647 0
-66 646 648 0
66 -646 -647 -656 0
66 -647 -648 -656 0
67 -647 62 0
67 647 -62 0
-67 647 62 0
-67 -647 -62 0
-68 69 70 0
68 -69 0
68 -70 0
69 -646 -47 0
-69 646 0
-69 47 0
70 -46 -51 0
-70 46 0
-70 51 0
71 -646 61 0
71 646 -61 0
-71 646 61 0
-71 -646 -61 0
-72 73 0
72 -73 0
-73 74 0
73 -74 0
-74 75 0
74 -75 0
-75 76 0
75 -76 0
-76 77 0
76 -77 0
-77 645 78 0
-77 -645 -661 -78 0
-77 661 78 0
77 645 -78 0
77 661 -78 0
77 -645 -661 78 0
-78 660 80 0
-78 646 79 80 0
-78 -646 -79 80 0
-78 646 -660 -79 -80 0
-78 -646 -660 79 -80 0
78 660 -80 0
78 -646 -79 -80 0
78 646 79 -80 0
78 646 -660 -79 80 0
78 -646 -660 79 80 0
79 -645 -59 0
-79 645 0
-79 59 0
-80 659 81 0
-80 -659 92 93 0
-80 -659 -92 -93 0
80 659 -81 0
80 -659 92 -93 0
80 -659 -92 93 0
-81 658 82 0
-81 -658 88 89 0
-81 -658 -88 -89 0
81 658 -82 0
81 -658 88 -89 0
81 -658 -88 89 0
-82 657 83 0
-82 -657 84 85 0
-82 -657 -84 -85 0
82 657 -83 0
82 -657 84 -85 0
82 -657 -84 85 0
83 -650 -656 0
-83 650 0
-83 656 0
84 649 -83 0
84 -649 83 0
-84 -649 -83 0
-84 649 83 0
-85 86 87 0
85 -86 0
85 -87 0
86 -648 -649 -656 0
-86 648 0
-86 649 0
-86 656 0
87 -64 -65 0
-87 64 0
-87 65 0
88 -648 82 0
88 648 -82 0
-88 648 82 0
-88 -648 -82 0
-89 90 91 0
89 -90 0
89 -91 0
90 -647 -62 0
-90 647 0
-90 62 0
91 -67 -68 0
-91 67 0
-91 68 0
92 -647 81 0
92 647 -81 0
-92 647 81 0
-92 -647 -81 0
-93 94 95 0
93 -94 0
93 -95 0
94 -646 -61 0
-94 646 0
-94 61 0
95 -60 -71 0
-95 60 0
-95 71 0
-96 97 0
96 -97 0
-97 98 0
97 -98 0
-98 99 0
98 -99 0
-99 100 0
99 -100 0
-100 645 101 0
-100 -645 -662 -101 0
-100 662 101 0
100 645 -101 0
100 662 -101 0
100 -645 -662 101 0
-101 661 103 0
-101 -661 -102 -126 0
-101 -661 102 126 0
101 661 -103 0
101 -661 -102 126 0
101 -661 102 -126 0
102 -645 -78 0
-102 645 0
-102 78 0
-103 660 104 0
-103 -647 104 -122 0
-103 647 104 122 0
-103 -647 -660 -104 122 0
-103 647 -660 -104 -122 0
103 660 -104 0
103 647 -660 104 -122 0
103 647 -104 122 0
103 -647 -104 -122 0
103 -647 -660 104 122 0
-104 659 105 0
-104 -659 117 118 0
-104 -659 -117 -118 0
104 659 -105 0
104 -659 117 -118 0
104 -659 -117 118 0
-105 658 106 0
-105 -658 112 113 0
-105 -658 -112 -113 0
105 658 -106 0
105 -658 112 -113 0
105 -658 -112 113 0
-106 657 107 0
-106 -657 108 109 0
-106 -657 -108 -109 0
106 657 -107 0
106 -657 108 -109 0
106 -657 -108 109 0
107 -651 -656 0
-107 651 0
-107 656 0
108 650 -107 0
108 -650 107 0
-108 -650 -107 0
-108 650 107 0
-109 65 110 0
-109 110 111 0
109 -110 0
109 -65 -111 0
-110 656 0
-110 649 0
-110 648 650 0
110 -648 -649 -656 0
110 -649 -650 -656 0
111 -64 -84 0
-111 64 0
-111 84 0
112 -649 106 0
112 649 -106 0
-112 649 106 0
-112 -649 -106 0
-113 68 114 0
-113 114 116 0
113 -114 0
113 -68 -116 0
-114 115 88 0
-114 90 115 0
114 -115 0
114 -90 -88 0
115 -648 -82 0
-115 648 0
-115 82 0
116 -67 -88 0
-116 67 0
-116 88 0
117 -648 105 0
117 648 -105 0
-117 648 105 0
-117 -648 -105 0
-118 60 119 0
-118 119 121 0
118 -119 0
118 -60 -121 0
-119 120 92 0
-119 94 120 0
119 -120 0
119 -94 -92 0
120 -647 -81 0
-120 647 0
-120 81 0
121 -71 -92 0
-121 71 0
-121 92 0
-122 123 124 0
122 -123 0
122 -124 0
123 -646 -80 0
-123 646 0
-123 80 0
124 -79 -125 0
-124 79 0
-124 125 0
125 -646 80 0
125 646 -80 0
-125 646 80 0
-125 -646 -80 0
126 -646 103 0
126 646 -103 0
-126 646 103 0
-126 -646 -103 0
-127 128 0
127 -128 0
-128 129 0
128 -129 0
-129 130 0
129 -130 0
-130 645 131 0
-130 -645 -663 -131 0
-130 663 131 0
130 645 -131 0
130 663 -131 0
130 -645 -663 131 0
-131 662 133 0
-131 646 132 133 0
-131 -646 -132 133 0
-131 646 -662 -132 -133 0
-131 -646 -662 132 -133 0
131 662 -133 0
131 -646 -132 -133 0
131 646 132 -133 0
131 646 -662 -132 133 0
131 -646 -662 132 133 0
132 -645 -101 0
-132 645 0
-132 101 0
-133 661 134 0
-133 -661 156 157 0
-133 -661 -156 -157 0
133 661 -134 0
133 -661 156 -157 0
133 -661 -156 157 0
-134 660 135 0
-134 -660 151 152 0
-134 -660 -151 -152 0
134 660 -135 0
134 -660 151 -152 0
134 -660 -151 152 0
-135 659 136 0
-135 -659 147 148 0
-135 -659 -147 -148 0
135 659 -136 0
135 -659 147 -148 0
135 -659 -147 148 0
-136 658 137 0
-136 -658 143 144 0
-136 -658 -143 -144 0
136 658 -137 0
136 -658 143 -144 0
136 -658 -143 144 0
-137 657 138 0
-137 -657 139 140 0
-137 -657 -139 -140 0
137 657 -138 0
137 -657 139 -140 0
137 -657 -139 140 0
138 -652 -656 0
-138 652 0
-138 656 0
139 651 -138 0
139 -651 138 0
-139 -651 -138 0
-139 651 138 0
-140 141 142 0
140 -141 0
140 -142 0
141 -650 -651 -656 0
-141 650 0
-141 651 0
-141 656 0
142 -108 -109 0
-142 108 0
-142 109 0
143 -650 137 0
143 650 -137 0
-143 650 137 0
-143 -650 -137 0
-144 145 146 0
144 -145 0
144 -146 0
145 -649 -106 0
-145 649 0
-145 106 0
146 -112 -113 0
-146 112 0
-146 113 0
147 -649 136 0
147 649 -136 0
-147 649 136 0
-147 -649 -136 0
-148 149 150 0
148 -149 0
148 -150 0
149 -648 -105 0
-149 648 0
-149 105 0
150 -117 -118 0
-150 117 0
-150 118 0
151 -648 135 0
151 648 -135 0
-151 648 135 0
-151 -648 -135 0
-152 153 154 0
152 -153 0
152 -154 0
153 -647 -104 0
-153 647 0
-153 104 0
154 -155 -122 0
-154 155 0
-154 122 0
155 -647 104 0
155 647 -104 0
-155 647 104 0
-155 -647 -104 0
156 -647 134 0
156 647 -134 0
-156 647 134 0
-156 -647 -134 0
-157 158 159 0
157 -158 0
157 -159 0
158 -646 -103 0
-158 646 0
-158 103 0
159 -102 -126 0
-159 102 0
-159 126 0
-160 161 0
160 -161 0
-161 162 0
161 -162 0
-162 645 163 0
-162 -645 -664 -163 0
-162 664 163 0
162 645 -163 0
162 664 -163 0
162 -645 -664 163 0
-163 663 165 0
-163 -663 -164 -198 0
-163 -663 164 198 0
163 663 -165 0
163 -663 -164 198 0
163 -663 164 -198 0
164 -645 -131 0
-164 645 0
-164 131 0
-165 662 166 0
-165 -647 166 -194 0
-165 647 166 194 0
-165 -647 -662 -166 194 0
-165 647 -662 -166 -194 0
165 662 -166 0
165 647 -662 166 -194 0
165 647 -166 194 0
165 -647 -166 -194 0
165 -647 -662 166 194 0
-166 661 167 0
-166 -648 167 -191 0
-166 648 167 191 0
-166 -648 -661 -167 191 0
-166 648 -661 -167 -191 0
166 661 -167 0
166 648 -661 167 -191 0
166 648 -167 191 0
166 -648 -167 -191 0
166 -648 -661 167 191 0
-167 660 168 0
-167 -649 168 -188 0
-167 649 168 188 0
-167 -649 -660 -168 188 0
-167 649 -660 -168 -188 0
167 660 -168 0
167 649 -660 168 -188 0
167 649 -168 188 0
167 -649 -168 -188 0
167 -649 -660 168 188 0
-168 659 169 0
-168 -650 169 -183 0
-168 650 169 183 0
-168 -650 -659 -169 183 0
-168 650 -659 -169 -183 0
168 659 -169 0
168 650 -659 169 -183 0
168 650 -169 183 0
168 -650 -169 -183 0
168 -650 -659 169 183 0
-169 658 170 0
-169 -658 177 178 0
-169 -658 -177 -178 0
169 658 -170 0
169 -658 177 -178 0
169 -658 -177 178 0
-170 657 171 0
-170 -657 172 173 0
-170 -657 -172 -173 0
170 657 -171 0
170 -657 172 -173 0
170 -657 -172 173 0
171 -653 -656 0
-171 653 0
-171 656 0
172 652 -171 0
172 -652 171 0
-172 -652 -171 0
-172 652 171 0
-173 111 175 0
-173 174 175 0
-173 65 175 0
173 -175 0
173 -65 -111 -174 0
174 -108 -139 0
-174 108 0
-174 139 0
-175 110 176 0
-175 176 174 0
175 -176 0
175 -110 -174 0
-176 656 0
-176 651 0
-176 650 652 0
176 -650 -651 -656 0
176 -651 -652 -656 0
177 -651 170 0
177 651 -170 0
-177 651 170 0
-177 -651 -170 0
-178 116 180 0
-178 179 180 0
-178 68 180 0
178 -180 0
178 -68 -116 -179 0
179 -112 -143 0
-179 112 0
-179 143 0
-180 145 181 182 0
-180 181 143 182 0
180 -182 0
180 -181 0
180 -145 -143 0
181 -650 -137 0
-181 650 0
-181 137 0
182 -114 -179 0
-182 114 0
-182 179 0
-183 121 185 0
-183 60 185 0
-183 184 185 0
183 -185 0
183 -60 -121 -184 0
184 -117 -147 0
-184 117 0
-184 147 0
-185 119 186 187 0
-185 186 187 184 0
185 -187 0
185 -186 0
185 -119 -184 0
186 -649 -136 0
-186 649 0
-186 136 0
187 -149 -147 0
-187 149 0
-187 147 0
-188 155 189 0
-188 122 189 0
-188 151 189 0
188 -189 0
188 -155 -122 -151 0
-189 190 151 0
-189 153 190 0
189 -190 0
189 -153 -151 0
190 -648 -135 0
-190 648 0
-190 135 0
-191 126 192 0
-191 102 192 0
-191 156 192 0
191 -192 0
191 -102 -126 -156 0
-192 193 156 0
-192 158 193 0
192 -193 0
192 -158 -156 0
193 -647 -134 0
-193 647 0
-193 134 0
-194 195 196 0
194 -195 0
194 -196 0
195 -646 -133 0
-195 646 0
-195 133 0
196 -132 -197 0
-196 132 0
-196 197 0
197 -646 133 0
197 646 -133 0
-197 646 133 0
-197 -646 -133 0
198 -646 165 0
198 646 -165 0
-198 646 165 0
-198 -646 -165 0
-199 200 0
199 -200 0
-200 645 201 0
-200 -645 -665 -201 0
-200 665 201 0
200 645 -201 0
200 665 -201 0
200 -645 -665 201 0
-201 664 203 0
-201 646 202 203 0
-201 -646 -202 203 0
-201 646 -664 -202 -203 0
-201 -646 -664 202 -203 0
201 664 -203 0
201 -646 -202 -203 0
201 646 202 -203 0
201 646 -664 -202 203 0
201 -646 -664 202 203 0
202 -645 -163 0
-202 645 0
-202 163 0
-203 663 204 0
-203 -663 239 240 0
-203 -663 -239 -240 0
203 663 -204 0
203 -663 239 -240 0
203 -663 -239 240 0
-204 662 205 0
-204 -662 234 235 0
-204 -662 -234 -235 0
204 662 -205 0
204 -662 234 -235 0
204 -662 -234 235 0
-205 661 206 0
-205 -661 229 230 0
-205 -661 -229 -230 0
205 661 -206 0
205 -661 229 -230 0
205 -661 -229 230 0
-206 660 207 0
-206 -660 224 225 0
-206 -660 -224 -225 0
206 660 -207 0
206 -660 224 -225 0
206 -660 -224 225 0
-207 659 208 0
-207 -659 219 220 0
-207 -659 -219 -220 0
207 659 -208 0
207 -659 219 -220 0
207 -659 -219 220 0
-208 658 209 0
-208 -658 215 216 0
-208 -658 -215 -216 0
208 658 -209 0
208 -658 215 -216 0
208 -658 -215 216 0
-209 657 210 0
-209 -657 211 212 0
-209 -657 -211 -212 0
209 657 -210 0
209 -657 211 -212 0
209 -657 -211 212 0
210 -654 -656 0
-210 654 0
-210 656 0
211 653 -210 0
211 -653 210 0
-211 -653 -210 0
-211 653 210 0
-212 213 214 0
212 -213 0
212 -214 0
213 -652 -653 -656 0
-213 652 0
-213 653 0
-213 656 0
214 -172 -173 0
-214 172 0
-214 173 0
215 -652 209 0
215 652 -209 0
-215 652 209 0
-215 -652 -209 0
-216 217 218 0
216 -217 0
216 -218 0
217 -651 -170 0
-217 651 0
-217 170 0
218 -177 -178 0
-218 177 0
-218 178 0
219 -651 208 0
219 651 -208 0
-219 651 208 0
-219 -651 -208 0
-220 221 222 0
220 -221 0
220 -222 0
221 -650 -169 0
-221 650 0
-221 169 0
222 -223 -183 0
-222 223 0
-222 183 0
223 -650 169 0
223 650 -169 0
-223 650 169 0
-223 -650 -169 0
224 -650 207 0
224 650 -207 0
-224 650 207 0
-224 -650 -207 0
-225 226 227 0
225 -226 0
225 -227 0
226 -649 -168 0
-226 649 0
-226 168 0
227 -228 -188 0
-227 228 0
-227 188 0
228 -649 168 0
228 649 -168 0
-228 649 168 0
-228 -649 -168 0
229 -649 206 0
229 649 -206 0
-229 649 206 0
-229 -649 -206 0
-230 231 232 0
230 -231 0
230 -232 0
231 -648 -167 0
-231 648 0
-231 167 0
232 -233 -191 0
-232 233 0
-232 191 0
233 -648 167 0
233 648 -167 0
-233 648 167 0
-233 -648 -167 0
234 -648 205 0
234 648 -205 0
-234 648 205 0
-234 -648 -205 0
-235 236 237 0
235 -236 0
235 -237 0
236 -647 -166 0
-236 647 0
-236 166 0
237 -238 -194 0
-237 238 0
-237 194 0
238 -647 166 0
238 647 -166 0
-238 647 166 0
-238 -647 -166 0
239 -647 204 0
239 647 -204 0
-239 647 204 0
-239 -647 -204 0
-240 241 242 0
240 -241 0
240 -242 0
241 -646 -165 0
-241 646 0
-241 165 0
242 -164 -198 0
-242 164 0
-242 198 0
-243 645 244 0
-243 -645 -666 -244 0
-243 666 244 0
243 645 -244 0
243 666 -244 0
243 -645 -666 244 0
-244 665 246 0
-244 646 245 246 0
-244 -646 -245 246 0
-244 646 -665 -245 -246 0
-244 -646 -665 245 -246 0
244 665 -246 0
244 -646 -245 -246 0
244 646 245 -246 0
244 646 -665 -245 246 0
244 -646 -665 245 246 0
245 -645 -201 0
-245 645 0
-245 201 0
-246 664 247 0
-246 -647 247 -282 0
-246 647 247 282 0
-246 -647 -664 -247 282 0
-246 647 -664 -247 -282 0
246 664 -247 0
246 647 -664 247 -282 0
246 647 -247 282 0
246 -647 -247 -282 0
246 -647 -664 247 282 0
-247 663 248 0
-247 -648 248 -279 0
-247 648 248 279 0
-247 -648 -663 -248 279 0
-247 648 -663 -248 -279 0
247 663 -248 0
247 648 -663 248 -279 0
247 648 -248 279 0
247 -648 -248 -279 0
247 -648 -663 248 279 0
-248 662 249 0
-248 -649 249 -275 0
-248 649 249 275 0
-248 -649 -662 -249 275 0
-248 649 -662 -249 -275 0
248 662 -249 0
248 649 -662 249 -275 0
248 649 -249 275 0
248 -649 -249 -275 0
248 -649 -662 249 275 0
-249 661 250 0
-249 -650 250 -271 0
-249 650 250 271 0
-249 -650 -661 -250 271 0
-249 650 -661 -250 -271 0
249 661 -250 0
249 650 -661 250 -271 0
249 650 -250 271 0
249 -650 -250 -271 0
249 -650 -661 250 271 0
-250 660 251 0
-250 -651 251 -267 0
-250 651 251 267 0
-250 -651 -660 -251 267 0
-250 651 -660 -251 -267 0
250 660 -251 0
250 651 -660 251 -267 0
250 651 -251 267 0
250 -651 -251 -267 0
250 -651 -660 251 267 0
-251 659 252 0
-251 -652 252 -264 0
-251 652 252 264 0
-251 -652 -659 -252 264 0
-251 652 -659 -252 -264 0
251 659 -252 0
251 652 -659 252 -264 0
251 652 -252 264 0
251 -652 -252 -264 0
251 -652 -659 252 264 0
-252 658 253 0
-252 -658 259 260 0
-252 -658 -259 -260 0
252 658 -253 0
252 -658 259 -260 0
252 -658 -259 260 0
-253 657 254 0
-253 -657 255 256 0
-253 -657 -255 -256 0
253 657 -254 0
253 -657 255 -256 0
253 -657 -255 256 0
254 -655 -656 0
-254 655 0
-254 656 0
255 654 -254 0
255 -654 254 0
-255 -654 -254 0
-255 654 254 0
-256 173 257 0
-256 257 258 0
256 -257 0
256 -173 -258 0
-257 656 0
-257 653 0
-257 652 654 0
257 -652 -653 -656 0
257 -653 -654 -656 0
258 -172 -211 0
-258 172 0
-258 211 0
259 -653 253 0
259 653 -253 0
-259 653 253 0
-259 -653 -253 0
-260 178 261 0
-260 261 263 0
260 -261 0
260 -178 -263 0
-261 262 215 0
-261 217 262 0
261 -262 0
261 -217 -215 0
262 -652 -209 0
-262 652 0
-262 209 0
263 -177 -215 0
-263 177 0
-263 215 0
-264 183 265 0
-264 265 266 0
264 -265 0
264 -183 -266 0
-265 221 208 0
-265 651 221 0
-265 651 208 0
265 -651 -221 0
265 -221 -208 0
265 -651 -208 0
266 -223 -219 0
-266 223 0
-266 219 0
-267 188 268 0
-267 268 270 0
267 -268 0
267 -188 -270 0
-268 269 224 0
-268 226 269 0
268 -269 0
268 -226 -224 0
269 -650 -207 0
-269 650 0
-269 207 0
270 -228 -224 0
-270 228 0
-270 224 0
-271 191 272 0
-271 272 274 0
271 -272 0
271 -191 -274 0
-272 273 229 0
-272 231 273 0
272 -273 0
272 -231 -229 0
273 -649 -206 0
-273 649 0
-273 206 0
274 -233 -229 0
-274 233 0
-274 229 0
-275 194 276 0
-275 276 278 0
275 -276 0
275 -194 -278 0
-276 277 234 0
-276 236 277 0
276 -277 0
276 -236 -234 0
277 -648 -205 0
-277 648 0
-277 205 0
278 -238 -234 0
-278 238 0
-278 234 0
-279 164 280 0
-279 280 281 0
279 -280 0
279 -164 -281 0
-280 241 204 0
-280 647 241 0
-280 647 204 0
280 -647 -241 0
280 -241 -204 0
280 -647 -204 0
281 -198 -239 0
-281 198 0
-281 239 0
-282 283 284 0
282 -283 0
282 -284 0
283 -646 -203 0
-283 646 0
-283 203 0
284 -202 -285 0
-284 202 0
-284 285 0
285 -646 203 0
285 646 -203 0
-285 646 203 0
-285 -646 -203 0
-286 666 288 0
-286 646 287 288 0
-286 -646 -287 288 0
-286 646 -666 -287 -288 0
-286 -646 -666 287 -288 0
286 666 -288 0
286 -646 -287 -288 0
286 646 287 -288 0
286 646 -666 -287 288 0
286 -646 -666 287 288 0
287 -645 -244 0
-287 645 0
-287 244 0
-288 665 289 0
-288 -665 334 335 0
-288 -665 -334 -335 0
288 665 -289 0
288 -665 334 -335 0
288 -665 -334 335 0
-289 664 290 0
-289 -664 329 330 0
-289 -664 -329 -330 0
289 664 -290 0
289 -664 329 -330 0
289 -664 -329 330 0
-290 663 291 0
-290 -663 324 325 0
-290 -663 -324 -325 0
290 663 -291 0
290 -663 324 -325 0
290 -663 -324 325 0
-291 662 292 0
-291 -662 319 320 0
-291 -662 -319 -320 0
291 662 -292 0
291 -662 319 -320 0
291 -662 -319 320 0
-292 661 293 0
-292 -661 314 315 0
-292 -661 -314 -315 0
292 661 -293 0
292 -661 314 -315 0
292 -661 -314 315 0
-293 660 294 0
-293 -660 309 310 0
-293 -660 -309 -310 0
293 660 -294 0
293 -660 309 -310 0
293 -660 -309 310 0
-294 659 295 0
-294 -659 304 305 0
-294 -659 -304 -305 0
294 659 -295 0
294 -659 304 -305 0
294 -659 -304 305 0
-295 658 296 0
-295 -658 300 301 0
-295 -658 -300 -301 0
295 658 -296 0
295 -658 300 -301 0
295 -658 -300 301 0
296 655 -657 -297 0
296 -655 -657 297 0
-296 657 0
-296 -655 -297 0
-296 655 297 0
-297 298 299 0
297 -298 0
297 -299 0
298 -654 -655 -656 0
-298 654 0
-298 655 0
-298 656 0
299 -255 -256 0
-299 255 0
-299 256 0
300 654 -296 0
300 -654 296 0
-300 -654 -296 0
-300 654 296 0
-301 302 303 0
301 -302 0
301 -303 0
302 -653 -253 0
-302 653 0
-302 253 0
303 -259 -260 0
-303 259 0
-303 260 0
304 -653 295 0
304 653 -295 0
-304 653 295 0
-304 -653 -295 0
-305 306 307 0
305 -306 0
305 -307 0
306 -652 -252 0
-306 652 0
-306 252 0
307 -308 -264 0
-307 308 0
-307 264 0
308 -652 252 0
308 652 -252 0
-308 652 252 0
-308 -652 -252 0
309 -652 294 0
309 652 -294 0
-309 652 294 0
-309 -652 -294 0
-310 311 312 0
310 -311 0
310 -312 0
311 -651 -251 0
-311 651 0
-311 251 0
312 -313 -267 0
-312 313 0
-312 267 0
313 -651 251 0
313 651 -251 0
-313 651 251 0
-313 -651 -251 0
314 -651 293 0
314 651 -293 0
-314 651 293 0
-314 -651 -293 0
-315 316 317 0
315 -316 0
315 -317 0
316 -650 -250 0
-316 650 0
-316 250 0
317 -318 -271 0
-317 318 0
-317 271 0
318 -650 250 0
318 650 -250 0
-318 650 250 0
-318 -650 -250 0
319 -650 292 0
319 650 -292 0
-319 650 292 0
-319 -650 -292 0
-320 321 322 0
320 -321 0
320 -322 0
321 -649 -249 0
-321 649 0
-321 249 0
322 -323 -275 0
-322 323 0
-322 275 0
323 -649 249 0
323 649 -249 0
-323 649 249 0
-323 -649 -249 0
324 -649 291 0
324 649 -291 0
-324 649 291 0
-324 -649 -291 0
-325 326 327 0
325 -326 0
325 -327 0
326 -648 -248 0
-326 648 0
-326 248 0
327 -328 -279 0
-327 328 0
-327 279 0
328 -648 248 0
328 648 -248 0
-328 648 248 0
-328 -648 -248 0
329 -648 290 0
329 648 -290 0
-329 648 290 0
-329 -648 -290 0
-330 331 332 0
330 -331 0
330 -332 0
331 -647 -247 0
-331 647 0
-331 247 0
332 -333 -282 0
-332 333 0
-332 282 0
333 -647 247 0
333 647 -247 0
-333 647 247 0
-333 -647 -247 0
334 -647 289 0
334 647 -289 0
-334 647 289 0
-334 -647 -289 0
-335 336 337 0
335 -336 0
335 -337 0
336 -646 -246 0
-336 646 0
-336 246 0
337 -245 -338 0
-337 245 0
-337 338 0
338 -646 246 0
338 646 -246 0
-338 646 246 0
-338 -646 -246 0
-339 666 340 0
-339 -647 340 -389 0
-339 647 340 389 0
-339 -647 -666 -340 389 0
-339 647 -666 -340 -389 0
339 666 -340 0
339 647 -666 340 -389 0
339 647 -340 389 0
339 -647 -340 -389 0
339 -647 -666 340 389 0
-340 665 341 0
-340 -648 341 -387 0
-340 648 341 387 0
-340 -648 -665 -341 387 0
-340 648 -665 -341 -387 0
340 665 -341 0
340 648 -665 341 -387 0
340 648 -341 387 0
340 -648 -341 -387 0
340 -648 -665 341 387 0
-341 664 342 0
-341 -649 342 -385 0
-341 649 342 385 0
-341 -649 -664 -342 385 0
-341 649 -664 -342 -385 0
341 664 -342 0
341 649 -664 342 -385 0
341 649 -342 385 0
341 -649 -342 -385 0
341 -649 -664 342 385 0
-342 663 343 0
-342 -650 343 -379 0
-342 650 343 379 0
-342 -650 -663 -343 379 0
-342 650 -663 -343 -379 0
342 663 -343 0
342 650 -663 343 -379 0
342 650 -343 379 0
342 -650 -343 -379 0
342 -650 -663 343 379 0
-343 662 344 0
-343 -651 344 -373 0
-343 651 344 373 0
-343 -651 -662 -344 373 0
-343 651 -662 -344 -373 0
343 662 -344 0
343 651 -662 344 -373 0
343 651 -344 373 0
343 -651 -344 -373 0
343 -651 -662 344 373 0
-344 661 345 0
-344 -652 345 -367 0
-344 652 345 367 0
-344 -652 -661 -345 367 0
-344 652 -661 -345 -367 0
344 661 -345 0
344 652 -661 345 -367 0
344 652 -345 367 0
344 -652 -345 -367 0
344 -652 -661 345 367 0
-345 660 346 0
-345 -653 346 -362 0
-345 653 346 362 0
-345 -653 -660 -346 362 0
-345 653 -660 -346 -362 0
345 660 -346 0
345 653 -660 346 -362 0
345 653 -346 362 0
345 -653 -346 -362 0
345 -653 -660 346 362 0
-346 659 347 0
-346 -654 347 -357 0
-346 654 347 357 0
-346 -654 -659 -347 357 0
-346 654 -659 -347 -357 0
346 659 -347 0
346 654 -659 347 -357 0
346 654 -347 357 0
346 -654 -347 -357 0
346 -654 -659 347 357 0
-347 658 348 0
-347 655 -658 -348 -352 0
-347 655 348 352 0
-347 -655 348 -352 0
-347 -655 -658 -348 352 0
347 658 -348 0
347 -655 -348 -352 0
347 655 -348 352 0
347 -655 -658 348 352 0
347 655 -658 348 -352 0
348 -657 -349 0
348 -657 -173 -350 0
-348 657 0
-348 173 349 0
-348 349 350 0
-349 654 257 0
-349 656 257 0
-349 655 0
-349 654 656 0
349 -654 -655 -257 0
349 -655 -656 -257 0
349 -654 -655 -656 0
350 -258 -351 0
-350 258 0
-350 351 0
351 -655 -255 0
-351 655 0
-351 255 0
-352 263 354 0
-352 353 354 0
-352 178 354 0
352 -354 0
352 -178 -263 -353 0
353 -259 -300 0
-353 259 0
-353 300 0
-354 302 355 356 0
-354 355 300 356 0
354 -356 0
354 -355 0
354 -302 -300 0
355 -654 -296 0
-355 654 0
-355 296 0
356 -261 -353 0
-356 261 0
-356 353 0
-357 266 359 0
-357 358 359 0
-357 183 359 0
357 -359 0
357 -183 -266 -358 0
358 -308 -304 0
-358 308 0
-358 304 0
-359 265 360 361 0
-359 360 361 358 0
359 -361 0
359 -360 0
359 -265 -358 0
360 -653 -295 0
-360 653 0
-360 295 0
361 -306 -304 0
-361 306 0
-361 304 0
-362 270 364 0
-362 363 364 0
-362 188 364 0
362 -364 0
362 -188 -270 -363 0
363 -313 -309 0
-363 313 0
-363 309 0
-364 311 365 366 0
-364 365 309 366 0
364 -366 0
364 -365 0
364 -311 -309 0
365 -652 -294 0
-365 652 0
-365 294 0
366 -268 -363 0
-366 268 0
-366 363 0
-367 191 368 0
-367 368 372 0
367 -368 0
367 -191 -372 0
-368 272 369 370 0
-368 369 370 371 0
368 -370 0
368 -369 0
368 -272 -371 0
369 -651 -293 0
-369 651 0
-369 293 0
370 -316 -314 0
-370 316 0
-370 314 0
371 -318 -314 0
-371 318 0
-371 314 0
372 -274 -371 0
-372 274 0
-372 371 0
-373 194 374 0
-373 374 378 0
373 -374 0
373 -194 -378 0
-374 276 375 376 0
-374 375 376 377 0
374 -376 0
374 -375 0
374 -276 -377 0
375 -650 -292 0
-375 650 0
-375 292 0
376 -321 -319 0
-376 321 0
-376 319 0
377 -323 -319 0
-377 323 0
-377 319 0
378 -278 -377 0
-378 278 0
-378 377 0
-379 164 380 0
-379 380 384 0
379 -380 0
379 -164 -384 0
-380 326 381 382 0
-380 381 324 382 0
380 -382 0
380 -381 0
380 -326 -324 0
381 -649 -291 0
-381 649 0
-381 291 0
382 -280 -383 0
-382 280 0
-382 383 0
383 -328 -324 0
-383 328 0
-383 324 0
384 -281 -383 0
-384 281 0
-384 383 0
-385 648 331 386 0
-385 331 290 386 0
-385 648 290 386 0
385 -648 -331 0
385 -331 -290 0
385 -386 0
385 -648 -290 0
386 -333 -282 -329 0
-386 333 0
-386 282 0
-386 329 0
-387 647 336 388 0
-387 336 289 388 0
-387 647 289 388 0
387 -647 -336 0
387 -336 -289 0
387 -388 0
387 -647 -289 0
388 -245 -338 -334 0
-388 245 0
-388 338 0
-388 334 0
-389 390 391 0
389 -390 0
389 -391 0
390 -646 -288 0
-390 646 0
-390 288 0
391 -287 -392 0
-391 287 0
-391 392 0
392 -646 288 0
392 646 -288 0
-392 646 288 0
-392 -646 -288 0
-393 666 394 0
-393 -666 440 441 0
-393 -666 -440 -441 0
393 666 -394 0
393 -666 440 -441 0
393 -666 -440 441 0
-394 665 395 0
-394 -665 435 436 0
-394 -665 -435 -436 0
394 665 -395 0
394 -665 435 -436 0
394 -665 -435 436 0
-395 664 396 0
-395 -664 430 431 0
-395 -664 -430 -431 0
395 664 -396 0
395 -664 430 -431 0
395 -664 -430 431 0
-396 663 397 0
-396 -663 425 426 0
-396 -663 -425 -426 0
396 663 -397 0
396 -663 425 -426 0
396 -663 -425 426 0
-397 662 398 0
-397 -662 420 421 0
-397 -662 -420 -421 0
397 662 -398 0
397 -662 420 -421 0
397 -662 -420 421 0
-398 661 399 0
-398 -661 415 416 0
-398 -661 -415 -416 0
398 661 -399 0
398 -661 415 -416 0
398 -661 -415 416 0
-399 660 400 0
-399 -660 410 411 0
-399 -660 -410 -411 0
399 660 -400 0
399 -660 410 -411 0
399 -660 -410 411 0
-400 659 401 0
-400 -659 405 406 0
-400 -659 -405 -406 0
400 659 -401 0
400 -659 405 -406 0
400 -659 -405 406 0
401 -658 -402 0
401 -658 -403 0
-401 658 0
-401 402 403 0
402 -655 -348 0
-402 655 0
-402 348 0
403 -404 -352 0
-403 404 0
-403 352 0
404 655 -348 0
404 -655 348 0
-404 -655 -348 0
-404 655 348 0
405 655 -401 0
405 -655 401 0
-405 -655 -401 0
-405 655 401 0
-406 407 408 0
406 -407 0
406 -408 0
407 -654 -347 0
-407 654 0
-407 347 0
408 -409 -357 0
-408 409 0
-408 357 0
409 -654 347 0
409 654 -347 0
-409 654 347 0
-409 -654 -347 0
410 -654 400 0
410 654 -400 0
-410 654 400 0
-410 -654 -400 0
-411 412 413 0
411 -412 0
411 -413 0
412 -653 -346 0
-412 653 0
-412 346 0
413 -414 -362 0
-413 414 0
-413 362 0
414 -653 346 0
414 653 -346 0
-414 653 346 0
-414 -653 -346 0
415 -653 399 0
415 653 -399 0
-415 653 399 0
-415 -653 -399 0
-416 417 418 0
416 -417 0
416 -418 0
417 -652 -345 0
-417 652 0
-417 345 0
418 -419 -367 0
-418 419 0
-418 367 0
419 -652 345 0
419 652 -345 0
-419 652 345 0
-419 -652 -345 0
420 -652 398 0
420 652 -398 0
-420 652 398 0
-420 -652 -398 0
-421 422 423 0
421 -422 0
421 -423 0
422 -651 -344 0
-422 651 0
-422 344 0
423 -424 -373 0
-423 424 0
-423 373 0
424 -651 344 0
424 651 -344 0
-424 651 344 0
-424 -651 -344 0
425 -651 397 0
425 651 -397 0
-425 651 397 0
-425 -651 -397 0
-426 427 428 0
426 -427 0
426 -428 0
427 -650 -343 0
-427 650 0
-427 343 0
428 -429 -379 0
-428 429 0
-428 379 0
429 -650 343 0
429 650 -343 0
-429 650 343 0
-429 -650 -343 0
430 -650 396 0
430 650 -396 0
-430 650 396 0
-430 -650 -396 0
-431 432 433 0
431 -432 0
431 -433 0
432 -649 -342 0
-432 649 0
-432 342 0
433 -434 -385 0
-433 434 0
-433 385 0
434 -649 342 0
434 649 -342 0
-434 649 342 0
-434 -649 -342 0
435 -649 395 0
435 649 -395 0
-435 649 395 0
-435 -649 -395 0
-436 437 438 0
436 -437 0
436 -438 0
437 -648 -341 0
-437 648 0
-437 341 0
438 -439 -387 0
-438 439 0
-438 387 0
439 -648 341 0
439 648 -341 0
-439 648 341 0
-439 -648 -341 0
440 -648 394 0
440 648 -394 0
-440 648 394 0
-440 -648 -394 0
-441 442 443 0
441 -442 0
441 -443 0
442 -647 -340 0
-442 647 0
-442 340 0
443 -444 -389 0
-443 444 0
-443 389 0
444 -647 340 0
444 647 -340 0
-444 647 340 0
-444 -647 -340 0
-445 666 446 0
-445 -649 446 -479 0
-445 649 446 479 0
-445 -649 -666 -446 479 0
-445 649 -666 -446 -479 0
445 666 -446 0
445 649 -666 446 -479 0
445 649 -446 479 0
445 -649 -446 -479 0
445 -649 -666 446 479 0
-446 665 447 0
-446 -650 447 -475 0
-446 650 447 475 0
-446 -650 -665 -447 475 0
-446 650 -665 -447 -475 0
446 665 -447 0
446 650 -665 447 -475 0
446 650 -447 475 0
446 -650 -447 -475 0
446 -650 -665 447 475 0
-447 664 448 0
-447 -651 448 -471 0
-447 651 448 471 0
-447 -651 -664 -448 471 0
-447 651 -664 -448 -471 0
447 664 -448 0
447 651 -664 448 -471 0
447 651 -448 471 0
447 -651 -448 -471 0
447 -651 -664 448 471 0
-448 663 449 0
-448 -652 449 -467 0
-448 652 449 467 0
-448 -652 -663 -449 467 0
-448 652 -663 -449 -467 0
448 663 -449 0
448 652 -663 449 -467 0
448 652 -449 467 0
448 -652 -449 -467 0
448 -652 -663 449 467 0
-449 662 450 0
-449 -653 450 -463 0
-449 653 450 463 0
-449 -653 -662 -450 463 0
-449 653 -662 -450 -463 0
449 662 -450 0
449 653 -662 450 -463 0
449 653 -450 463 0
449 -653 -450 -463 0
449 -653 -662 450 463 0
-450 661 451 0
-450 -654 451 -459 0
-450 654 451 459 0
-450 -654 -661 -451 459 0
-450 654 -661 -451 -459 0
450 661 -451 0
450 654 -661 451 -459 0
450 654 -451 459 0
450 -654 -451 -459 0
450 -654 -661 451 459 0
-451 660 452 0
-451 655 -660 -452 -456 0
-451 655 452 456 0
-451 -655 452 -456 0
-451 -655 -660 -452 456 0
451 660 -452 0
451 -655 -452 -456 0
451 655 -452 456 0
451 -655 -660 452 456 0
451 655 -660 452 -456 0
452 -659 -453 0
452 -659 -357 -455 0
-452 659 0
-452 357 453 0
-452 453 455 0
-453 454 405 0
-453 407 454 0
453 -454 0
453 -407 -405 0
454 -655 -401 0
-454 655 0
-454 401 0
455 -409 -405 0
-455 409 0
-455 405 0
-456 414 457 0
-456 362 457 0
-456 410 457 0
456 -457 0
456 -414 -362 -410 0
-457 458 410 0
-457 412 458 0
457 -458 0
457 -412 -410 0
458 -654 -400 0
-458 654 0
-458 400 0
-459 367 460 0
-459 460 462 0
459 -460 0
459 -367 -462 0
-460 461 415 0
-460 417 461 0
460 -461 0
460 -417 -415 0
461 -653 -399 0
-461 653 0
-461 399 0
462 -419 -415 0
-462 419 0
-462 415 0
-463 373 464 0
-463 464 466 0
463 -464 0
463 -373 -466 0
-464 465 420 0
-464 422 465 0
464 -465 0
464 -422 -420 0
465 -652 -398 0
-465 652 0
-465 398 0
466 -424 -420 0
-466 424 0
-466 420 0
-467 379 468 0
-467 468 470 0
467 -468 0
467 -379 -470 0
-468 469 425 0
-468 427 469 0
468 -469 0
468 -427 -425 0
469 -651 -397 0
-469 651 0
-469 397 0
470 -429 -425 0
-470 429 0
-470 425 0
-471 385 472 0
-471 472 474 0
471 -472 0
471 -385 -474 0
-472 473 430 0
-472 432 473 0
472 -473 0
472 -432 -430 0
473 -650 -396 0
-473 650 0
-473 396 0
474 -434 -430 0
-474 434 0
-474 430 0
-475 387 476 0
-475 476 478 0
475 -476 0
475 -387 -478 0
-476 477 435 0
-476 437 477 0
476 -477 0
476 -437 -435 0
477 -649 -395 0
-477 649 0
-477 395 0
478 -439 -435 0
-478 439 0
-478 435 0
-479 389 480 0
-479 480 482 0
479 -480 0
479 -389 -482 0
-480 481 440 0
-480 442 481 0
480 -481 0
480 -442 -440 0
481 -648 -394 0
-481 648 0
-481 394 0
482 -444 -440 0
-482 444 0
-482 440 0
-483 666 484 0
-483 -666 518 519 0
-483 -666 -518 -519 0
483 666 -484 0
483 -666 518 -519 0
483 -666 -518 519 0
-484 665 485 0
-484 -665 513 514 0
-484 -665 -513 -514 0
484 665 -485 0
484 -665 513 -514 0
484 -665 -513 514 0
-485 664 486 0
-485 -664 508 509 0
-485 -664 -508 -509 0
485 664 -486 0
485 -664 508 -509 0
485 -664 -508 509 0
-486 663 487 0
-486 -663 503 504 0
-486 -663 -503 -504 0
486 663 -487 0
486 -663 503 -504 0
486 -663 -503 504 0
-487 662 488 0
-487 -662 498 499 0
-487 -662 -498 -499 0
487 662 -488 0
487 -662 498 -499 0
487 -662 -498 499 0
-488 661 489 0
-488 -661 493 494 0
-488 -661 -493 -494 0
488 661 -489 0
488 -661 493 -494 0
488 -661 -493 494 0
489 -660 -490 0
489 -660 -491 0
-489 660 0
-489 490 491 0
490 -655 -452 0
-490 655 0
-490 452 0
491 -492 -456 0
-491 492 0
-491 456 0
492 655 -452 0
492 -655 452 0
-492 -655 -452 0
-492 655 452 0
493 655 -489 0
493 -655 489 0
-493 -655 -489 0
-493 655 489 0
-494 495 496 0
494 -495 0
494 -496 0
495 -654 -451 0
-495 654 0
-495 451 0
496 -497 -459 0
-496 497 0
-496 459 0
497 -654 451 0
497 654 -451 0
-497 654 451 0
-497 -654 -451 0
498 -654 488 0
498 654 -488 0
-498 654 488 0
-498 -654 -488 0
-499 500 501 0
499 -500 0
499 -501 0
500 -653 -450 0
-500 653 0
-500 450 0
501 -502 -463 0
-501 502 0
-501 463 0
502 -653 450 0
502 653 -450 0
-502 653 450 0
-502 -653 -450 0
503 -653 487 0
503 653 -487 0
-503 653 487 0
-503 -653 -487 0
-504 505 506 0
504 -505 0
504 -506 0
505 -652 -449 0
-505 652 0
-505 449 0
506 -507 -467 0
-506 507 0
-506 467 0
507 -652 449 0
507 652 -449 0
-507 652 449 0
-507 -652 -449 0
508 -652 486 0
508 652 -486 0
-508 652 486 0
-508 -652 -486 0
-509 510 511 0
509 -510 0
509 -511 0
510 -651 -448 0
-510 651 0
-510 448 0
511 -512 -471 0
-511 512 0
-511 471 0
512 -651 448 0
512 651 -448 0
-512 651 448 0
-512 -651 -448 0
513 -651 485 0
513 651 -485 0
-513 651 485 0
-513 -651 -485 0
-514 515 516 0
514 -515 0
514 -516 0
515 -650 -447 0
-515 650 0
-515 447 0
516 -517 -475 0
-516 517 0
-516 475 0
517 -650 447 0
517 650 -447 0
-517 650 447 0
-517 -650 -447 0
518 -650 484 0
518 650 -484 0
-518 650 484 0
-518 -650 -484 0
-519 520 521 0
519 -520 0
519 -521 0
520 -649 -446 0
-520 649 0
-520 446 0
521 -522 -479 0
-521 522 0
-521 479 0
522 -649 446 0
522 649 -446 0
-522 649 446 0
-522 -649 -446 0
-523 666 524 0
-523 -651 524 -560 0
-523 651 524 560 0
-523 -651 -666 -524 560 0
-523 651 -666 -524 -560 0
523 666 -524 0
523 651 -666 524 -560 0
523 651 -524 560 0
523 -651 -524 -560 0
523 -651 -666 524 560 0
-524 665 525 0
-524 -652 525 -555 0
-524 652 525 555 0
-524 -652 -665 -525 555 0
-524 652 -665 -525 -555 0
524 665 -525 0
524 652 -665 525 -555 0
524 652 -525 555 0
524 -652 -525 -555 0
524 -652 -665 525 555 0
-525 664 526 0
-525 -653 526 -550 0
-525 653 526 550 0
-525 -653 -664 -526 550 0
-525 653 -664 -526 -550 0
525 664 -526 0
525 653 -664 526 -550 0
525 653 -526 550 0
525 -653 -526 -550 0
525 -653 -664 526 550 0
-526 663 527 0
-526 -654 527 -543 0
-526 654 527 543 0
-526 -654 -663 -527 543 0
-526 654 -663 -527 -543 0
526 663 -527 0
526 654 -663 527 -543 0
526 654 -527 543 0
526 -654 -527 -543 0
526 -654 -663 527 543 0
-527 662 528 0
-527 655 -662 -528 -536 0
-527 655 528 536 0
-527 -655 528 -536 0
-527 -655 -662 -528 536 0
527 662 -528 0
527 -655 -528 -536 0
527 655 -528 536 0
527 -655 -662 528 536 0
527 655 -662 528 -536 0
528 -661 -529 0
528 -661 -191 -535 0
-528 661 0
-528 191 529 0
-528 529 535 0
-529 368 530 0
-529 530 534 0
529 -530 0
529 -368 -534 0
-530 460 531 532 0
-530 531 532 533 0
530 -532 0
530 -531 0
530 -460 -533 0
531 -655 -489 0
-531 655 0
-531 489 0
532 -495 -493 0
-532 495 0
-532 493 0
533 -497 -493 0
-533 497 0
-533 493 0
534 -462 -533 0
-534 462 0
-534 533 0
535 -372 -534 0
-535 372 0
-535 534 0
-536 378 539 0
-536 537 539 0
-536 194 539 0
536 -539 0
536 -194 -378 -537 0
537 -466 -538 0
-537 466 0
-537 538 0
538 -502 -498 0
-538 502 0
-538 498 0
-539 374 540 542 0
-539 540 542 537 0
539 -540 0
539 -542 0
539 -374 -537 0
-540 541 498 0
-540 500 541 0
540 -541 0
540 -500 -498 0
541 -654 -488 0
-541 654 0
-541 488 0
542 -464 -538 0
-542 464 0
-542 538 0
-543 384 546 0
-543 164 546 0
-543 544 546 0
543 -546 0
543 -164 -384 -544 0
544 -470 -545 0
-544 470 0
-544 545 0
545 -507 -503 0
-545 507 0
-545 503 0
-546 380 547 549 0
-546 547 549 544 0
546 -547 0
546 -549 0
546 -380 -544 0
-547 548 503 0
-547 505 548 0
547 -548 0
547 -505 -503 0
548 -653 -487 0
-548 653 0
-548 487 0
549 -468 -545 0
-549 468 0
-549 545 0
-550 474 552 0
-550 551 552 0
-550 385 552 0
550 -552 0
550 -385 -474 -551 0
551 -512 -508 0
-551 512 0
-551 508 0
-552 472 553 554 0
-552 553 554 551 0
552 -554 0
552 -553 0
552 -472 -551 0
553 -652 -486 0
-553 652 0
-553 486 0
554 -510 -508 0
-554 510 0
-554 508 0
-555 478 557 0
-555 556 557 0
-555 387 557 0
555 -557 0
555 -387 -478 -556 0
556 -517 -513 0
-556 517 0
-556 513 0
-557 476 558 559 0
-557 558 559 556 0
557 -559 0
557 -558 0
557 -476 -556 0
558 -651 -485 0
-558 651 0
-558 485 0
559 -515 -513 0
-559 515 0
-559 513 0
-560 482 562 0
-560 561 562 0
-560 389 562 0
560 -562 0
560 -389 -482 -561 0
561 -522 -518 0
-561 522 0
-561 518 0
-562 480 563 564 0
-562 563 564 561 0
562 -564 0
562 -563 0
562 -480 -561 0
563 -650 -484 0
-563 650 0
-563 484 0
564 -520 -518 0
-564 520 0
-564 518 0
-565 666 566 0
-565 -666 585 586 0
-565 -666 -585 -586 0
565 666 -566 0
565 -666 585 -586 0
565 -666 -585 586 0
-566 665 567 0
-566 -653 567 -581 0
-566 653 567 581 0
-566 -653 -665 -567 581 0
-566 653 -665 -567 -581 0
566 665 -567 0
566 653 -665 567 -581 0
566 653 -567 581 0
566 -653 -567 -581 0
566 -653 -665 567 581 0
-567 664 568 0
-567 -654 568 -577 0
-567 654 568 577 0
-567 -654 -664 -568 577 0
-567 654 -664 -568 -577 0
567 664 -568 0
567 654 -664 568 -577 0
567 654 -568 577 0
567 -654 -568 -577 0
567 -654 -664 568 577 0
-568 663 569 0
-568 655 -663 -569 -573 0
-568 655 569 573 0
-568 -655 569 -573 0
-568 -655 -663 -569 573 0
568 663 -569 0
568 -655 -569 -573 0
568 655 -569 573 0
568 -655 -663 569 573 0
568 655 -663 569 -573 0
569 -662 -570 0
569 -662 -571 0
-569 662 0
-569 570 571 0
570 -655 -528 0
-570 655 0
-570 528 0
571 -572 -536 0
-571 572 0
-571 536 0
572 655 -528 0
572 -655 528 0
-572 -655 -528 0
-572 655 528 0
-573 574 575 0
573 -574 0
573 -575 0
574 -654 -527 0
-574 654 0
-574 527 0
575 -576 -543 0
-575 576 0
-575 543 0
576 -654 527 0
576 654 -527 0
-576 654 527 0
-576 -654 -527 0
-577 578 579 0
577 -578 0
577 -579 0
578 -653 -526 0
-578 653 0
-578 526 0
579 -580 -550 0
-579 580 0
-579 550 0
580 -653 526 0
580 653 -526 0
-580 653 526 0
-580 -653 -526 0
-581 582 583 0
581 -582 0
581 -583 0
582 -652 -525 0
-582 652 0
-582 525 0
583 -584 -555 0
-583 584 0
-583 555 0
584 -652 525 0
584 652 -525 0
-584 652 525 0
-584 -652 -525 0
585 -652 566 0
585 652 -566 0
-585 652 566 0
-585 -652 -566 0
-586 587 588 0
586 -587 0
586 -588 0
587 -651 -524 0
-587 651 0
-587 524 0
588 -589 -560 0
-588 589 0
-588 560 0
589 -651 524 0
589 651 -524 0
-589 651 524 0
-589 -651 -524 0
-590 666 591 0
-590 -653 591 -609 0
-590 653 591 609 0
-590 -653 -666 -591 609 0
-590 653 -666 -591 -609 0
590 666 -591 0
590 653 -666 591 -609 0
590 653 -591 609 0
590 -653 -591 -609 0
590 -653 -666 591 609 0
-591 665 592 0
-591 -654 592 -603 0
-591 654 592 603 0
-591 -654 -665 -592 603 0
-591 654 -665 -592 -603 0
591 665 -592 0
591 654 -665 592 -603 0
591 654 -592 603 0
591 -654 -592 -603 0
591 -654 -665 592 603 0
-592 664 593 0
-592 655 -664 -593 -598 0
-592 655 593 598 0
-592 -655 593 -598 0
-592 -655 -664 -593 598 0
592 664 -593 0
592 -655 -593 -598 0
592 655 -593 598 0
592 -655 -664 593 598 0
592 655 -664 593 -598 0
593 -663 -594 0
593 -663 -543 -597 0
-593 663 0
-593 543 594 0
-593 594 597 0
-594 595 596 0
-594 574 595 0
594 -595 0
594 -574 -596 0
595 -655 -569 0
-595 655 0
-595 569 0
596 655 -569 0
596 -655 569 0
-596 -655 -569 0
-596 655 569 0
597 -576 -596 0
-597 576 0
-597 596 0
-598 580 600 0
-598 550 600 0
-598 599 600 0
598 -600 0
598 -580 -550 -599 0
599 -654 568 0
599 654 -568 0
-599 654 568 0
-599 -654 -568 0
-600 601 602 0
600 -601 0
600 -602 0
601 -654 -568 0
-601 654 0
-601 568 0
602 -578 -599 0
-602 578 0
-602 599 0
-603 555 604 0
-603 604 608 0
603 -604 0
603 -555 -608 0
-604 605 606 0
604 -605 0
604 -606 0
605 -653 -567 0
-605 653 0
-605 567 0
606 -582 -607 0
-606 582 0
-606 607 0
607 -653 567 0
607 653 -567 0
-607 653 567 0
-607 -653 -567 0
608 -584 -607 0
-608 584 0
-608 607 0
-609 560 610 0
-609 610 612 0
609 -610 0
609 -560 -612 0
-610 611 585 0
-610 587 611 0
610 -611 0
610 -587 -585 0
611 -652 -566 0
-611 652 0
-611 566 0
612 -589 -585 0
-612 589 0
-612 585 0
-613 666 614 0
-613 -654 614 -623 0
-613 654 614 623 0
-613 -654 -666 -614 623 0
-613 654 -666 -614 -623 0
613 666 -614 0
613 654 -666 614 -623 0
613 654 -614 623 0
613 -654 -614 -623 0
613 -654 -666 614 623 0
-614 665 615 0
-614 655 -665 -615 -619 0
-614 655 615 619 0
-614 -655 615 -619 0
-614 -655 -665 -615 619 0
614 665 -615 0
614 -655 -615 -619 0
614 655 -615 619 0
614 -655 -665 615 619 0
614 655 -665 615 -619 0
615 -664 -616 0
615 -664 -617 0
-615 664 0
-615 616 617 0
616 -655 -593 0
-616 655 0
-616 593 0
617 -618 -598 0
-617 618 0
-617 598 0
618 655 -593 0
618 -655 593 0
-618 -655 -593 0
-618 655 593 0
-619 620 621 0
619 -620 0
619 -621 0
620 -654 -592 0
-620 654 0
-620 592 0
621 -622 -603 0
-621 622 0
-621 603 0
622 -654 592 0
622 654 -592 0
-622 654 592 0
-622 -654 -592 0
-623 624 625 0
623 -624 0
623 -625 0
624 -653 -591 0
-624 653 0
-624 591 0
625 -626 -609 0
-625 626 0
-625 609 0
626 -653 591 0
626 653 -591 0
-626 653 591 0
-626 -653 -591 0
-627 666 628 0
-627 655 -666 -628 -635 0
-627 655 628 635 0
-627 -655 628 -635 0
-627 -655 -666 -628 635 0
627 666 -628 0
627 -655 -628 -635 0
627 655 -628 635 0
627 -655 -666 628 635 0
627 655 -666 628 -635 0
628 -665 -629 0
628 -665 -555 -634 0
-628 665 0
-628 555 629 0
-628 629 634 0
-629 620 630 632 0
-629 630 631 632 0
629 -632 0
629 -630 0
629 -620 -631 0
630 -655 -615 0
-630 655 0
-630 615 0
631 655 -615 0
631 -655 615 0
-631 -655 -615 0
-631 655 615 0
632 -604 -633 0
-632 604 0
-632 633 0
633 -622 -631 0
-633 622 0
-633 631 0
634 -608 -633 0
-634 608 0
-634 633 0
-635 612 638 0
-635 636 638 0
-635 560 638 0
635 -638 0
635 -560 -612 -636 0
636 -626 -637 0
-636 626 0
-636 637 0
637 -654 614 0
637 654 -614 0
-637 654 614 0
-637 -654 -614 0
-638 624 639 640 0
-638 639 637 640 0
638 -640 0
638 -639 0
638 -624 -637 0
639 -654 -614 0
-639 654 0
-639 614 0
640 -610 -636 0
-640 610 0
-640 636 0
641 -666 -642 0
641 -666 -643 0
-641 666 0
-641 642 643 0
642 -655 -628 0
-642 655 0
-642 628 0
643 -644 -635 0
-643 644 0
-643 635 0
644 655 -628 0
644 -655 628 0
-644 -655 -628 0
-644 655 628 0
-667 0
2 0
13 0
24 0
37 0
52 0
72 0
96 0
127 0
160 0
199 0
243 0
286 0
339 0
393 0
445 0
483 0
523 0
565 0
590 0
613 0
627 0
641 0

