c Result of efficient AIG-to-CNF conversion using package CNF
p cnf 67 234
-2 3 0
2 -3 0
-3 4 0
3 -4 0
-4 5 0
4 -5 0
5 -59 -63 0
-5 59 0
-5 63 0
-6 7 0
6 -7 0
-7 8 0
7 -8 0
-8 59 9 0
-8 64 9 0
-8 -59 -64 -9 0
8 59 -9 0
8 -59 -64 9 0
8 64 -9 0
9 -60 -63 0
-9 60 0
-9 63 0
-10 11 0
10 -11 0
-11 59 12 0
-11 -59 -65 -12 0
-11 65 12 0
11 59 -12 0
11 65 -12 0
11 -59 -65 12 0
-12 64 14 0
-12 -64 -13 -15 0
-12 -64 13 15 0
12 64 -14 0
12 -64 -13 15 0
12 -64 13 -15 0
13 -59 -60 -63 0
-13 59 0
-13 60 0
-13 63 0
14 -61 -63 0
-14 61 0
-14 63 0
15 60 -14 0
15 -60 14 0
-15 -60 -14 0
-15 60 14 0
-16 59 17 0
-16 -59 -66 -17 0
-16 66 17 0
16 59 -17 0
16 66 -17 0
16 -59 -66 17 0
-17 65 19 0
-17 -65 -18 -23 0
-17 -65 18 23 0
17 65 -19 0
17 -65 -18 23 0
17 -65 18 -23 0
18 -59 -12 0
-18 59 0
-18 12 0
-19 64 20 0
-19 -64 21 22 0
-19 -64 -21 -22 0
19 64 -20 0
19 -64 21 -22 0
19 -64 -21 22 0
20 -62 -63 0
-20 62 0
-20 63 0
21 61 -20 0
21 -61 20 0
-21 -61 -20 0
-21 61 20 0
-22 63 0
-22 60 0
-22 59 61 0
22 -59 -60 -63 0
22 -60 -61 -63 0
23 -60 19 0
23 60 -19 0
-23 60 19 0
-23 -60 -19 0
-24 66 26 0
-24 -66 -25 -34 0
-24 -66 25 34 0
24 66 -26 0
24 -66 -25 34 0
24 -66 25 -34 0
25 -59 -17 0
-25 59 0
-25 17 0
-26 65 27 0
-26 -65 30 31 0
-26 -65 -30 -31 0
26 65 -27 0
26 -65 30 -31 0
26 -65 -30 31 0
27 62 -64 -28 0
27 -62 -64 28 0
-27 64 0
-27 -62 -28 0
-27 62 28 0
-28 15 29 0
-28 13 29 0
-28 21 29 0
28 -29 0
28 -13 -15 -21 0
-29 63 0
-29 61 0
-29 60 62 0
29 -60 -61 -63 0
29 -61 -62 -63 0
30 61 -27 0
30 -61 27 0
-30 -61 -27 0
-30 61 27 0
-31 32 33 0
31 -32 0
31 -33 0
32 -60 -19 0
-32 60 0
-32 19 0
33 -18 -23 0
-33 18 0
-33 23 0
34 -60 26 0
34 60 -26 0
-34 60 26 0
-34 -60 -26 0
-35 66 36 0
-35 -66 43 44 0
-35 -66 -43 -44 0
35 66 -36 0
35 -66 43 -44 0
35 -66 -43 44 0
-36 65 37 0
-36 -65 39 40 0
-36 -65 -39 -40 0
36 65 -37 0
36 -65 39 -40 0
36 -65 -39 40 0
37 -64 -38 0
-37 64 0
-37 38 0
38 -62 -28 0
-38 62 0
-38 28 0
39 -62 37 0
-39 62 0
-39 -37 0
-40 41 42 0
40 -41 0
40 -42 0
41 -61 -27 0
-41 61 0
-41 27 0
42 -30 -31 0
-42 30 0
-42 31 0
43 -61 36 0
43 61 -36 0
-43 61 36 0
-43 -61 -36 0
-44 45 46 0
44 -45 0
44 -46 0
45 -60 -26 0
-45 60 0
-45 26 0
46 -25 -34 0
-46 25 0
-46 34 0
-47 66 48 0
-47 62 -66 -48 -52 0
-47 62 48 52 0
-47 -62 48 -52 0
-47 -62 -66 -48 52 0
47 66 -48 0
47 -62 -48 -52 0
47 62 -48 52 0
47 -62 -66 48 52 0
47 62 -66 48 -52 0
48 -65 -49 0
48 -65 -51 0
48 -65 -50 0
-48 65 0
-48 49 50 51 0
49 -62 -37 0
-49 62 0
-49 37 0
50 -41 -39 0
-50 41 0
-50 39 0
51 -30 -31 -39 0
-51 30 0
-51 31 0
-51 39 0
-52 34 53 0
-52 25 53 0
-52 43 53 0
52 -53 0
52 -25 -34 -43 0
-53 54 43 0
-53 45 54 0
53 -54 0
53 -45 -43 0
54 -61 -36 0
-54 61 0
-54 36 0
55 -66 -56 0
55 -66 -57 0
-55 66 0
-55 56 57 0
56 -62 -48 0
-56 62 0
-56 48 0
57 -58 -52 0
-57 58 0
-57 52 0
58 62 -48 0
58 -62 48 0
-58 -62 -48 0
-58 62 48 0
-67 0
2 0
6 0
10 0
16 0
24 0
35 0
47 0
55 0

