c DIMACS CNF format
c Converted from AIG using Tseitin encoding
p cnf 4252 12673
26 14 29 0
-26 -29 0
-14 -29 0
27 13 30 0
-27 -30 0
-13 -30 0
28 12 31 0
-28 -31 0
-12 -31 0
-31 -30 32 0
31 -32 0
30 -32 0
31 30 33 0
-31 -33 0
-30 -33 0
-33 -32 34 0
33 -34 0
32 -34 0
34 29 35 0
-34 -35 0
-29 -35 0
-35 -33 36 0
35 -36 0
33 -36 0
27 14 37 0
-27 -37 0
-14 -37 0
28 13 38 0
-28 -38 0
-13 -38 0
-38 -37 39 0
38 -39 0
37 -39 0
38 37 40 0
-38 -40 0
-37 -40 0
-40 -39 41 0
40 -41 0
39 -41 0
-41 36 42 0
41 -42 0
-36 -42 0
41 -36 43 0
-41 -43 0
36 -43 0
-43 -42 44 0
43 -44 0
42 -44 0
26 13 45 0
-26 -45 0
-13 -45 0
27 12 46 0
-27 -46 0
-12 -46 0
28 11 47 0
-28 -47 0
-11 -47 0
-47 -46 48 0
47 -48 0
46 -48 0
47 46 49 0
-47 -49 0
-46 -49 0
-49 -48 50 0
49 -50 0
48 -50 0
50 45 51 0
-50 -51 0
-45 -51 0
-51 -49 52 0
51 -52 0
49 -52 0
-34 -29 53 0
34 -53 0
29 -53 0
-53 -35 54 0
53 -54 0
35 -54 0
54 -52 55 0
-54 -55 0
52 -55 0
-55 -44 56 0
55 -56 0
44 -56 0
55 44 57 0
-55 -57 0
-44 -57 0
-57 -56 58 0
57 -58 0
56 -58 0
25 14 59 0
-25 -59 0
-14 -59 0
26 12 60 0
-26 -60 0
-12 -60 0
27 11 61 0
-27 -61 0
-11 -61 0
28 10 62 0
-28 -62 0
-10 -62 0
-62 -61 63 0
62 -63 0
61 -63 0
62 61 64 0
-62 -64 0
-61 -64 0
-64 -63 65 0
64 -65 0
63 -65 0
65 60 66 0
-65 -66 0
-60 -66 0
-66 -64 67 0
66 -67 0
64 -67 0
-50 -45 68 0
50 -68 0
45 -68 0
-68 -51 69 0
68 -69 0
51 -69 0
-69 67 70 0
69 -70 0
-67 -70 0
69 -67 71 0
-69 -71 0
67 -71 0
-71 -70 72 0
71 -72 0
70 -72 0
72 59 73 0
-72 -73 0
-59 -73 0
-73 -71 74 0
73 -74 0
71 -74 0
-54 52 75 0
54 -75 0
-52 -75 0
-75 -55 76 0
75 -76 0
55 -76 0
76 -74 77 0
-76 -77 0
74 -77 0
-77 -58 78 0
77 -78 0
58 -78 0
77 58 79 0
-77 -79 0
-58 -79 0
-79 -78 80 0
79 -80 0
78 -80 0
24 14 81 0
-24 -81 0
-14 -81 0
25 13 82 0
-25 -82 0
-13 -82 0
-82 -81 83 0
82 -83 0
81 -83 0
82 81 84 0
-82 -84 0
-81 -84 0
-84 -83 85 0
84 -85 0
83 -85 0
26 11 86 0
-26 -86 0
-11 -86 0
27 10 87 0
-27 -87 0
-10 -87 0
28 9 88 0
-28 -88 0
-9 -88 0
-88 -87 89 0
88 -89 0
87 -89 0
88 87 90 0
-88 -90 0
-87 -90 0
-90 -89 91 0
90 -91 0
89 -91 0
91 86 92 0
-91 -92 0
-86 -92 0
-92 -90 93 0
92 -93 0
90 -93 0
-65 -60 94 0
65 -94 0
60 -94 0
-94 -66 95 0
94 -95 0
66 -95 0
-95 93 96 0
95 -96 0
-93 -96 0
95 -93 97 0
-95 -97 0
93 -97 0
-97 -96 98 0
97 -98 0
96 -98 0
98 85 99 0
-98 -99 0
-85 -99 0
-99 -97 100 0
99 -100 0
97 -100 0
-72 -59 101 0
72 -101 0
59 -101 0
-101 -73 102 0
101 -102 0
73 -102 0
-102 100 103 0
102 -103 0
-100 -103 0
102 -100 104 0
-102 -104 0
100 -104 0
-104 -103 105 0
104 -105 0
103 -105 0
105 84 106 0
-105 -106 0
-84 -106 0
-106 -104 107 0
106 -107 0
104 -107 0
-76 74 108 0
76 -108 0
-74 -108 0
-108 -77 109 0
108 -109 0
77 -109 0
109 -107 110 0
-109 -110 0
107 -110 0
-110 -80 111 0
110 -111 0
80 -111 0
110 80 112 0
-110 -112 0
-80 -112 0
-112 -111 113 0
112 -113 0
111 -113 0
-109 107 114 0
109 -114 0
-107 -114 0
-114 -110 115 0
114 -115 0
110 -115 0
23 14 116 0
-23 -116 0
-14 -116 0
24 13 117 0
-24 -117 0
-13 -117 0
25 12 118 0
-25 -118 0
-12 -118 0
-118 -117 119 0
118 -119 0
117 -119 0
118 117 120 0
-118 -120 0
-117 -120 0
-120 -119 121 0
120 -121 0
119 -121 0
121 116 122 0
-121 -122 0
-116 -122 0
-122 -120 123 0
122 -123 0
120 -123 0
-121 -116 124 0
121 -124 0
116 -124 0
-124 -122 125 0
124 -125 0
122 -125 0
26 10 126 0
-26 -126 0
-10 -126 0
27 9 127 0
-27 -127 0
-9 -127 0
28 8 128 0
-28 -128 0
-8 -128 0
-128 -127 129 0
128 -129 0
127 -129 0
128 127 130 0
-128 -130 0
-127 -130 0
-130 -129 131 0
130 -131 0
129 -131 0
131 126 132 0
-131 -132 0
-126 -132 0
-132 -130 133 0
132 -133 0
130 -133 0
-91 -86 134 0
91 -134 0
86 -134 0
-134 -92 135 0
134 -135 0
92 -135 0
-135 133 136 0
135 -136 0
-133 -136 0
135 -133 137 0
-135 -137 0
133 -137 0
-137 -136 138 0
137 -138 0
136 -138 0
138 125 139 0
-138 -139 0
-125 -139 0
-139 -137 140 0
139 -140 0
137 -140 0
-98 -85 141 0
98 -141 0
85 -141 0
-141 -99 142 0
141 -142 0
99 -142 0
-142 140 143 0
142 -143 0
-140 -143 0
142 -140 144 0
-142 -144 0
140 -144 0
-144 -143 145 0
144 -145 0
143 -145 0
145 -123 146 0
-145 -146 0
123 -146 0
-146 -144 147 0
146 -147 0
144 -147 0
-105 -84 148 0
105 -148 0
84 -148 0
-148 -106 149 0
148 -149 0
106 -149 0
149 -147 150 0
-149 -150 0
147 -150 0
150 115 151 0
-150 -151 0
-115 -151 0
-151 -113 152 0
151 -152 0
113 -152 0
151 113 153 0
-151 -153 0
-113 -153 0
-153 -152 154 0
153 -154 0
152 -154 0
-150 -115 155 0
150 -155 0
115 -155 0
-155 -151 156 0
155 -156 0
151 -156 0
-149 147 157 0
149 -157 0
-147 -157 0
-157 -150 158 0
157 -158 0
150 -158 0
23 13 159 0
-23 -159 0
-13 -159 0
24 12 160 0
-24 -160 0
-12 -160 0
25 11 161 0
-25 -161 0
-11 -161 0
-161 -160 162 0
161 -162 0
160 -162 0
161 160 163 0
-161 -163 0
-160 -163 0
-163 -162 164 0
163 -164 0
162 -164 0
164 159 165 0
-164 -165 0
-159 -165 0
-165 -163 166 0
165 -166 0
163 -166 0
-164 -159 167 0
164 -167 0
159 -167 0
-167 -165 168 0
167 -168 0
165 -168 0
26 9 169 0
-26 -169 0
-9 -169 0
27 8 170 0
-27 -170 0
-8 -170 0
28 7 171 0
-28 -171 0
-7 -171 0
-171 -170 172 0
171 -172 0
170 -172 0
171 170 173 0
-171 -173 0
-170 -173 0
-173 -172 174 0
173 -174 0
172 -174 0
174 169 175 0
-174 -175 0
-169 -175 0
-175 -173 176 0
175 -176 0
173 -176 0
-131 -126 177 0
131 -177 0
126 -177 0
-177 -132 178 0
177 -178 0
132 -178 0
-178 176 179 0
178 -179 0
-176 -179 0
178 -176 180 0
-178 -180 0
176 -180 0
-180 -179 181 0
180 -181 0
179 -181 0
181 168 182 0
-181 -182 0
-168 -182 0
-182 -180 183 0
182 -183 0
180 -183 0
-138 -125 184 0
138 -184 0
125 -184 0
-184 -139 185 0
184 -185 0
139 -185 0
-185 183 186 0
185 -186 0
-183 -186 0
185 -183 187 0
-185 -187 0
183 -187 0
-187 -186 188 0
187 -188 0
186 -188 0
188 -166 189 0
-188 -189 0
166 -189 0
-189 -187 190 0
189 -190 0
187 -190 0
-145 123 191 0
145 -191 0
-123 -191 0
-191 -146 192 0
191 -192 0
146 -192 0
192 -190 193 0
-192 -193 0
190 -193 0
193 158 194 0
-193 -194 0
-158 -194 0
194 156 195 0
-194 -195 0
-156 -195 0
-195 -154 196 0
195 -196 0
154 -196 0
195 154 197 0
-195 -197 0
-154 -197 0
-197 -196 198 0
197 -198 0
196 -198 0
-194 -156 199 0
194 -199 0
156 -199 0
-199 -195 200 0
199 -200 0
195 -200 0
-193 -158 201 0
193 -201 0
158 -201 0
-201 -194 202 0
201 -202 0
194 -202 0
22 14 203 0
-22 -203 0
-14 -203 0
23 12 204 0
-23 -204 0
-12 -204 0
24 11 205 0
-24 -205 0
-11 -205 0
25 10 206 0
-25 -206 0
-10 -206 0
-206 -205 207 0
206 -207 0
205 -207 0
206 205 208 0
-206 -208 0
-205 -208 0
-208 -207 209 0
208 -209 0
207 -209 0
209 204 210 0
-209 -210 0
-204 -210 0
-210 -208 211 0
210 -211 0
208 -211 0
211 -203 212 0
-211 -212 0
203 -212 0
-211 203 213 0
211 -213 0
-203 -213 0
-213 -212 214 0
213 -214 0
212 -214 0
21 14 215 0
-21 -215 0
-14 -215 0
22 13 216 0
-22 -216 0
-13 -216 0
216 215 217 0
-216 -217 0
-215 -217 0
217 214 218 0
-217 -218 0
-214 -218 0
-218 -213 219 0
218 -219 0
213 -219 0
-217 -214 220 0
217 -220 0
214 -220 0
-220 -218 221 0
220 -221 0
218 -221 0
-209 -204 222 0
209 -222 0
204 -222 0
-222 -210 223 0
222 -223 0
210 -223 0
26 8 224 0
-26 -224 0
-8 -224 0
27 7 225 0
-27 -225 0
-7 -225 0
28 6 226 0
-28 -226 0
-6 -226 0
-226 -225 227 0
226 -227 0
225 -227 0
226 225 228 0
-226 -228 0
-225 -228 0
-228 -227 229 0
228 -229 0
227 -229 0
229 224 230 0
-229 -230 0
-224 -230 0
-230 -228 231 0
230 -231 0
228 -231 0
-174 -169 232 0
174 -232 0
169 -232 0
-232 -175 233 0
232 -233 0
175 -233 0
-233 231 234 0
233 -234 0
-231 -234 0
233 -231 235 0
-233 -235 0
231 -235 0
-235 -234 236 0
235 -236 0
234 -236 0
236 223 237 0
-236 -237 0
-223 -237 0
-237 -235 238 0
237 -238 0
235 -238 0
-181 -168 239 0
181 -239 0
168 -239 0
-239 -182 240 0
239 -240 0
182 -240 0
-240 238 241 0
240 -241 0
-238 -241 0
240 -238 242 0
-240 -242 0
238 -242 0
-242 -241 243 0
242 -243 0
241 -243 0
243 221 244 0
-243 -244 0
-221 -244 0
-244 -242 245 0
244 -245 0
242 -245 0
-188 166 246 0
188 -246 0
-166 -246 0
-246 -189 247 0
246 -247 0
189 -247 0
-247 245 248 0
247 -248 0
-245 -248 0
247 -245 249 0
-247 -249 0
245 -249 0
-249 -248 250 0
249 -250 0
248 -250 0
250 -219 251 0
-250 -251 0
219 -251 0
-251 -249 252 0
251 -252 0
249 -252 0
-192 190 253 0
192 -253 0
-190 -253 0
-253 -193 254 0
253 -254 0
193 -254 0
254 -252 255 0
-254 -255 0
252 -255 0
255 202 256 0
-255 -256 0
-202 -256 0
-256 -200 257 0
256 -257 0
200 -257 0
256 200 258 0
-256 -258 0
-200 -258 0
-258 -257 259 0
258 -259 0
257 -259 0
259 198 260 0
-259 -260 0
-198 -260 0
-255 -202 261 0
255 -261 0
202 -261 0
-261 -256 262 0
261 -262 0
256 -262 0
-254 252 263 0
254 -263 0
-252 -263 0
-263 -255 264 0
263 -264 0
255 -264 0
20 14 265 0
-20 -265 0
-14 -265 0
21 13 266 0
-21 -266 0
-13 -266 0
22 12 267 0
-22 -267 0
-12 -267 0
-267 -266 268 0
267 -268 0
266 -268 0
267 266 269 0
-267 -269 0
-266 -269 0
-269 -268 270 0
269 -270 0
268 -270 0
270 265 271 0
-270 -271 0
-265 -271 0
-271 -269 272 0
271 -272 0
269 -272 0
-216 -215 273 0
216 -273 0
215 -273 0
-273 -217 274 0
273 -274 0
217 -274 0
23 11 275 0
-23 -275 0
-11 -275 0
24 10 276 0
-24 -276 0
-10 -276 0
25 9 277 0
-25 -277 0
-9 -277 0
-277 -276 278 0
277 -278 0
276 -278 0
277 276 279 0
-277 -279 0
-276 -279 0
-279 -278 280 0
279 -280 0
278 -280 0
280 275 281 0
-280 -281 0
-275 -281 0
-281 -279 282 0
281 -282 0
279 -282 0
282 -274 283 0
-282 -283 0
274 -283 0
-282 274 284 0
282 -284 0
-274 -284 0
-284 -283 285 0
284 -285 0
283 -285 0
285 -272 286 0
-285 -286 0
272 -286 0
-286 -284 287 0
286 -287 0
284 -287 0
-285 272 288 0
285 -288 0
-272 -288 0
-288 -286 289 0
288 -289 0
286 -289 0
-280 -275 290 0
280 -290 0
275 -290 0
-290 -281 291 0
290 -291 0
281 -291 0
26 7 292 0
-26 -292 0
-7 -292 0
27 6 293 0
-27 -293 0
-6 -293 0
28 5 294 0
-28 -294 0
-5 -294 0
-294 -293 295 0
294 -295 0
293 -295 0
294 293 296 0
-294 -296 0
-293 -296 0
-296 -295 297 0
296 -297 0
295 -297 0
297 292 298 0
-297 -298 0
-292 -298 0
-298 -296 299 0
298 -299 0
296 -299 0
-229 -224 300 0
229 -300 0
224 -300 0
-300 -230 301 0
300 -301 0
230 -301 0
-301 299 302 0
301 -302 0
-299 -302 0
301 -299 303 0
-301 -303 0
299 -303 0
-303 -302 304 0
303 -304 0
302 -304 0
304 291 305 0
-304 -305 0
-291 -305 0
-305 -303 306 0
305 -306 0
303 -306 0
-236 -223 307 0
236 -307 0
223 -307 0
-307 -237 308 0
307 -308 0
237 -308 0
-308 306 309 0
308 -309 0
-306 -309 0
308 -306 310 0
-308 -310 0
306 -310 0
-310 -309 311 0
310 -311 0
309 -311 0
311 289 312 0
-311 -312 0
-289 -312 0
-312 -310 313 0
312 -313 0
310 -313 0
-243 -221 314 0
243 -314 0
221 -314 0
-314 -244 315 0
314 -315 0
244 -315 0
-315 313 316 0
315 -316 0
-313 -316 0
315 -313 317 0
-315 -317 0
313 -317 0
-317 -316 318 0
317 -318 0
316 -318 0
318 -287 319 0
-318 -319 0
287 -319 0
-319 -317 320 0
319 -320 0
317 -320 0
-250 219 321 0
250 -321 0
-219 -321 0
-321 -251 322 0
321 -322 0
251 -322 0
322 -320 323 0
-322 -323 0
320 -323 0
323 264 324 0
-323 -324 0
-264 -324 0
-324 -262 325 0
324 -325 0
262 -325 0
324 262 326 0
-324 -326 0
-262 -326 0
-326 -325 327 0
326 -327 0
325 -327 0
-323 -264 328 0
323 -328 0
264 -328 0
-328 -324 329 0
328 -329 0
324 -329 0
-322 320 330 0
322 -330 0
-320 -330 0
-330 -323 331 0
330 -331 0
323 -331 0
20 13 332 0
-20 -332 0
-13 -332 0
21 12 333 0
-21 -333 0
-12 -333 0
22 11 334 0
-22 -334 0
-11 -334 0
-334 -333 335 0
334 -335 0
333 -335 0
334 333 336 0
-334 -336 0
-333 -336 0
-336 -335 337 0
336 -337 0
335 -337 0
337 332 338 0
-337 -338 0
-332 -338 0
-338 -336 339 0
338 -339 0
336 -339 0
-270 -265 340 0
270 -340 0
265 -340 0
-340 -271 341 0
340 -341 0
271 -341 0
23 10 342 0
-23 -342 0
-10 -342 0
24 9 343 0
-24 -343 0
-9 -343 0
25 8 344 0
-25 -344 0
-8 -344 0
-344 -343 345 0
344 -345 0
343 -345 0
344 343 346 0
-344 -346 0
-343 -346 0
-346 -345 347 0
346 -347 0
345 -347 0
347 342 348 0
-347 -348 0
-342 -348 0
-348 -346 349 0
348 -349 0
346 -349 0
349 -341 350 0
-349 -350 0
341 -350 0
-349 341 351 0
349 -351 0
-341 -351 0
-351 -350 352 0
351 -352 0
350 -352 0
352 -339 353 0
-352 -353 0
339 -353 0
-353 -351 354 0
353 -354 0
351 -354 0
-352 339 355 0
352 -355 0
-339 -355 0
-355 -353 356 0
355 -356 0
353 -356 0
-347 -342 357 0
347 -357 0
342 -357 0
-357 -348 358 0
357 -358 0
348 -358 0
26 6 359 0
-26 -359 0
-6 -359 0
27 5 360 0
-27 -360 0
-5 -360 0
28 4 361 0
-28 -361 0
-4 -361 0
-361 -360 362 0
361 -362 0
360 -362 0
361 360 363 0
-361 -363 0
-360 -363 0
-363 -362 364 0
363 -364 0
362 -364 0
364 359 365 0
-364 -365 0
-359 -365 0
-365 -363 366 0
365 -366 0
363 -366 0
-297 -292 367 0
297 -367 0
292 -367 0
-367 -298 368 0
367 -368 0
298 -368 0
-368 366 369 0
368 -369 0
-366 -369 0
368 -366 370 0
-368 -370 0
366 -370 0
-370 -369 371 0
370 -371 0
369 -371 0
371 358 372 0
-371 -372 0
-358 -372 0
-372 -370 373 0
372 -373 0
370 -373 0
-304 -291 374 0
304 -374 0
291 -374 0
-374 -305 375 0
374 -375 0
305 -375 0
-375 373 376 0
375 -376 0
-373 -376 0
375 -373 377 0
-375 -377 0
373 -377 0
-377 -376 378 0
377 -378 0
376 -378 0
378 356 379 0
-378 -379 0
-356 -379 0
-379 -377 380 0
379 -380 0
377 -380 0
-311 -289 381 0
311 -381 0
289 -381 0
-381 -312 382 0
381 -382 0
312 -382 0
-382 380 383 0
382 -383 0
-380 -383 0
382 -380 384 0
-382 -384 0
380 -384 0
-384 -383 385 0
384 -385 0
383 -385 0
385 -354 386 0
-385 -386 0
354 -386 0
-386 -384 387 0
386 -387 0
384 -387 0
-318 287 388 0
318 -388 0
-287 -388 0
-388 -319 389 0
388 -389 0
319 -389 0
389 -387 390 0
-389 -390 0
387 -390 0
390 331 391 0
-390 -391 0
-331 -391 0
-391 -329 392 0
391 -392 0
329 -392 0
391 329 393 0
-391 -393 0
-329 -393 0
-393 -392 394 0
393 -394 0
392 -394 0
394 327 395 0
-394 -395 0
-327 -395 0
-390 -331 396 0
390 -396 0
331 -396 0
-396 -391 397 0
396 -397 0
391 -397 0
20 12 398 0
-20 -398 0
-12 -398 0
21 11 399 0
-21 -399 0
-11 -399 0
22 10 400 0
-22 -400 0
-10 -400 0
-400 -399 401 0
400 -401 0
399 -401 0
400 399 402 0
-400 -402 0
-399 -402 0
-402 -401 403 0
402 -403 0
401 -403 0
403 398 404 0
-403 -404 0
-398 -404 0
-404 -402 405 0
404 -405 0
402 -405 0
-337 -332 406 0
337 -406 0
332 -406 0
-406 -338 407 0
406 -407 0
338 -407 0
23 9 408 0
-23 -408 0
-9 -408 0
24 8 409 0
-24 -409 0
-8 -409 0
25 7 410 0
-25 -410 0
-7 -410 0
-410 -409 411 0
410 -411 0
409 -411 0
410 409 412 0
-410 -412 0
-409 -412 0
-412 -411 413 0
412 -413 0
411 -413 0
413 408 414 0
-413 -414 0
-408 -414 0
-414 -412 415 0
414 -415 0
412 -415 0
415 -407 416 0
-415 -416 0
407 -416 0
-415 407 417 0
415 -417 0
-407 -417 0
-417 -416 418 0
417 -418 0
416 -418 0
418 -405 419 0
-418 -419 0
405 -419 0
-419 -417 420 0
419 -420 0
417 -420 0
19 14 421 0
-19 -421 0
-14 -421 0
18 14 422 0
-18 -422 0
-14 -422 0
19 13 423 0
-19 -423 0
-13 -423 0
423 422 424 0
-423 -424 0
-422 -424 0
424 421 425 0
-424 -425 0
-421 -425 0
-425 420 426 0
425 -426 0
-420 -426 0
425 -420 427 0
-425 -427 0
420 -427 0
-427 -426 428 0
427 -428 0
426 -428 0
-418 405 429 0
418 -429 0
-405 -429 0
-429 -419 430 0
429 -430 0
419 -430 0
-413 -408 431 0
413 -431 0
408 -431 0
-431 -414 432 0
431 -432 0
414 -432 0
26 5 433 0
-26 -433 0
-5 -433 0
27 4 434 0
-27 -434 0
-4 -434 0
28 3 435 0
-28 -435 0
-3 -435 0
-435 -434 436 0
435 -436 0
434 -436 0
435 434 437 0
-435 -437 0
-434 -437 0
-437 -436 438 0
437 -438 0
436 -438 0
438 433 439 0
-438 -439 0
-433 -439 0
-439 -437 440 0
439 -440 0
437 -440 0
-364 -359 441 0
364 -441 0
359 -441 0
-441 -365 442 0
441 -442 0
365 -442 0
-442 440 443 0
442 -443 0
-440 -443 0
442 -440 444 0
-442 -444 0
440 -444 0
-444 -443 445 0
444 -445 0
443 -445 0
445 432 446 0
-445 -446 0
-432 -446 0
-446 -444 447 0
446 -447 0
444 -447 0
-371 -358 448 0
371 -448 0
358 -448 0
-448 -372 449 0
448 -449 0
372 -449 0
-449 447 450 0
449 -450 0
-447 -450 0
449 -447 451 0
-449 -451 0
447 -451 0
-451 -450 452 0
451 -452 0
450 -452 0
452 430 453 0
-452 -453 0
-430 -453 0
-453 -451 454 0
453 -454 0
451 -454 0
-378 -356 455 0
378 -455 0
356 -455 0
-455 -379 456 0
455 -456 0
379 -456 0
-456 454 457 0
456 -457 0
-454 -457 0
456 -454 458 0
-456 -458 0
454 -458 0
-458 -457 459 0
458 -459 0
457 -459 0
459 428 460 0
-459 -460 0
-428 -460 0
-460 -458 461 0
460 -461 0
458 -461 0
-385 354 462 0
385 -462 0
-354 -462 0
-462 -386 463 0
462 -463 0
386 -463 0
-463 461 464 0
463 -464 0
-461 -464 0
463 -461 465 0
-463 -465 0
461 -465 0
-465 -464 466 0
465 -466 0
464 -466 0
466 427 467 0
-466 -467 0
-427 -467 0
-467 -465 468 0
467 -468 0
465 -468 0
-389 387 469 0
389 -469 0
-387 -469 0
-469 -390 470 0
469 -470 0
390 -470 0
470 -468 471 0
-470 -471 0
468 -471 0
-471 -397 472 0
471 -472 0
397 -472 0
471 397 473 0
-471 -473 0
-397 -473 0
-473 -472 474 0
473 -474 0
472 -474 0
-470 468 475 0
470 -475 0
-468 -475 0
-475 -471 476 0
475 -476 0
471 -476 0
-424 -421 477 0
424 -477 0
421 -477 0
-477 -425 478 0
477 -478 0
425 -478 0
20 11 479 0
-20 -479 0
-11 -479 0
21 10 480 0
-21 -480 0
-10 -480 0
22 9 481 0
-22 -481 0
-9 -481 0
-481 -480 482 0
481 -482 0
480 -482 0
481 480 483 0
-481 -483 0
-480 -483 0
-483 -482 484 0
483 -484 0
482 -484 0
484 479 485 0
-484 -485 0
-479 -485 0
-485 -483 486 0
485 -486 0
483 -486 0
-403 -398 487 0
403 -487 0
398 -487 0
-487 -404 488 0
487 -488 0
404 -488 0
23 8 489 0
-23 -489 0
-8 -489 0
24 7 490 0
-24 -490 0
-7 -490 0
25 6 491 0
-25 -491 0
-6 -491 0
-491 -490 492 0
491 -492 0
490 -492 0
491 490 493 0
-491 -493 0
-490 -493 0
-493 -492 494 0
493 -494 0
492 -494 0
494 489 495 0
-494 -495 0
-489 -495 0
-495 -493 496 0
495 -496 0
493 -496 0
496 -488 497 0
-496 -497 0
488 -497 0
-496 488 498 0
496 -498 0
-488 -498 0
-498 -497 499 0
498 -499 0
497 -499 0
499 -486 500 0
-499 -500 0
486 -500 0
-500 -498 501 0
500 -501 0
498 -501 0
501 -478 502 0
-501 -502 0
478 -502 0
-501 478 503 0
501 -503 0
-478 -503 0
-503 -502 504 0
503 -504 0
502 -504 0
17 14 505 0
-17 -505 0
-14 -505 0
18 13 506 0
-18 -506 0
-13 -506 0
19 12 507 0
-19 -507 0
-12 -507 0
-507 -506 508 0
507 -508 0
506 -508 0
507 506 509 0
-507 -509 0
-506 -509 0
-509 -508 510 0
509 -510 0
508 -510 0
510 505 511 0
-510 -511 0
-505 -511 0
-511 -509 512 0
511 -512 0
509 -512 0
-423 -422 513 0
423 -513 0
422 -513 0
-513 -424 514 0
513 -514 0
424 -514 0
514 -512 515 0
-514 -515 0
512 -515 0
515 504 516 0
-515 -516 0
-504 -516 0
-516 -503 517 0
516 -517 0
503 -517 0
-515 -504 518 0
515 -518 0
504 -518 0
-518 -516 519 0
518 -519 0
516 -519 0
-499 486 520 0
499 -520 0
-486 -520 0
-520 -500 521 0
520 -521 0
500 -521 0
-494 -489 522 0
494 -522 0
489 -522 0
-522 -495 523 0
522 -523 0
495 -523 0
26 4 524 0
-26 -524 0
-4 -524 0
27 3 525 0
-27 -525 0
-3 -525 0
28 2 526 0
-28 -526 0
-2 -526 0
-526 -525 527 0
526 -527 0
525 -527 0
526 525 528 0
-526 -528 0
-525 -528 0
-528 -527 529 0
528 -529 0
527 -529 0
529 524 530 0
-529 -530 0
-524 -530 0
-530 -528 531 0
530 -531 0
528 -531 0
-438 -433 532 0
438 -532 0
433 -532 0
-532 -439 533 0
532 -533 0
439 -533 0
-533 531 534 0
533 -534 0
-531 -534 0
533 -531 535 0
-533 -535 0
531 -535 0
-535 -534 536 0
535 -536 0
534 -536 0
536 523 537 0
-536 -537 0
-523 -537 0
-537 -535 538 0
537 -538 0
535 -538 0
-445 -432 539 0
445 -539 0
432 -539 0
-539 -446 540 0
539 -540 0
446 -540 0
-540 538 541 0
540 -541 0
-538 -541 0
540 -538 542 0
-540 -542 0
538 -542 0
-542 -541 543 0
542 -543 0
541 -543 0
543 521 544 0
-543 -544 0
-521 -544 0
-544 -542 545 0
544 -545 0
542 -545 0
-452 -430 546 0
452 -546 0
430 -546 0
-546 -453 547 0
546 -547 0
453 -547 0
-547 545 548 0
547 -548 0
-545 -548 0
547 -545 549 0
-547 -549 0
545 -549 0
-549 -548 550 0
549 -550 0
548 -550 0
550 519 551 0
-550 -551 0
-519 -551 0
-551 -549 552 0
551 -552 0
549 -552 0
-459 -428 553 0
459 -553 0
428 -553 0
-553 -460 554 0
553 -554 0
460 -554 0
-554 552 555 0
554 -555 0
-552 -555 0
554 -552 556 0
-554 -556 0
552 -556 0
-556 -555 557 0
556 -557 0
555 -557 0
557 -517 558 0
-557 -558 0
517 -558 0
-558 -556 559 0
558 -559 0
556 -559 0
-466 -427 560 0
466 -560 0
427 -560 0
-560 -467 561 0
560 -561 0
467 -561 0
561 -559 562 0
-561 -562 0
559 -562 0
-562 -476 563 0
562 -563 0
476 -563 0
562 476 564 0
-562 -564 0
-476 -564 0
-564 -563 565 0
564 -565 0
563 -565 0
565 474 566 0
-565 -566 0
-474 -566 0
566 395 567 0
-566 -567 0
-395 -567 0
-561 559 568 0
561 -568 0
-559 -568 0
-568 -562 569 0
568 -569 0
562 -569 0
-514 512 570 0
514 -570 0
-512 -570 0
-570 -515 571 0
570 -571 0
515 -571 0
20 10 572 0
-20 -572 0
-10 -572 0
21 9 573 0
-21 -573 0
-9 -573 0
22 8 574 0
-22 -574 0
-8 -574 0
-574 -573 575 0
574 -575 0
573 -575 0
574 573 576 0
-574 -576 0
-573 -576 0
-576 -575 577 0
576 -577 0
575 -577 0
577 572 578 0
-577 -578 0
-572 -578 0
-578 -576 579 0
578 -579 0
576 -579 0
-484 -479 580 0
484 -580 0
479 -580 0
-580 -485 581 0
580 -581 0
485 -581 0
23 7 582 0
-23 -582 0
-7 -582 0
24 6 583 0
-24 -583 0
-6 -583 0
25 5 584 0
-25 -584 0
-5 -584 0
-584 -583 585 0
584 -585 0
583 -585 0
584 583 586 0
-584 -586 0
-583 -586 0
-586 -585 587 0
586 -587 0
585 -587 0
587 582 588 0
-587 -588 0
-582 -588 0
-588 -586 589 0
588 -589 0
586 -589 0
589 -581 590 0
-589 -590 0
581 -590 0
-589 581 591 0
589 -591 0
-581 -591 0
-591 -590 592 0
591 -592 0
590 -592 0
592 -579 593 0
-592 -593 0
579 -593 0
-593 -591 594 0
593 -594 0
591 -594 0
594 -571 595 0
-594 -595 0
571 -595 0
-594 571 596 0
594 -596 0
-571 -596 0
-596 -595 597 0
596 -597 0
595 -597 0
17 13 598 0
-17 -598 0
-13 -598 0
18 12 599 0
-18 -599 0
-12 -599 0
19 11 600 0
-19 -600 0
-11 -600 0
-600 -599 601 0
600 -601 0
599 -601 0
600 599 602 0
-600 -602 0
-599 -602 0
-602 -601 603 0
602 -603 0
601 -603 0
603 598 604 0
-603 -604 0
-598 -604 0
-604 -602 605 0
604 -605 0
602 -605 0
-510 -505 606 0
510 -606 0
505 -606 0
-606 -511 607 0
606 -607 0
511 -607 0
607 -605 608 0
-607 -608 0
605 -608 0
608 597 609 0
-608 -609 0
-597 -609 0
-609 -596 610 0
609 -610 0
596 -610 0
-608 -597 611 0
608 -611 0
597 -611 0
-611 -609 612 0
611 -612 0
609 -612 0
-592 579 613 0
592 -613 0
-579 -613 0
-613 -593 614 0
613 -614 0
593 -614 0
-587 -582 615 0
587 -615 0
582 -615 0
-615 -588 616 0
615 -616 0
588 -616 0
26 3 617 0
-26 -617 0
-3 -617 0
27 2 618 0
-27 -618 0
-2 -618 0
28 1 619 0
-28 -619 0
-1 -619 0
-619 -618 620 0
619 -620 0
618 -620 0
619 618 621 0
-619 -621 0
-618 -621 0
-621 -620 622 0
621 -622 0
620 -622 0
622 617 623 0
-622 -623 0
-617 -623 0
-623 -621 624 0
623 -624 0
621 -624 0
-529 -524 625 0
529 -625 0
524 -625 0
-625 -530 626 0
625 -626 0
530 -626 0
-626 624 627 0
626 -627 0
-624 -627 0
626 -624 628 0
-626 -628 0
624 -628 0
-628 -627 629 0
628 -629 0
627 -629 0
629 616 630 0
-629 -630 0
-616 -630 0
-630 -628 631 0
630 -631 0
628 -631 0
-536 -523 632 0
536 -632 0
523 -632 0
-632 -537 633 0
632 -633 0
537 -633 0
-633 631 634 0
633 -634 0
-631 -634 0
633 -631 635 0
-633 -635 0
631 -635 0
-635 -634 636 0
635 -636 0
634 -636 0
636 614 637 0
-636 -637 0
-614 -637 0
-637 -635 638 0
637 -638 0
635 -638 0
-543 -521 639 0
543 -639 0
521 -639 0
-639 -544 640 0
639 -640 0
544 -640 0
-640 638 641 0
640 -641 0
-638 -641 0
640 -638 642 0
-640 -642 0
638 -642 0
-642 -641 643 0
642 -643 0
641 -643 0
643 612 644 0
-643 -644 0
-612 -644 0
-644 -642 645 0
644 -645 0
642 -645 0
-550 -519 646 0
550 -646 0
519 -646 0
-646 -551 647 0
646 -647 0
551 -647 0
-647 645 648 0
647 -648 0
-645 -648 0
647 -645 649 0
-647 -649 0
645 -649 0
-649 -648 650 0
649 -650 0
648 -650 0
650 -610 651 0
-650 -651 0
610 -651 0
-651 -649 652 0
651 -652 0
649 -652 0
-557 517 653 0
557 -653 0
-517 -653 0
-653 -558 654 0
653 -654 0
558 -654 0
654 -652 655 0
-654 -655 0
652 -655 0
-655 -569 656 0
655 -656 0
569 -656 0
655 569 657 0
-655 -657 0
-569 -657 0
-657 -656 658 0
657 -658 0
656 -658 0
-654 652 659 0
654 -659 0
-652 -659 0
-659 -655 660 0
659 -660 0
655 -660 0
16 14 661 0
-16 -661 0
-14 -661 0
17 12 662 0
-17 -662 0
-12 -662 0
18 11 663 0
-18 -663 0
-11 -663 0
19 10 664 0
-19 -664 0
-10 -664 0
-664 -663 665 0
664 -665 0
663 -665 0
664 663 666 0
-664 -666 0
-663 -666 0
-666 -665 667 0
666 -667 0
665 -667 0
667 662 668 0
-667 -668 0
-662 -668 0
-668 -666 669 0
668 -669 0
666 -669 0
-603 -598 670 0
603 -670 0
598 -670 0
-670 -604 671 0
670 -671 0
604 -671 0
-671 669 672 0
671 -672 0
-669 -672 0
671 -669 673 0
-671 -673 0
669 -673 0
-673 -672 674 0
673 -674 0
672 -674 0
674 661 675 0
-674 -675 0
-661 -675 0
-675 -673 676 0
675 -676 0
673 -676 0
-607 605 677 0
607 -677 0
-605 -677 0
-677 -608 678 0
677 -678 0
608 -678 0
20 9 679 0
-20 -679 0
-9 -679 0
21 8 680 0
-21 -680 0
-8 -680 0
22 7 681 0
-22 -681 0
-7 -681 0
-681 -680 682 0
681 -682 0
680 -682 0
681 680 683 0
-681 -683 0
-680 -683 0
-683 -682 684 0
683 -684 0
682 -684 0
684 679 685 0
-684 -685 0
-679 -685 0
-685 -683 686 0
685 -686 0
683 -686 0
-577 -572 687 0
577 -687 0
572 -687 0
-687 -578 688 0
687 -688 0
578 -688 0
23 6 689 0
-23 -689 0
-6 -689 0
24 5 690 0
-24 -690 0
-5 -690 0
25 4 691 0
-25 -691 0
-4 -691 0
-691 -690 692 0
691 -692 0
690 -692 0
691 690 693 0
-691 -693 0
-690 -693 0
-693 -692 694 0
693 -694 0
692 -694 0
694 689 695 0
-694 -695 0
-689 -695 0
-695 -693 696 0
695 -696 0
693 -696 0
696 -688 697 0
-696 -697 0
688 -697 0
-696 688 698 0
696 -698 0
-688 -698 0
-698 -697 699 0
698 -699 0
697 -699 0
699 -686 700 0
-699 -700 0
686 -700 0
-700 -698 701 0
700 -701 0
698 -701 0
701 -678 702 0
-701 -702 0
678 -702 0
-701 678 703 0
701 -703 0
-678 -703 0
-703 -702 704 0
703 -704 0
702 -704 0
704 -676 705 0
-704 -705 0
676 -705 0
-705 -703 706 0
705 -706 0
703 -706 0
-704 676 707 0
704 -707 0
-676 -707 0
-707 -705 708 0
707 -708 0
705 -708 0
-699 686 709 0
699 -709 0
-686 -709 0
-709 -700 710 0
709 -710 0
700 -710 0
-694 -689 711 0
694 -711 0
689 -711 0
-711 -695 712 0
711 -712 0
695 -712 0
-622 -617 713 0
622 -713 0
617 -713 0
-713 -623 714 0
713 -714 0
623 -714 0
26 2 715 0
-26 -715 0
-2 -715 0
27 1 716 0
-27 -716 0
-1 -716 0
716 715 717 0
-716 -717 0
-715 -717 0
-717 -714 718 0
717 -718 0
714 -718 0
717 714 719 0
-717 -719 0
-714 -719 0
-719 -718 720 0
719 -720 0
718 -720 0
720 712 721 0
-720 -721 0
-712 -721 0
-721 -719 722 0
721 -722 0
719 -722 0
-629 -616 723 0
629 -723 0
616 -723 0
-723 -630 724 0
723 -724 0
630 -724 0
-724 722 725 0
724 -725 0
-722 -725 0
724 -722 726 0
-724 -726 0
722 -726 0
-726 -725 727 0
726 -727 0
725 -727 0
727 710 728 0
-727 -728 0
-710 -728 0
-728 -726 729 0
728 -729 0
726 -729 0
-636 -614 730 0
636 -730 0
614 -730 0
-730 -637 731 0
730 -731 0
637 -731 0
-731 729 732 0
731 -732 0
-729 -732 0
731 -729 733 0
-731 -733 0
729 -733 0
-733 -732 734 0
733 -734 0
732 -734 0
734 708 735 0
-734 -735 0
-708 -735 0
-735 -733 736 0
735 -736 0
733 -736 0
-643 -612 737 0
643 -737 0
612 -737 0
-737 -644 738 0
737 -738 0
644 -738 0
-738 736 739 0
738 -739 0
-736 -739 0
738 -736 740 0
-738 -740 0
736 -740 0
-740 -739 741 0
740 -741 0
739 -741 0
741 -706 742 0
-741 -742 0
706 -742 0
-742 -740 743 0
742 -743 0
740 -743 0
-650 610 744 0
650 -744 0
-610 -744 0
-744 -651 745 0
744 -745 0
651 -745 0
745 -743 746 0
-745 -746 0
743 -746 0
-746 -660 747 0
746 -747 0
660 -747 0
746 660 748 0
-746 -748 0
-660 -748 0
-748 -747 749 0
748 -749 0
747 -749 0
749 658 750 0
-749 -750 0
-658 -750 0
-745 743 751 0
745 -751 0
-743 -751 0
-751 -746 752 0
751 -752 0
746 -752 0
16 13 753 0
-16 -753 0
-13 -753 0
17 11 754 0
-17 -754 0
-11 -754 0
18 10 755 0
-18 -755 0
-10 -755 0
19 9 756 0
-19 -756 0
-9 -756 0
-756 -755 757 0
756 -757 0
755 -757 0
756 755 758 0
-756 -758 0
-755 -758 0
-758 -757 759 0
758 -759 0
757 -759 0
759 754 760 0
-759 -760 0
-754 -760 0
-760 -758 761 0
760 -761 0
758 -761 0
-667 -662 762 0
667 -762 0
662 -762 0
-762 -668 763 0
762 -763 0
668 -763 0
-763 761 764 0
763 -764 0
-761 -764 0
763 -761 765 0
-763 -765 0
761 -765 0
-765 -764 766 0
765 -766 0
764 -766 0
766 753 767 0
-766 -767 0
-753 -767 0
-767 -765 768 0
767 -768 0
765 -768 0
-674 -661 769 0
674 -769 0
661 -769 0
-769 -675 770 0
769 -770 0
675 -770 0
20 8 771 0
-20 -771 0
-8 -771 0
21 7 772 0
-21 -772 0
-7 -772 0
22 6 773 0
-22 -773 0
-6 -773 0
-773 -772 774 0
773 -774 0
772 -774 0
773 772 775 0
-773 -775 0
-772 -775 0
-775 -774 776 0
775 -776 0
774 -776 0
776 771 777 0
-776 -777 0
-771 -777 0
-777 -775 778 0
777 -778 0
775 -778 0
-684 -679 779 0
684 -779 0
679 -779 0
-779 -685 780 0
779 -780 0
685 -780 0
23 5 781 0
-23 -781 0
-5 -781 0
24 4 782 0
-24 -782 0
-4 -782 0
25 3 783 0
-25 -783 0
-3 -783 0
-783 -782 784 0
783 -784 0
782 -784 0
783 782 785 0
-783 -785 0
-782 -785 0
-785 -784 786 0
785 -786 0
784 -786 0
786 781 787 0
-786 -787 0
-781 -787 0
-787 -785 788 0
787 -788 0
785 -788 0
788 -780 789 0
-788 -789 0
780 -789 0
-788 780 790 0
788 -790 0
-780 -790 0
-790 -789 791 0
790 -791 0
789 -791 0
791 -778 792 0
-791 -792 0
778 -792 0
-792 -790 793 0
792 -793 0
790 -793 0
793 -770 794 0
-793 -794 0
770 -794 0
-793 770 795 0
793 -795 0
-770 -795 0
-795 -794 796 0
795 -796 0
794 -796 0
796 -768 797 0
-796 -797 0
768 -797 0
-797 -795 798 0
797 -798 0
795 -798 0
-796 768 799 0
796 -799 0
-768 -799 0
-799 -797 800 0
799 -800 0
797 -800 0
-791 778 801 0
791 -801 0
-778 -801 0
-801 -792 802 0
801 -802 0
792 -802 0
-720 -712 803 0
720 -803 0
712 -803 0
-803 -721 804 0
803 -804 0
721 -804 0
-786 -781 805 0
786 -805 0
781 -805 0
-805 -787 806 0
805 -806 0
787 -806 0
-716 -715 807 0
716 -807 0
715 -807 0
-807 -717 808 0
807 -808 0
717 -808 0
808 806 809 0
-808 -809 0
-806 -809 0
-809 -804 810 0
809 -810 0
804 -810 0
809 804 811 0
-809 -811 0
-804 -811 0
-811 -810 812 0
811 -812 0
810 -812 0
812 802 813 0
-812 -813 0
-802 -813 0
-813 -811 814 0
813 -814 0
811 -814 0
-727 -710 815 0
727 -815 0
710 -815 0
-815 -728 816 0
815 -816 0
728 -816 0
-816 814 817 0
816 -817 0
-814 -817 0
816 -814 818 0
-816 -818 0
814 -818 0
-818 -817 819 0
818 -819 0
817 -819 0
819 800 820 0
-819 -820 0
-800 -820 0
-820 -818 821 0
820 -821 0
818 -821 0
-734 -708 822 0
734 -822 0
708 -822 0
-822 -735 823 0
822 -823 0
735 -823 0
-823 821 824 0
823 -824 0
-821 -824 0
823 -821 825 0
-823 -825 0
821 -825 0
-825 -824 826 0
825 -826 0
824 -826 0
826 -798 827 0
-826 -827 0
798 -827 0
-827 -825 828 0
827 -828 0
825 -828 0
-741 706 829 0
741 -829 0
-706 -829 0
-829 -742 830 0
829 -830 0
742 -830 0
830 -828 831 0
-830 -831 0
828 -831 0
-831 -752 832 0
831 -832 0
752 -832 0
831 752 833 0
-831 -833 0
-752 -833 0
-833 -832 834 0
833 -834 0
832 -834 0
-830 828 835 0
830 -835 0
-828 -835 0
-835 -831 836 0
835 -836 0
831 -836 0
16 12 837 0
-16 -837 0
-12 -837 0
17 10 838 0
-17 -838 0
-10 -838 0
18 9 839 0
-18 -839 0
-9 -839 0
19 8 840 0
-19 -840 0
-8 -840 0
-840 -839 841 0
840 -841 0
839 -841 0
840 839 842 0
-840 -842 0
-839 -842 0
-842 -841 843 0
842 -843 0
841 -843 0
843 838 844 0
-843 -844 0
-838 -844 0
-844 -842 845 0
844 -845 0
842 -845 0
-759 -754 846 0
759 -846 0
754 -846 0
-846 -760 847 0
846 -847 0
760 -847 0
-847 845 848 0
847 -848 0
-845 -848 0
847 -845 849 0
-847 -849 0
845 -849 0
-849 -848 850 0
849 -850 0
848 -850 0
850 837 851 0
-850 -851 0
-837 -851 0
-851 -849 852 0
851 -852 0
849 -852 0
-766 -753 853 0
766 -853 0
753 -853 0
-853 -767 854 0
853 -854 0
767 -854 0
20 7 855 0
-20 -855 0
-7 -855 0
21 6 856 0
-21 -856 0
-6 -856 0
22 5 857 0
-22 -857 0
-5 -857 0
-857 -856 858 0
857 -858 0
856 -858 0
857 856 859 0
-857 -859 0
-856 -859 0
-859 -858 860 0
859 -860 0
858 -860 0
860 855 861 0
-860 -861 0
-855 -861 0
-861 -859 862 0
861 -862 0
859 -862 0
-776 -771 863 0
776 -863 0
771 -863 0
-863 -777 864 0
863 -864 0
777 -864 0
23 4 865 0
-23 -865 0
-4 -865 0
24 3 866 0
-24 -866 0
-3 -866 0
25 2 867 0
-25 -867 0
-2 -867 0
-867 -866 868 0
867 -868 0
866 -868 0
867 866 869 0
-867 -869 0
-866 -869 0
-869 -868 870 0
869 -870 0
868 -870 0
870 865 871 0
-870 -871 0
-865 -871 0
-871 -869 872 0
871 -872 0
869 -872 0
872 -864 873 0
-872 -873 0
864 -873 0
-872 864 874 0
872 -874 0
-864 -874 0
-874 -873 875 0
874 -875 0
873 -875 0
875 -862 876 0
-875 -876 0
862 -876 0
-876 -874 877 0
876 -877 0
874 -877 0
877 -854 878 0
-877 -878 0
854 -878 0
-877 854 879 0
877 -879 0
-854 -879 0
-879 -878 880 0
879 -880 0
878 -880 0
880 -852 881 0
-880 -881 0
852 -881 0
-881 -879 882 0
881 -882 0
879 -882 0
-880 852 883 0
880 -883 0
-852 -883 0
-883 -881 884 0
883 -884 0
881 -884 0
-875 862 885 0
875 -885 0
-862 -885 0
-885 -876 886 0
885 -886 0
876 -886 0
-808 -806 887 0
808 -887 0
806 -887 0
-887 -809 888 0
887 -888 0
809 -888 0
-870 -865 889 0
870 -889 0
865 -889 0
-889 -871 890 0
889 -890 0
871 -890 0
26 1 891 0
-26 -891 0
-1 -891 0
891 890 892 0
-891 -892 0
-890 -892 0
-892 -888 893 0
892 -893 0
888 -893 0
892 888 894 0
-892 -894 0
-888 -894 0
-894 -893 895 0
894 -895 0
893 -895 0
895 886 896 0
-895 -896 0
-886 -896 0
-896 -894 897 0
896 -897 0
894 -897 0
-812 -802 898 0
812 -898 0
802 -898 0
-898 -813 899 0
898 -899 0
813 -899 0
-899 897 900 0
899 -900 0
-897 -900 0
899 -897 901 0
-899 -901 0
897 -901 0
-901 -900 902 0
901 -902 0
900 -902 0
902 884 903 0
-902 -903 0
-884 -903 0
-903 -901 904 0
903 -904 0
901 -904 0
-819 -800 905 0
819 -905 0
800 -905 0
-905 -820 906 0
905 -906 0
820 -906 0
-906 904 907 0
906 -907 0
-904 -907 0
906 -904 908 0
-906 -908 0
904 -908 0
-908 -907 909 0
908 -909 0
907 -909 0
909 -882 910 0
-909 -910 0
882 -910 0
-910 -908 911 0
910 -911 0
908 -911 0
-826 798 912 0
826 -912 0
-798 -912 0
-912 -827 913 0
912 -913 0
827 -913 0
913 -911 914 0
-913 -914 0
911 -914 0
-914 -836 915 0
914 -915 0
836 -915 0
914 836 916 0
-914 -916 0
-836 -916 0
-916 -915 917 0
916 -917 0
915 -917 0
917 834 918 0
-917 -918 0
-834 -918 0
918 750 919 0
-918 -919 0
-750 -919 0
919 567 920 0
-919 -920 0
-567 -920 0
-913 911 921 0
913 -921 0
-911 -921 0
-921 -914 922 0
921 -922 0
914 -922 0
16 11 923 0
-16 -923 0
-11 -923 0
17 9 924 0
-17 -924 0
-9 -924 0
18 8 925 0
-18 -925 0
-8 -925 0
19 7 926 0
-19 -926 0
-7 -926 0
-926 -925 927 0
926 -927 0
925 -927 0
926 925 928 0
-926 -928 0
-925 -928 0
-928 -927 929 0
928 -929 0
927 -929 0
929 924 930 0
-929 -930 0
-924 -930 0
-930 -928 931 0
930 -931 0
928 -931 0
-843 -838 932 0
843 -932 0
838 -932 0
-932 -844 933 0
932 -933 0
844 -933 0
-933 931 934 0
933 -934 0
-931 -934 0
933 -931 935 0
-933 -935 0
931 -935 0
-935 -934 936 0
935 -936 0
934 -936 0
936 923 937 0
-936 -937 0
-923 -937 0
-937 -935 938 0
937 -938 0
935 -938 0
-850 -837 939 0
850 -939 0
837 -939 0
-939 -851 940 0
939 -940 0
851 -940 0
20 6 941 0
-20 -941 0
-6 -941 0
21 5 942 0
-21 -942 0
-5 -942 0
22 4 943 0
-22 -943 0
-4 -943 0
-943 -942 944 0
943 -944 0
942 -944 0
943 942 945 0
-943 -945 0
-942 -945 0
-945 -944 946 0
945 -946 0
944 -946 0
946 941 947 0
-946 -947 0
-941 -947 0
-947 -945 948 0
947 -948 0
945 -948 0
-860 -855 949 0
860 -949 0
855 -949 0
-949 -861 950 0
949 -950 0
861 -950 0
23 3 951 0
-23 -951 0
-3 -951 0
24 2 952 0
-24 -952 0
-2 -952 0
25 1 953 0
-25 -953 0
-1 -953 0
-953 -952 954 0
953 -954 0
952 -954 0
953 952 955 0
-953 -955 0
-952 -955 0
-955 -954 956 0
955 -956 0
954 -956 0
956 951 957 0
-956 -957 0
-951 -957 0
-957 -955 958 0
957 -958 0
955 -958 0
958 -950 959 0
-958 -959 0
950 -959 0
-958 950 960 0
958 -960 0
-950 -960 0
-960 -959 961 0
960 -961 0
959 -961 0
961 -948 962 0
-961 -962 0
948 -962 0
-962 -960 963 0
962 -963 0
960 -963 0
963 -940 964 0
-963 -964 0
940 -964 0
-963 940 965 0
963 -965 0
-940 -965 0
-965 -964 966 0
965 -966 0
964 -966 0
966 -938 967 0
-966 -967 0
938 -967 0
-967 -965 968 0
967 -968 0
965 -968 0
-966 938 969 0
966 -969 0
-938 -969 0
-969 -967 970 0
969 -970 0
967 -970 0
-895 -886 971 0
895 -971 0
886 -971 0
-971 -896 972 0
971 -972 0
896 -972 0
-961 948 973 0
961 -973 0
-948 -973 0
-973 -962 974 0
973 -974 0
962 -974 0
-891 -890 975 0
891 -975 0
890 -975 0
-975 -892 976 0
975 -976 0
892 -976 0
976 974 977 0
-976 -977 0
-974 -977 0
-977 -972 978 0
977 -978 0
972 -978 0
977 972 979 0
-977 -979 0
-972 -979 0
-979 -978 980 0
979 -980 0
978 -980 0
980 970 981 0
-980 -981 0
-970 -981 0
-981 -979 982 0
981 -982 0
979 -982 0
-902 -884 983 0
902 -983 0
884 -983 0
-983 -903 984 0
983 -984 0
903 -984 0
-984 982 985 0
984 -985 0
-982 -985 0
984 -982 986 0
-984 -986 0
982 -986 0
-986 -985 987 0
986 -987 0
985 -987 0
987 -968 988 0
-987 -988 0
968 -988 0
-988 -986 989 0
988 -989 0
986 -989 0
-909 882 990 0
909 -990 0
-882 -990 0
-990 -910 991 0
990 -991 0
910 -991 0
991 -989 992 0
-991 -992 0
989 -992 0
-992 -922 993 0
992 -993 0
922 -993 0
992 922 994 0
-992 -994 0
-922 -994 0
-994 -993 995 0
994 -995 0
993 -995 0
16 10 996 0
-16 -996 0
-10 -996 0
17 8 997 0
-17 -997 0
-8 -997 0
18 7 998 0
-18 -998 0
-7 -998 0
19 6 999 0
-19 -999 0
-6 -999 0
-999 -998 1000 0
999 -1000 0
998 -1000 0
999 998 1001 0
-999 -1001 0
-998 -1001 0
-1001 -1000 1002 0
1001 -1002 0
1000 -1002 0
1002 997 1003 0
-1002 -1003 0
-997 -1003 0
-1003 -1001 1004 0
1003 -1004 0
1001 -1004 0
-929 -924 1005 0
929 -1005 0
924 -1005 0
-1005 -930 1006 0
1005 -1006 0
930 -1006 0
-1006 1004 1007 0
1006 -1007 0
-1004 -1007 0
1006 -1004 1008 0
-1006 -1008 0
1004 -1008 0
-1008 -1007 1009 0
1008 -1009 0
1007 -1009 0
1009 996 1010 0
-1009 -1010 0
-996 -1010 0
-1010 -1008 1011 0
1010 -1011 0
1008 -1011 0
-936 -923 1012 0
936 -1012 0
923 -1012 0
-1012 -937 1013 0
1012 -1013 0
937 -1013 0
20 5 1014 0
-20 -1014 0
-5 -1014 0
21 4 1015 0
-21 -1015 0
-4 -1015 0
22 3 1016 0
-22 -1016 0
-3 -1016 0
-1016 -1015 1017 0
1016 -1017 0
1015 -1017 0
1016 1015 1018 0
-1016 -1018 0
-1015 -1018 0
-1018 -1017 1019 0
1018 -1019 0
1017 -1019 0
1019 1014 1020 0
-1019 -1020 0
-1014 -1020 0
-1020 -1018 1021 0
1020 -1021 0
1018 -1021 0
-946 -941 1022 0
946 -1022 0
941 -1022 0
-1022 -947 1023 0
1022 -1023 0
947 -1023 0
23 2 1024 0
-23 -1024 0
-2 -1024 0
24 1 1025 0
-24 -1025 0
-1 -1025 0
1025 1024 1026 0
-1025 -1026 0
-1024 -1026 0
-1026 -1023 1027 0
1026 -1027 0
1023 -1027 0
1026 1023 1028 0
-1026 -1028 0
-1023 -1028 0
-1028 -1027 1029 0
1028 -1029 0
1027 -1029 0
1029 -1021 1030 0
-1029 -1030 0
1021 -1030 0
-1030 -1028 1031 0
1030 -1031 0
1028 -1031 0
1031 -1013 1032 0
-1031 -1032 0
1013 -1032 0
-1031 1013 1033 0
1031 -1033 0
-1013 -1033 0
-1033 -1032 1034 0
1033 -1034 0
1032 -1034 0
1034 -1011 1035 0
-1034 -1035 0
1011 -1035 0
-1035 -1033 1036 0
1035 -1036 0
1033 -1036 0
-1034 1011 1037 0
1034 -1037 0
-1011 -1037 0
-1037 -1035 1038 0
1037 -1038 0
1035 -1038 0
-976 -974 1039 0
976 -1039 0
974 -1039 0
-1039 -977 1040 0
1039 -1040 0
977 -1040 0
-1029 1021 1041 0
1029 -1041 0
-1021 -1041 0
-1041 -1030 1042 0
1041 -1042 0
1030 -1042 0
-956 -951 1043 0
956 -1043 0
951 -1043 0
-1043 -957 1044 0
1043 -1044 0
957 -1044 0
1044 1042 1045 0
-1044 -1045 0
-1042 -1045 0
-1045 -1040 1046 0
1045 -1046 0
1040 -1046 0
1045 1040 1047 0
-1045 -1047 0
-1040 -1047 0
-1047 -1046 1048 0
1047 -1048 0
1046 -1048 0
1048 1038 1049 0
-1048 -1049 0
-1038 -1049 0
-1049 -1047 1050 0
1049 -1050 0
1047 -1050 0
-980 -970 1051 0
980 -1051 0
970 -1051 0
-1051 -981 1052 0
1051 -1052 0
981 -1052 0
-1052 1050 1053 0
1052 -1053 0
-1050 -1053 0
1052 -1050 1054 0
-1052 -1054 0
1050 -1054 0
-1054 -1053 1055 0
1054 -1055 0
1053 -1055 0
1055 -1036 1056 0
-1055 -1056 0
1036 -1056 0
-1056 -1054 1057 0
1056 -1057 0
1054 -1057 0
-987 968 1058 0
987 -1058 0
-968 -1058 0
-1058 -988 1059 0
1058 -1059 0
988 -1059 0
-1059 1057 1060 0
1059 -1060 0
-1057 -1060 0
1059 -1057 1061 0
-1059 -1061 0
1057 -1061 0
-1061 -1060 1062 0
1061 -1062 0
1060 -1062 0
15 14 1063 0
-15 -1063 0
-14 -1063 0
1063 1062 1064 0
-1063 -1064 0
-1062 -1064 0
-1064 -1061 1065 0
1064 -1065 0
1061 -1065 0
-991 989 1066 0
991 -1066 0
-989 -1066 0
-1066 -992 1067 0
1066 -1067 0
992 -1067 0
-1067 1065 1068 0
1067 -1068 0
-1065 -1068 0
1067 -1065 1069 0
-1067 -1069 0
1065 -1069 0
-1069 -1068 1070 0
1069 -1070 0
1068 -1070 0
1070 995 1071 0
-1070 -1071 0
-995 -1071 0
16 9 1072 0
-16 -1072 0
-9 -1072 0
17 7 1073 0
-17 -1073 0
-7 -1073 0
18 6 1074 0
-18 -1074 0
-6 -1074 0
19 5 1075 0
-19 -1075 0
-5 -1075 0
-1075 -1074 1076 0
1075 -1076 0
1074 -1076 0
1075 1074 1077 0
-1075 -1077 0
-1074 -1077 0
-1077 -1076 1078 0
1077 -1078 0
1076 -1078 0
1078 1073 1079 0
-1078 -1079 0
-1073 -1079 0
-1079 -1077 1080 0
1079 -1080 0
1077 -1080 0
-1002 -997 1081 0
1002 -1081 0
997 -1081 0
-1081 -1003 1082 0
1081 -1082 0
1003 -1082 0
-1082 1080 1083 0
1082 -1083 0
-1080 -1083 0
1082 -1080 1084 0
-1082 -1084 0
1080 -1084 0
-1084 -1083 1085 0
1084 -1085 0
1083 -1085 0
1085 1072 1086 0
-1085 -1086 0
-1072 -1086 0
-1086 -1084 1087 0
1086 -1087 0
1084 -1087 0
-1009 -996 1088 0
1009 -1088 0
996 -1088 0
-1088 -1010 1089 0
1088 -1089 0
1010 -1089 0
20 4 1090 0
-20 -1090 0
-4 -1090 0
21 3 1091 0
-21 -1091 0
-3 -1091 0
22 2 1092 0
-22 -1092 0
-2 -1092 0
-1092 -1091 1093 0
1092 -1093 0
1091 -1093 0
1092 1091 1094 0
-1092 -1094 0
-1091 -1094 0
-1094 -1093 1095 0
1094 -1095 0
1093 -1095 0
1095 1090 1096 0
-1095 -1096 0
-1090 -1096 0
-1096 -1094 1097 0
1096 -1097 0
1094 -1097 0
-1019 -1014 1098 0
1019 -1098 0
1014 -1098 0
-1098 -1020 1099 0
1098 -1099 0
1020 -1099 0
1099 -1097 1100 0
-1099 -1100 0
1097 -1100 0
-1100 -1089 1101 0
1100 -1101 0
1089 -1101 0
1100 1089 1102 0
-1100 -1102 0
-1089 -1102 0
-1102 -1101 1103 0
1102 -1103 0
1101 -1103 0
1103 -1087 1104 0
-1103 -1104 0
1087 -1104 0
-1104 -1102 1105 0
1104 -1105 0
1102 -1105 0
-1103 1087 1106 0
1103 -1106 0
-1087 -1106 0
-1106 -1104 1107 0
1106 -1107 0
1104 -1107 0
-1044 -1042 1108 0
1044 -1108 0
1042 -1108 0
-1108 -1045 1109 0
1108 -1109 0
1045 -1109 0
-1099 1097 1110 0
1099 -1110 0
-1097 -1110 0
-1110 -1100 1111 0
1110 -1111 0
1100 -1111 0
-1025 -1024 1112 0
1025 -1112 0
1024 -1112 0
-1112 -1026 1113 0
1112 -1113 0
1026 -1113 0
1113 1111 1114 0
-1113 -1114 0
-1111 -1114 0
-1114 -1109 1115 0
1114 -1115 0
1109 -1115 0
1114 1109 1116 0
-1114 -1116 0
-1109 -1116 0
-1116 -1115 1117 0
1116 -1117 0
1115 -1117 0
1117 1107 1118 0
-1117 -1118 0
-1107 -1118 0
-1118 -1116 1119 0
1118 -1119 0
1116 -1119 0
-1048 -1038 1120 0
1048 -1120 0
1038 -1120 0
-1120 -1049 1121 0
1120 -1121 0
1049 -1121 0
-1121 1119 1122 0
1121 -1122 0
-1119 -1122 0
1121 -1119 1123 0
-1121 -1123 0
1119 -1123 0
-1123 -1122 1124 0
1123 -1124 0
1122 -1124 0
1124 -1105 1125 0
-1124 -1125 0
1105 -1125 0
-1125 -1123 1126 0
1125 -1126 0
1123 -1126 0
-1055 1036 1127 0
1055 -1127 0
-1036 -1127 0
-1127 -1056 1128 0
1127 -1128 0
1056 -1128 0
-1128 1126 1129 0
1128 -1129 0
-1126 -1129 0
1128 -1126 1130 0
-1128 -1130 0
1126 -1130 0
-1130 -1129 1131 0
1130 -1131 0
1129 -1131 0
15 13 1132 0
-15 -1132 0
-13 -1132 0
1132 1131 1133 0
-1132 -1133 0
-1131 -1133 0
-1133 -1130 1134 0
1133 -1134 0
1130 -1134 0
-1063 -1062 1135 0
1063 -1135 0
1062 -1135 0
-1135 -1064 1136 0
1135 -1136 0
1064 -1136 0
-1136 1134 1137 0
1136 -1137 0
-1134 -1137 0
1136 -1134 1138 0
-1136 -1138 0
1134 -1138 0
-1138 -1137 1139 0
1138 -1139 0
1137 -1139 0
16 8 1140 0
-16 -1140 0
-8 -1140 0
17 6 1141 0
-17 -1141 0
-6 -1141 0
18 5 1142 0
-18 -1142 0
-5 -1142 0
19 4 1143 0
-19 -1143 0
-4 -1143 0
-1143 -1142 1144 0
1143 -1144 0
1142 -1144 0
1143 1142 1145 0
-1143 -1145 0
-1142 -1145 0
-1145 -1144 1146 0
1145 -1146 0
1144 -1146 0
1146 1141 1147 0
-1146 -1147 0
-1141 -1147 0
-1147 -1145 1148 0
1147 -1148 0
1145 -1148 0
-1078 -1073 1149 0
1078 -1149 0
1073 -1149 0
-1149 -1079 1150 0
1149 -1150 0
1079 -1150 0
-1150 1148 1151 0
1150 -1151 0
-1148 -1151 0
1150 -1148 1152 0
-1150 -1152 0
1148 -1152 0
-1152 -1151 1153 0
1152 -1153 0
1151 -1153 0
1153 1140 1154 0
-1153 -1154 0
-1140 -1154 0
-1154 -1152 1155 0
1154 -1155 0
1152 -1155 0
-1085 -1072 1156 0
1085 -1156 0
1072 -1156 0
-1156 -1086 1157 0
1156 -1157 0
1086 -1157 0
20 3 1158 0
-20 -1158 0
-3 -1158 0
21 2 1159 0
-21 -1159 0
-2 -1159 0
22 1 1160 0
-22 -1160 0
-1 -1160 0
-1160 -1159 1161 0
1160 -1161 0
1159 -1161 0
1160 1159 1162 0
-1160 -1162 0
-1159 -1162 0
-1162 -1161 1163 0
1162 -1163 0
1161 -1163 0
1163 1158 1164 0
-1163 -1164 0
-1158 -1164 0
-1164 -1162 1165 0
1164 -1165 0
1162 -1165 0
-1095 -1090 1166 0
1095 -1166 0
1090 -1166 0
-1166 -1096 1167 0
1166 -1167 0
1096 -1167 0
1167 -1165 1168 0
-1167 -1168 0
1165 -1168 0
-1168 -1157 1169 0
1168 -1169 0
1157 -1169 0
1168 1157 1170 0
-1168 -1170 0
-1157 -1170 0
-1170 -1169 1171 0
1170 -1171 0
1169 -1171 0
1171 -1155 1172 0
-1171 -1172 0
1155 -1172 0
-1172 -1170 1173 0
1172 -1173 0
1170 -1173 0
-1171 1155 1174 0
1171 -1174 0
-1155 -1174 0
-1174 -1172 1175 0
1174 -1175 0
1172 -1175 0
-1113 -1111 1176 0
1113 -1176 0
1111 -1176 0
-1176 -1114 1177 0
1176 -1177 0
1114 -1177 0
-1167 1165 1178 0
1167 -1178 0
-1165 -1178 0
-1178 -1168 1179 0
1178 -1179 0
1168 -1179 0
23 1 1180 0
-23 -1180 0
-1 -1180 0
1180 1179 1181 0
-1180 -1181 0
-1179 -1181 0
-1181 -1177 1182 0
1181 -1182 0
1177 -1182 0
1181 1177 1183 0
-1181 -1183 0
-1177 -1183 0
-1183 -1182 1184 0
1183 -1184 0
1182 -1184 0
1184 1175 1185 0
-1184 -1185 0
-1175 -1185 0
-1185 -1183 1186 0
1185 -1186 0
1183 -1186 0
-1117 -1107 1187 0
1117 -1187 0
1107 -1187 0
-1187 -1118 1188 0
1187 -1188 0
1118 -1188 0
-1188 1186 1189 0
1188 -1189 0
-1186 -1189 0
1188 -1186 1190 0
-1188 -1190 0
1186 -1190 0
-1190 -1189 1191 0
1190 -1191 0
1189 -1191 0
1191 -1173 1192 0
-1191 -1192 0
1173 -1192 0
-1192 -1190 1193 0
1192 -1193 0
1190 -1193 0
-1124 1105 1194 0
1124 -1194 0
-1105 -1194 0
-1194 -1125 1195 0
1194 -1195 0
1125 -1195 0
-1195 1193 1196 0
1195 -1196 0
-1193 -1196 0
1195 -1193 1197 0
-1195 -1197 0
1193 -1197 0
-1197 -1196 1198 0
1197 -1198 0
1196 -1198 0
15 12 1199 0
-15 -1199 0
-12 -1199 0
1199 1198 1200 0
-1199 -1200 0
-1198 -1200 0
-1200 -1197 1201 0
1200 -1201 0
1197 -1201 0
-1132 -1131 1202 0
1132 -1202 0
1131 -1202 0
-1202 -1133 1203 0
1202 -1203 0
1133 -1203 0
-1203 1201 1204 0
1203 -1204 0
-1201 -1204 0
1203 -1201 1205 0
-1203 -1205 0
1201 -1205 0
-1205 -1204 1206 0
1205 -1206 0
1204 -1206 0
1206 1139 1207 0
-1206 -1207 0
-1139 -1207 0
1207 1071 1208 0
-1207 -1208 0
-1071 -1208 0
16 7 1209 0
-16 -1209 0
-7 -1209 0
17 5 1210 0
-17 -1210 0
-5 -1210 0
18 4 1211 0
-18 -1211 0
-4 -1211 0
19 3 1212 0
-19 -1212 0
-3 -1212 0
-1212 -1211 1213 0
1212 -1213 0
1211 -1213 0
1212 1211 1214 0
-1212 -1214 0
-1211 -1214 0
-1214 -1213 1215 0
1214 -1215 0
1213 -1215 0
1215 1210 1216 0
-1215 -1216 0
-1210 -1216 0
-1216 -1214 1217 0
1216 -1217 0
1214 -1217 0
-1146 -1141 1218 0
1146 -1218 0
1141 -1218 0
-1218 -1147 1219 0
1218 -1219 0
1147 -1219 0
-1219 1217 1220 0
1219 -1220 0
-1217 -1220 0
1219 -1217 1221 0
-1219 -1221 0
1217 -1221 0
-1221 -1220 1222 0
1221 -1222 0
1220 -1222 0
1222 1209 1223 0
-1222 -1223 0
-1209 -1223 0
-1223 -1221 1224 0
1223 -1224 0
1221 -1224 0
-1153 -1140 1225 0
1153 -1225 0
1140 -1225 0
-1225 -1154 1226 0
1225 -1226 0
1154 -1226 0
-1163 -1158 1227 0
1163 -1227 0
1158 -1227 0
-1227 -1164 1228 0
1227 -1228 0
1164 -1228 0
20 2 1229 0
-20 -1229 0
-2 -1229 0
21 1 1230 0
-21 -1230 0
-1 -1230 0
1230 1229 1231 0
-1230 -1231 0
-1229 -1231 0
1231 1228 1232 0
-1231 -1232 0
-1228 -1232 0
-1232 -1226 1233 0
1232 -1233 0
1226 -1233 0
1232 1226 1234 0
-1232 -1234 0
-1226 -1234 0
-1234 -1233 1235 0
1234 -1235 0
1233 -1235 0
1235 -1224 1236 0
-1235 -1236 0
1224 -1236 0
-1236 -1234 1237 0
1236 -1237 0
1234 -1237 0
-1184 -1175 1238 0
1184 -1238 0
1175 -1238 0
-1238 -1185 1239 0
1238 -1239 0
1185 -1239 0
-1235 1224 1240 0
1235 -1240 0
-1224 -1240 0
-1240 -1236 1241 0
1240 -1241 0
1236 -1241 0
-1180 -1179 1242 0
1180 -1242 0
1179 -1242 0
-1242 -1181 1243 0
1242 -1243 0
1181 -1243 0
1243 1241 1244 0
-1243 -1244 0
-1241 -1244 0
-1244 -1239 1245 0
1244 -1245 0
1239 -1245 0
1244 1239 1246 0
-1244 -1246 0
-1239 -1246 0
-1246 -1245 1247 0
1246 -1247 0
1245 -1247 0
1247 -1237 1248 0
-1247 -1248 0
1237 -1248 0
-1248 -1246 1249 0
1248 -1249 0
1246 -1249 0
-1191 1173 1250 0
1191 -1250 0
-1173 -1250 0
-1250 -1192 1251 0
1250 -1251 0
1192 -1251 0
-1251 1249 1252 0
1251 -1252 0
-1249 -1252 0
1251 -1249 1253 0
-1251 -1253 0
1249 -1253 0
-1253 -1252 1254 0
1253 -1254 0
1252 -1254 0
15 11 1255 0
-15 -1255 0
-11 -1255 0
1255 1254 1256 0
-1255 -1256 0
-1254 -1256 0
-1256 -1253 1257 0
1256 -1257 0
1253 -1257 0
-1199 -1198 1258 0
1199 -1258 0
1198 -1258 0
-1258 -1200 1259 0
1258 -1259 0
1200 -1259 0
-1259 1257 1260 0
1259 -1260 0
-1257 -1260 0
1259 -1257 1261 0
-1259 -1261 0
1257 -1261 0
-1261 -1260 1262 0
1261 -1262 0
1260 -1262 0
-1243 -1241 1263 0
1243 -1263 0
1241 -1263 0
-1263 -1244 1264 0
1263 -1264 0
1244 -1264 0
16 6 1265 0
-16 -1265 0
-6 -1265 0
17 4 1266 0
-17 -1266 0
-4 -1266 0
18 3 1267 0
-18 -1267 0
-3 -1267 0
19 2 1268 0
-19 -1268 0
-2 -1268 0
-1268 -1267 1269 0
1268 -1269 0
1267 -1269 0
1268 1267 1270 0
-1268 -1270 0
-1267 -1270 0
-1270 -1269 1271 0
1270 -1271 0
1269 -1271 0
1271 1266 1272 0
-1271 -1272 0
-1266 -1272 0
-1272 -1270 1273 0
1272 -1273 0
1270 -1273 0
-1215 -1210 1274 0
1215 -1274 0
1210 -1274 0
-1274 -1216 1275 0
1274 -1275 0
1216 -1275 0
-1275 1273 1276 0
1275 -1276 0
-1273 -1276 0
1275 -1273 1277 0
-1275 -1277 0
1273 -1277 0
-1277 -1276 1278 0
1277 -1278 0
1276 -1278 0
1278 1265 1279 0
-1278 -1279 0
-1265 -1279 0
-1279 -1277 1280 0
1279 -1280 0
1277 -1280 0
-1222 -1209 1281 0
1222 -1281 0
1209 -1281 0
-1281 -1223 1282 0
1281 -1282 0
1223 -1282 0
-1282 1280 1283 0
1282 -1283 0
-1280 -1283 0
1282 -1280 1284 0
-1282 -1284 0
1280 -1284 0
-1284 -1283 1285 0
1284 -1285 0
1283 -1285 0
-1231 -1228 1286 0
1231 -1286 0
1228 -1286 0
-1286 -1232 1287 0
1286 -1287 0
1232 -1287 0
1287 1285 1288 0
-1287 -1288 0
-1285 -1288 0
-1288 -1264 1289 0
1288 -1289 0
1264 -1289 0
1288 1264 1290 0
-1288 -1290 0
-1264 -1290 0
-1290 -1289 1291 0
1290 -1291 0
1289 -1291 0
1291 1284 1292 0
-1291 -1292 0
-1284 -1292 0
-1292 -1290 1293 0
1292 -1293 0
1290 -1293 0
-1247 1237 1294 0
1247 -1294 0
-1237 -1294 0
-1294 -1248 1295 0
1294 -1295 0
1248 -1295 0
-1295 1293 1296 0
1295 -1296 0
-1293 -1296 0
1295 -1293 1297 0
-1295 -1297 0
1293 -1297 0
-1297 -1296 1298 0
1297 -1298 0
1296 -1298 0
15 10 1299 0
-15 -1299 0
-10 -1299 0
1299 1298 1300 0
-1299 -1300 0
-1298 -1300 0
-1300 -1297 1301 0
1300 -1301 0
1297 -1301 0
-1255 -1254 1302 0
1255 -1302 0
1254 -1302 0
-1302 -1256 1303 0
1302 -1303 0
1256 -1303 0
-1303 1301 1304 0
1303 -1304 0
-1301 -1304 0
1303 -1301 1305 0
-1303 -1305 0
1301 -1305 0
-1305 -1304 1306 0
1305 -1306 0
1304 -1306 0
1306 1262 1307 0
-1306 -1307 0
-1262 -1307 0
-1287 -1285 1308 0
1287 -1308 0
1285 -1308 0
-1308 -1288 1309 0
1308 -1309 0
1288 -1309 0
16 5 1310 0
-16 -1310 0
-5 -1310 0
17 3 1311 0
-17 -1311 0
-3 -1311 0
18 2 1312 0
-18 -1312 0
-2 -1312 0
19 1 1313 0
-19 -1313 0
-1 -1313 0
-1313 -1312 1314 0
1313 -1314 0
1312 -1314 0
1313 1312 1315 0
-1313 -1315 0
-1312 -1315 0
-1315 -1314 1316 0
1315 -1316 0
1314 -1316 0
1316 1311 1317 0
-1316 -1317 0
-1311 -1317 0
-1317 -1315 1318 0
1317 -1318 0
1315 -1318 0
-1271 -1266 1319 0
1271 -1319 0
1266 -1319 0
-1319 -1272 1320 0
1319 -1320 0
1272 -1320 0
-1320 1318 1321 0
1320 -1321 0
-1318 -1321 0
1320 -1318 1322 0
-1320 -1322 0
1318 -1322 0
-1322 -1321 1323 0
1322 -1323 0
1321 -1323 0
1323 1310 1324 0
-1323 -1324 0
-1310 -1324 0
-1324 -1322 1325 0
1324 -1325 0
1322 -1325 0
-1278 -1265 1326 0
1278 -1326 0
1265 -1326 0
-1326 -1279 1327 0
1326 -1327 0
1279 -1327 0
-1327 1325 1328 0
1327 -1328 0
-1325 -1328 0
1327 -1325 1329 0
-1327 -1329 0
1325 -1329 0
-1329 -1328 1330 0
1329 -1330 0
1328 -1330 0
-1230 -1229 1331 0
1230 -1331 0
1229 -1331 0
-1331 -1231 1332 0
1331 -1332 0
1231 -1332 0
1332 1330 1333 0
-1332 -1333 0
-1330 -1333 0
-1333 -1309 1334 0
1333 -1334 0
1309 -1334 0
1333 1309 1335 0
-1333 -1335 0
-1309 -1335 0
-1335 -1334 1336 0
1335 -1336 0
1334 -1336 0
1336 1329 1337 0
-1336 -1337 0
-1329 -1337 0
-1337 -1335 1338 0
1337 -1338 0
1335 -1338 0
-1291 -1284 1339 0
1291 -1339 0
1284 -1339 0
-1339 -1292 1340 0
1339 -1340 0
1292 -1340 0
-1340 1338 1341 0
1340 -1341 0
-1338 -1341 0
1340 -1338 1342 0
-1340 -1342 0
1338 -1342 0
-1342 -1341 1343 0
1342 -1343 0
1341 -1343 0
15 9 1344 0
-15 -1344 0
-9 -1344 0
1344 1343 1345 0
-1344 -1345 0
-1343 -1345 0
-1345 -1342 1346 0
1345 -1346 0
1342 -1346 0
-1299 -1298 1347 0
1299 -1347 0
1298 -1347 0
-1347 -1300 1348 0
1347 -1348 0
1300 -1348 0
-1348 1346 1349 0
1348 -1349 0
-1346 -1349 0
1348 -1346 1350 0
-1348 -1350 0
1346 -1350 0
-1350 -1349 1351 0
1350 -1351 0
1349 -1351 0
-1332 -1330 1352 0
1332 -1352 0
1330 -1352 0
-1352 -1333 1353 0
1352 -1353 0
1333 -1353 0
16 4 1354 0
-16 -1354 0
-4 -1354 0
-1316 -1311 1355 0
1316 -1355 0
1311 -1355 0
-1355 -1317 1356 0
1355 -1356 0
1317 -1356 0
17 2 1357 0
-17 -1357 0
-2 -1357 0
18 1 1358 0
-18 -1358 0
-1 -1358 0
1358 1357 1359 0
-1358 -1359 0
-1357 -1359 0
-1359 -1356 1360 0
1359 -1360 0
1356 -1360 0
1359 1356 1361 0
-1359 -1361 0
-1356 -1361 0
-1361 -1360 1362 0
1361 -1362 0
1360 -1362 0
1362 1354 1363 0
-1362 -1363 0
-1354 -1363 0
-1363 -1361 1364 0
1363 -1364 0
1361 -1364 0
-1323 -1310 1365 0
1323 -1365 0
1310 -1365 0
-1365 -1324 1366 0
1365 -1366 0
1324 -1366 0
-1366 1364 1367 0
1366 -1367 0
-1364 -1367 0
1366 -1364 1368 0
-1366 -1368 0
1364 -1368 0
-1368 -1367 1369 0
1368 -1369 0
1367 -1369 0
20 1 1370 0
-20 -1370 0
-1 -1370 0
1370 1369 1371 0
-1370 -1371 0
-1369 -1371 0
-1371 -1353 1372 0
1371 -1372 0
1353 -1372 0
1371 1353 1373 0
-1371 -1373 0
-1353 -1373 0
-1373 -1372 1374 0
1373 -1374 0
1372 -1374 0
1374 1368 1375 0
-1374 -1375 0
-1368 -1375 0
-1375 -1373 1376 0
1375 -1376 0
1373 -1376 0
-1336 -1329 1377 0
1336 -1377 0
1329 -1377 0
-1377 -1337 1378 0
1377 -1378 0
1337 -1378 0
-1378 1376 1379 0
1378 -1379 0
-1376 -1379 0
1378 -1376 1380 0
-1378 -1380 0
1376 -1380 0
-1380 -1379 1381 0
1380 -1381 0
1379 -1381 0
15 8 1382 0
-15 -1382 0
-8 -1382 0
1382 1381 1383 0
-1382 -1383 0
-1381 -1383 0
-1383 -1380 1384 0
1383 -1384 0
1380 -1384 0
-1344 -1343 1385 0
1344 -1385 0
1343 -1385 0
-1385 -1345 1386 0
1385 -1386 0
1345 -1386 0
-1386 1384 1387 0
1386 -1387 0
-1384 -1387 0
1386 -1384 1388 0
-1386 -1388 0
1384 -1388 0
-1388 -1387 1389 0
1388 -1389 0
1387 -1389 0
1389 1351 1390 0
-1389 -1390 0
-1351 -1390 0
1390 1307 1391 0
-1390 -1391 0
-1307 -1391 0
1391 1208 1392 0
-1391 -1392 0
-1208 -1392 0
-1374 -1368 1393 0
1374 -1393 0
1368 -1393 0
-1393 -1375 1394 0
1393 -1394 0
1375 -1394 0
-1370 -1369 1395 0
1370 -1395 0
1369 -1395 0
-1395 -1371 1396 0
1395 -1396 0
1371 -1396 0
-1362 -1354 1397 0
1362 -1397 0
1354 -1397 0
-1397 -1363 1398 0
1397 -1398 0
1363 -1398 0
16 3 1399 0
-16 -1399 0
-3 -1399 0
-1358 -1357 1400 0
1358 -1400 0
1357 -1400 0
-1400 -1359 1401 0
1400 -1401 0
1359 -1401 0
1401 1399 1402 0
-1401 -1402 0
-1399 -1402 0
1402 1398 1403 0
-1402 -1403 0
-1398 -1403 0
1403 1396 1404 0
-1403 -1404 0
-1396 -1404 0
-1404 -1394 1405 0
1404 -1405 0
1394 -1405 0
1404 1394 1406 0
-1404 -1406 0
-1394 -1406 0
-1406 -1405 1407 0
1406 -1407 0
1405 -1407 0
15 7 1408 0
-15 -1408 0
-7 -1408 0
1408 1407 1409 0
-1408 -1409 0
-1407 -1409 0
-1409 -1406 1410 0
1409 -1410 0
1406 -1410 0
-1382 -1381 1411 0
1382 -1411 0
1381 -1411 0
-1411 -1383 1412 0
1411 -1412 0
1383 -1412 0
-1412 1410 1413 0
1412 -1413 0
-1410 -1413 0
1412 -1410 1414 0
-1412 -1414 0
1410 -1414 0
-1414 -1413 1415 0
1414 -1415 0
1413 -1415 0
-1403 -1396 1416 0
1403 -1416 0
1396 -1416 0
-1416 -1404 1417 0
1416 -1417 0
1404 -1417 0
-1402 -1398 1418 0
1402 -1418 0
1398 -1418 0
-1418 -1403 1419 0
1418 -1419 0
1403 -1419 0
-1401 -1399 1420 0
1401 -1420 0
1399 -1420 0
-1420 -1402 1421 0
1420 -1421 0
1402 -1421 0
16 2 1422 0
-16 -1422 0
-2 -1422 0
17 1 1423 0
-17 -1423 0
-1 -1423 0
1423 1422 1424 0
-1423 -1424 0
-1422 -1424 0
1424 1421 1425 0
-1424 -1425 0
-1421 -1425 0
1425 1419 1426 0
-1425 -1426 0
-1419 -1426 0
-1426 -1417 1427 0
1426 -1427 0
1417 -1427 0
1426 1417 1428 0
-1426 -1428 0
-1417 -1428 0
-1428 -1427 1429 0
1428 -1429 0
1427 -1429 0
15 6 1430 0
-15 -1430 0
-6 -1430 0
1430 1429 1431 0
-1430 -1431 0
-1429 -1431 0
-1431 -1428 1432 0
1431 -1432 0
1428 -1432 0
-1408 -1407 1433 0
1408 -1433 0
1407 -1433 0
-1433 -1409 1434 0
1433 -1434 0
1409 -1434 0
-1434 1432 1435 0
1434 -1435 0
-1432 -1435 0
1434 -1432 1436 0
-1434 -1436 0
1432 -1436 0
-1436 -1435 1437 0
1436 -1437 0
1435 -1437 0
1437 1415 1438 0
-1437 -1438 0
-1415 -1438 0
-1430 -1429 1439 0
1430 -1439 0
1429 -1439 0
-1439 -1431 1440 0
1439 -1440 0
1431 -1440 0
-1425 -1419 1441 0
1425 -1441 0
1419 -1441 0
-1441 -1426 1442 0
1441 -1442 0
1426 -1442 0
15 5 1443 0
-15 -1443 0
-5 -1443 0
1443 1442 1444 0
-1443 -1444 0
-1442 -1444 0
-1444 -1440 1445 0
1444 -1445 0
1440 -1445 0
1444 1440 1446 0
-1444 -1446 0
-1440 -1446 0
-1446 -1445 1447 0
1446 -1447 0
1445 -1447 0
-1443 -1442 1448 0
1443 -1448 0
1442 -1448 0
-1448 -1444 1449 0
1448 -1449 0
1444 -1449 0
-1424 -1421 1450 0
1424 -1450 0
1421 -1450 0
-1450 -1425 1451 0
1450 -1451 0
1425 -1451 0
15 4 1452 0
-15 -1452 0
-4 -1452 0
1452 1451 1453 0
-1452 -1453 0
-1451 -1453 0
-1453 -1449 1454 0
1453 -1454 0
1449 -1454 0
1453 1449 1455 0
-1453 -1455 0
-1449 -1455 0
-1455 -1454 1456 0
1455 -1456 0
1454 -1456 0
1456 1447 1457 0
-1456 -1457 0
-1447 -1457 0
1457 1438 1458 0
-1457 -1458 0
-1438 -1458 0
-1452 -1451 1459 0
1452 -1459 0
1451 -1459 0
-1459 -1453 1460 0
1459 -1460 0
1453 -1460 0
-1423 -1422 1461 0
1423 -1461 0
1422 -1461 0
-1461 -1424 1462 0
1461 -1462 0
1424 -1462 0
15 3 1463 0
-15 -1463 0
-3 -1463 0
1463 1462 1464 0
-1463 -1464 0
-1462 -1464 0
-1464 -1460 1465 0
1464 -1465 0
1460 -1465 0
1464 1460 1466 0
-1464 -1466 0
-1460 -1466 0
-1466 -1465 1467 0
1466 -1467 0
1465 -1467 0
-1463 -1462 1468 0
1463 -1468 0
1462 -1468 0
-1468 -1464 1469 0
1468 -1469 0
1464 -1469 0
16 1 1470 0
-16 -1470 0
-1 -1470 0
15 2 1471 0
-15 -1471 0
-2 -1471 0
1471 1470 1472 0
-1471 -1472 0
-1470 -1472 0
1472 1469 1473 0
-1472 -1473 0
-1469 -1473 0
1473 1467 1474 0
-1473 -1474 0
-1467 -1474 0
-1474 -1466 1475 0
1474 -1475 0
1466 -1475 0
-1475 1458 1476 0
1475 -1476 0
-1458 -1476 0
1455 1447 1477 0
-1455 -1477 0
-1447 -1477 0
-1477 -1446 1478 0
1477 -1478 0
1446 -1478 0
-1478 1438 1479 0
1478 -1479 0
-1438 -1479 0
1436 1415 1480 0
-1436 -1480 0
-1415 -1480 0
-1480 -1414 1481 0
1480 -1481 0
1414 -1481 0
1481 -1479 1482 0
-1481 -1482 0
1479 -1482 0
1482 -1476 1483 0
-1482 -1483 0
1476 -1483 0
-1483 1392 1484 0
1483 -1484 0
-1392 -1484 0
1388 1351 1485 0
-1388 -1485 0
-1351 -1485 0
-1485 -1350 1486 0
1485 -1486 0
1350 -1486 0
-1486 1307 1487 0
1486 -1487 0
-1307 -1487 0
1305 1262 1488 0
-1305 -1488 0
-1262 -1488 0
-1488 -1261 1489 0
1488 -1489 0
1261 -1489 0
1489 -1487 1490 0
-1489 -1490 0
1487 -1490 0
-1490 1208 1491 0
1490 -1491 0
-1208 -1491 0
1205 1139 1492 0
-1205 -1492 0
-1139 -1492 0
-1492 -1138 1493 0
1492 -1493 0
1138 -1493 0
-1493 1071 1494 0
1493 -1494 0
-1071 -1494 0
1069 995 1495 0
-1069 -1495 0
-995 -1495 0
-1495 -994 1496 0
1495 -1496 0
994 -1496 0
1496 -1494 1497 0
-1496 -1497 0
1494 -1497 0
1497 -1491 1498 0
-1497 -1498 0
1491 -1498 0
1498 -1484 1499 0
-1498 -1499 0
1484 -1499 0
-1499 920 1500 0
1499 -1500 0
-920 -1500 0
916 834 1501 0
-916 -1501 0
-834 -1501 0
-1501 -833 1502 0
1501 -1502 0
833 -1502 0
-1502 750 1503 0
1502 -1503 0
-750 -1503 0
748 658 1504 0
-748 -1504 0
-658 -1504 0
-1504 -657 1505 0
1504 -1505 0
657 -1505 0
1505 -1503 1506 0
-1505 -1506 0
1503 -1506 0
-1506 567 1507 0
1506 -1507 0
-567 -1507 0
564 474 1508 0
-564 -1508 0
-474 -1508 0
-1508 -473 1509 0
1508 -1509 0
473 -1509 0
-1509 395 1510 0
1509 -1510 0
-395 -1510 0
393 327 1511 0
-393 -1511 0
-327 -1511 0
-1511 -326 1512 0
1511 -1512 0
326 -1512 0
1512 -1510 1513 0
-1512 -1513 0
1510 -1513 0
1513 -1507 1514 0
-1513 -1514 0
1507 -1514 0
1514 -1500 1515 0
-1514 -1515 0
1500 -1515 0
-1515 260 1516 0
1515 -1516 0
-260 -1516 0
258 198 1517 0
-258 -1517 0
-198 -1517 0
-1517 -197 1518 0
1517 -1518 0
197 -1518 0
1518 -1516 1519 0
-1518 -1519 0
1516 -1519 0
28 14 1520 0
-28 -1520 0
-14 -1520 0
-1520 -40 1521 0
1520 -1521 0
40 -1521 0
1520 40 1522 0
-1520 -1522 0
-40 -1522 0
-1522 -1521 1523 0
1522 -1523 0
1521 -1523 0
-1523 -43 1524 0
1523 -1524 0
43 -1524 0
1523 43 1525 0
-1523 -1525 0
-43 -1525 0
-1525 -1524 1526 0
1525 -1526 0
1524 -1526 0
-1526 -57 1527 0
1526 -1527 0
57 -1527 0
1526 57 1528 0
-1526 -1528 0
-57 -1528 0
-1528 -1527 1529 0
1528 -1529 0
1527 -1529 0
-1529 -79 1530 0
1529 -1530 0
79 -1530 0
1529 79 1531 0
-1529 -1531 0
-79 -1531 0
-1531 -1530 1532 0
1531 -1532 0
1530 -1532 0
-1532 -112 1533 0
1532 -1533 0
112 -1533 0
1532 112 1534 0
-1532 -1534 0
-112 -1534 0
-1534 -1533 1535 0
1534 -1535 0
1533 -1535 0
-1535 -153 1536 0
1535 -1536 0
153 -1536 0
1535 153 1537 0
-1535 -1537 0
-153 -1537 0
-1537 -1536 1538 0
1537 -1538 0
1536 -1538 0
1538 -1519 1539 0
-1538 -1539 0
1519 -1539 0
-1539 -1537 1540 0
1539 -1540 0
1537 -1540 0
-1525 -1522 1541 0
1525 -1541 0
1522 -1541 0
1525 1522 1542 0
-1525 -1542 0
-1522 -1542 0
-1542 -1541 1543 0
1542 -1543 0
1541 -1543 0
-1543 -1528 1544 0
1543 -1544 0
1528 -1544 0
1543 1528 1545 0
-1543 -1545 0
-1528 -1545 0
-1545 -1544 1546 0
1545 -1546 0
1544 -1546 0
-1546 -1531 1547 0
1546 -1547 0
1531 -1547 0
1546 1531 1548 0
-1546 -1548 0
-1531 -1548 0
-1548 -1547 1549 0
1548 -1549 0
1547 -1549 0
-1549 -1534 1550 0
1549 -1550 0
1534 -1550 0
1549 1534 1551 0
-1549 -1551 0
-1534 -1551 0
-1551 -1550 1552 0
1551 -1552 0
1550 -1552 0
-1552 1540 1553 0
1552 -1553 0
-1540 -1553 0
1552 -1540 1554 0
-1552 -1554 0
1540 -1554 0
-1554 -1553 1555 0
1554 -1555 0
1553 -1555 0
-1463 -2 1556 0
1463 -1556 0
2 -1556 0
1463 2 1557 0
-1463 -1557 0
-2 -1557 0
-1557 -1556 1558 0
1557 -1558 0
1556 -1558 0
1471 1 1559 0
-1471 -1559 0
-1 -1559 0
1559 1558 1560 0
-1559 -1560 0
-1558 -1560 0
-1560 -1557 1561 0
1560 -1561 0
1557 -1561 0
-1452 -3 1562 0
1452 -1562 0
3 -1562 0
1452 3 1563 0
-1452 -1563 0
-3 -1563 0
-1563 -1562 1564 0
1563 -1564 0
1562 -1564 0
-1564 1561 1565 0
1564 -1565 0
-1561 -1565 0
1564 -1561 1566 0
-1564 -1566 0
1561 -1566 0
-1566 -1565 1567 0
1566 -1567 0
1565 -1567 0
1567 16 1568 0
-1567 -1568 0
-16 -1568 0
1452 -16 1569 0
-1452 -1569 0
16 -1569 0
-1569 -1568 1570 0
1569 -1570 0
1568 -1570 0
1570 -2 1571 0
-1570 -1571 0
2 -1571 0
-1570 2 1572 0
1570 -1572 0
-2 -1572 0
-1572 -1571 1573 0
1572 -1573 0
1571 -1573 0
-1559 -1558 1574 0
1559 -1574 0
1558 -1574 0
-1574 -1560 1575 0
1574 -1575 0
1560 -1575 0
1575 16 1576 0
-1575 -1576 0
-16 -1576 0
1463 -16 1577 0
-1463 -1577 0
16 -1577 0
-1577 -1576 1578 0
1577 -1578 0
1576 -1578 0
-1578 1 1579 0
1578 -1579 0
-1 -1579 0
1579 1573 1580 0
-1579 -1580 0
-1573 -1580 0
-1580 -1572 1581 0
1580 -1581 0
1572 -1581 0
1564 1558 1582 0
-1564 -1582 0
-1558 -1582 0
1582 1559 1583 0
-1582 -1583 0
-1559 -1583 0
1564 1557 1584 0
-1564 -1584 0
-1557 -1584 0
-1584 -1563 1585 0
1584 -1585 0
1563 -1585 0
1585 -1583 1586 0
-1585 -1586 0
1583 -1586 0
-1443 -4 1587 0
1443 -1587 0
4 -1587 0
1443 4 1588 0
-1443 -1588 0
-4 -1588 0
-1588 -1587 1589 0
1588 -1589 0
1587 -1589 0
-1589 1586 1590 0
1589 -1590 0
-1586 -1590 0
1589 -1586 1591 0
-1589 -1591 0
1586 -1591 0
-1591 -1590 1592 0
1591 -1592 0
1590 -1592 0
1592 16 1593 0
-1592 -1593 0
-16 -1593 0
1443 -16 1594 0
-1443 -1594 0
16 -1594 0
-1594 -1593 1595 0
1594 -1595 0
1593 -1595 0
1595 -3 1596 0
-1595 -1596 0
3 -1596 0
-1595 3 1597 0
1595 -1597 0
-3 -1597 0
-1597 -1596 1598 0
1597 -1598 0
1596 -1598 0
1598 -1581 1599 0
-1598 -1599 0
1581 -1599 0
-1599 -1597 1600 0
1599 -1600 0
1597 -1600 0
-1591 -1588 1601 0
1591 -1601 0
1588 -1601 0
-1430 -5 1602 0
1430 -1602 0
5 -1602 0
1430 5 1603 0
-1430 -1603 0
-5 -1603 0
-1603 -1602 1604 0
1603 -1604 0
1602 -1604 0
-1604 1601 1605 0
1604 -1605 0
-1601 -1605 0
1604 -1601 1606 0
-1604 -1606 0
1601 -1606 0
-1606 -1605 1607 0
1606 -1607 0
1605 -1607 0
1607 16 1608 0
-1607 -1608 0
-16 -1608 0
1430 -16 1609 0
-1430 -1609 0
16 -1609 0
-1609 -1608 1610 0
1609 -1610 0
1608 -1610 0
1610 -4 1611 0
-1610 -1611 0
4 -1611 0
-1610 4 1612 0
1610 -1612 0
-4 -1612 0
-1612 -1611 1613 0
1612 -1613 0
1611 -1613 0
-1613 1600 1614 0
1613 -1614 0
-1600 -1614 0
1613 -1600 1615 0
-1613 -1615 0
1600 -1615 0
-1615 -1614 1616 0
1615 -1616 0
1614 -1616 0
1616 17 1617 0
-1616 -1617 0
-17 -1617 0
-1610 -17 1618 0
1610 -1618 0
17 -1618 0
-1618 -1617 1619 0
1618 -1619 0
1617 -1619 0
1619 -3 1620 0
-1619 -1620 0
3 -1620 0
-1619 3 1621 0
1619 -1621 0
-3 -1621 0
-1621 -1620 1622 0
1621 -1622 0
1620 -1622 0
-1598 1581 1623 0
1598 -1623 0
-1581 -1623 0
-1623 -1599 1624 0
1623 -1624 0
1599 -1624 0
1624 17 1625 0
-1624 -1625 0
-17 -1625 0
-1595 -17 1626 0
1595 -1626 0
17 -1626 0
-1626 -1625 1627 0
1626 -1627 0
1625 -1627 0
1627 -2 1628 0
-1627 -1628 0
2 -1628 0
-1627 2 1629 0
1627 -1629 0
-2 -1629 0
-1629 -1628 1630 0
1629 -1630 0
1628 -1630 0
1630 1622 1631 0
-1630 -1631 0
-1622 -1631 0
-1579 -1573 1632 0
1579 -1632 0
1573 -1632 0
-1632 -1580 1633 0
1632 -1633 0
1580 -1633 0
1633 17 1634 0
-1633 -1634 0
-17 -1634 0
-1570 -17 1635 0
1570 -1635 0
17 -1635 0
-1635 -1634 1636 0
1635 -1636 0
1634 -1636 0
-1636 1 1637 0
1636 -1637 0
-1 -1637 0
1637 1631 1638 0
-1637 -1638 0
-1631 -1638 0
1629 1622 1639 0
-1629 -1639 0
-1622 -1639 0
-1639 -1621 1640 0
1639 -1640 0
1621 -1640 0
1640 -1638 1641 0
-1640 -1641 0
1638 -1641 0
1613 1598 1642 0
-1613 -1642 0
-1598 -1642 0
1642 -1581 1643 0
-1642 -1643 0
1581 -1643 0
1613 1597 1644 0
-1613 -1644 0
-1597 -1644 0
-1644 -1612 1645 0
1644 -1645 0
1612 -1645 0
1645 -1643 1646 0
-1645 -1646 0
1643 -1646 0
1604 1589 1647 0
-1604 -1647 0
-1589 -1647 0
1647 -1586 1648 0
-1647 -1648 0
1586 -1648 0
1604 1588 1649 0
-1604 -1649 0
-1588 -1649 0
-1649 -1603 1650 0
1649 -1650 0
1603 -1650 0
1650 -1648 1651 0
-1650 -1651 0
1648 -1651 0
-1408 -6 1652 0
1408 -1652 0
6 -1652 0
1408 6 1653 0
-1408 -1653 0
-6 -1653 0
-1653 -1652 1654 0
1653 -1654 0
1652 -1654 0
-1654 1651 1655 0
1654 -1655 0
-1651 -1655 0
1654 -1651 1656 0
-1654 -1656 0
1651 -1656 0
-1656 -1655 1657 0
1656 -1657 0
1655 -1657 0
1657 16 1658 0
-1657 -1658 0
-16 -1658 0
1408 -16 1659 0
-1408 -1659 0
16 -1659 0
-1659 -1658 1660 0
1659 -1660 0
1658 -1660 0
1660 -5 1661 0
-1660 -1661 0
5 -1661 0
-1660 5 1662 0
1660 -1662 0
-5 -1662 0
-1662 -1661 1663 0
1662 -1663 0
1661 -1663 0
-1663 1646 1664 0
1663 -1664 0
-1646 -1664 0
1663 -1646 1665 0
-1663 -1665 0
1646 -1665 0
-1665 -1664 1666 0
1665 -1666 0
1664 -1666 0
1666 17 1667 0
-1666 -1667 0
-17 -1667 0
-1660 -17 1668 0
1660 -1668 0
17 -1668 0
-1668 -1667 1669 0
1668 -1669 0
1667 -1669 0
1669 -4 1670 0
-1669 -1670 0
4 -1670 0
-1669 4 1671 0
1669 -1671 0
-4 -1671 0
-1671 -1670 1672 0
1671 -1672 0
1670 -1672 0
1672 -1641 1673 0
-1672 -1673 0
1641 -1673 0
-1673 -1671 1674 0
1673 -1674 0
1671 -1674 0
-1665 -1662 1675 0
1665 -1675 0
1662 -1675 0
-1656 -1653 1676 0
1656 -1676 0
1653 -1676 0
-1382 -7 1677 0
1382 -1677 0
7 -1677 0
1382 7 1678 0
-1382 -1678 0
-7 -1678 0
-1678 -1677 1679 0
1678 -1679 0
1677 -1679 0
-1679 1676 1680 0
1679 -1680 0
-1676 -1680 0
1679 -1676 1681 0
-1679 -1681 0
1676 -1681 0
-1681 -1680 1682 0
1681 -1682 0
1680 -1682 0
1682 16 1683 0
-1682 -1683 0
-16 -1683 0
1382 -16 1684 0
-1382 -1684 0
16 -1684 0
-1684 -1683 1685 0
1684 -1685 0
1683 -1685 0
1685 -6 1686 0
-1685 -1686 0
6 -1686 0
-1685 6 1687 0
1685 -1687 0
-6 -1687 0
-1687 -1686 1688 0
1687 -1688 0
1686 -1688 0
-1688 1675 1689 0
1688 -1689 0
-1675 -1689 0
1688 -1675 1690 0
-1688 -1690 0
1675 -1690 0
-1690 -1689 1691 0
1690 -1691 0
1689 -1691 0
1691 17 1692 0
-1691 -1692 0
-17 -1692 0
-1685 -17 1693 0
1685 -1693 0
17 -1693 0
-1693 -1692 1694 0
1693 -1694 0
1692 -1694 0
1694 -5 1695 0
-1694 -1695 0
5 -1695 0
-1694 5 1696 0
1694 -1696 0
-5 -1696 0
-1696 -1695 1697 0
1696 -1697 0
1695 -1697 0
-1697 1674 1698 0
1697 -1698 0
-1674 -1698 0
1697 -1674 1699 0
-1697 -1699 0
1674 -1699 0
-1699 -1698 1700 0
1699 -1700 0
1698 -1700 0
1700 18 1701 0
-1700 -1701 0
-18 -1701 0
-1694 -18 1702 0
1694 -1702 0
18 -1702 0
-1702 -1701 1703 0
1702 -1703 0
1701 -1703 0
1703 -4 1704 0
-1703 -1704 0
4 -1704 0
-1703 4 1705 0
1703 -1705 0
-4 -1705 0
-1705 -1704 1706 0
1705 -1706 0
1704 -1706 0
-1672 1641 1707 0
1672 -1707 0
-1641 -1707 0
-1707 -1673 1708 0
1707 -1708 0
1673 -1708 0
1708 18 1709 0
-1708 -1709 0
-18 -1709 0
-1669 -18 1710 0
1669 -1710 0
18 -1710 0
-1710 -1709 1711 0
1710 -1711 0
1709 -1711 0
1711 -3 1712 0
-1711 -1712 0
3 -1712 0
-1711 3 1713 0
1711 -1713 0
-3 -1713 0
-1713 -1712 1714 0
1713 -1714 0
1712 -1714 0
1714 1706 1715 0
-1714 -1715 0
-1706 -1715 0
1637 1630 1716 0
-1637 -1716 0
-1630 -1716 0
-1716 -1629 1717 0
1716 -1717 0
1629 -1717 0
1717 -1622 1718 0
-1717 -1718 0
1622 -1718 0
-1717 1622 1719 0
1717 -1719 0
-1622 -1719 0
-1719 -1718 1720 0
1719 -1720 0
1718 -1720 0
1720 18 1721 0
-1720 -1721 0
-18 -1721 0
-1619 -18 1722 0
1619 -1722 0
18 -1722 0
-1722 -1721 1723 0
1722 -1723 0
1721 -1723 0
1723 -2 1724 0
-1723 -1724 0
2 -1724 0
-1723 2 1725 0
1723 -1725 0
-2 -1725 0
-1725 -1724 1726 0
1725 -1726 0
1724 -1726 0
-1637 -1630 1727 0
1637 -1727 0
1630 -1727 0
-1727 -1716 1728 0
1727 -1728 0
1716 -1728 0
1728 18 1729 0
-1728 -1729 0
-18 -1729 0
-1627 -18 1730 0
1627 -1730 0
18 -1730 0
-1730 -1729 1731 0
1730 -1731 0
1729 -1731 0
-1731 1 1732 0
1731 -1732 0
-1 -1732 0
1732 1726 1733 0
-1732 -1733 0
-1726 -1733 0
-1733 -1725 1734 0
1733 -1734 0
1725 -1734 0
-1734 1715 1735 0
1734 -1735 0
-1715 -1735 0
1713 1706 1736 0
-1713 -1736 0
-1706 -1736 0
-1736 -1705 1737 0
1736 -1737 0
1705 -1737 0
1737 -1735 1738 0
-1737 -1738 0
1735 -1738 0
1697 1672 1739 0
-1697 -1739 0
-1672 -1739 0
1739 1631 1740 0
-1739 -1740 0
-1631 -1740 0
1740 1637 1741 0
-1740 -1741 0
-1637 -1741 0
1739 -1640 1742 0
-1739 -1742 0
1640 -1742 0
1697 1671 1743 0
-1697 -1743 0
-1671 -1743 0
-1743 -1696 1744 0
1743 -1744 0
1696 -1744 0
1744 -1742 1745 0
-1744 -1745 0
1742 -1745 0
1745 -1741 1746 0
-1745 -1746 0
1741 -1746 0
1688 1663 1747 0
-1688 -1747 0
-1663 -1747 0
1747 1642 1748 0
-1747 -1748 0
-1642 -1748 0
1748 -1581 1749 0
-1748 -1749 0
1581 -1749 0
1747 -1645 1750 0
-1747 -1750 0
1645 -1750 0
1688 1662 1751 0
-1688 -1751 0
-1662 -1751 0
-1751 -1687 1752 0
1751 -1752 0
1687 -1752 0
1752 -1750 1753 0
-1752 -1753 0
1750 -1753 0
1753 -1749 1754 0
-1753 -1754 0
1749 -1754 0
1679 1654 1755 0
-1679 -1755 0
-1654 -1755 0
1755 1647 1756 0
-1755 -1756 0
-1647 -1756 0
1756 -1586 1757 0
-1756 -1757 0
1586 -1757 0
1755 -1650 1758 0
-1755 -1758 0
1650 -1758 0
1679 1653 1759 0
-1679 -1759 0
-1653 -1759 0
-1759 -1678 1760 0
1759 -1760 0
1678 -1760 0
1760 -1758 1761 0
-1760 -1761 0
1758 -1761 0
1761 -1757 1762 0
-1761 -1762 0
1757 -1762 0
-1344 -8 1763 0
1344 -1763 0
8 -1763 0
1344 8 1764 0
-1344 -1764 0
-8 -1764 0
-1764 -1763 1765 0
1764 -1765 0
1763 -1765 0
-1765 1762 1766 0
1765 -1766 0
-1762 -1766 0
1765 -1762 1767 0
-1765 -1767 0
1762 -1767 0
-1767 -1766 1768 0
1767 -1768 0
1766 -1768 0
1768 16 1769 0
-1768 -1769 0
-16 -1769 0
1344 -16 1770 0
-1344 -1770 0
16 -1770 0
-1770 -1769 1771 0
1770 -1771 0
1769 -1771 0
1771 -7 1772 0
-1771 -1772 0
7 -1772 0
-1771 7 1773 0
1771 -1773 0
-7 -1773 0
-1773 -1772 1774 0
1773 -1774 0
1772 -1774 0
-1774 1754 1775 0
1774 -1775 0
-1754 -1775 0
1774 -1754 1776 0
-1774 -1776 0
1754 -1776 0
-1776 -1775 1777 0
1776 -1777 0
1775 -1777 0
1777 17 1778 0
-1777 -1778 0
-17 -1778 0
-1771 -17 1779 0
1771 -1779 0
17 -1779 0
-1779 -1778 1780 0
1779 -1780 0
1778 -1780 0
1780 -6 1781 0
-1780 -1781 0
6 -1781 0
-1780 6 1782 0
1780 -1782 0
-6 -1782 0
-1782 -1781 1783 0
1782 -1783 0
1781 -1783 0
-1783 1746 1784 0
1783 -1784 0
-1746 -1784 0
1783 -1746 1785 0
-1783 -1785 0
1746 -1785 0
-1785 -1784 1786 0
1785 -1786 0
1784 -1786 0
1786 18 1787 0
-1786 -1787 0
-18 -1787 0
-1780 -18 1788 0
1780 -1788 0
18 -1788 0
-1788 -1787 1789 0
1788 -1789 0
1787 -1789 0
1789 -5 1790 0
-1789 -1790 0
5 -1790 0
-1789 5 1791 0
1789 -1791 0
-5 -1791 0
-1791 -1790 1792 0
1791 -1792 0
1790 -1792 0
1792 -1738 1793 0
-1792 -1793 0
1738 -1793 0
-1793 -1791 1794 0
1793 -1794 0
1791 -1794 0
-1785 -1782 1795 0
1785 -1795 0
1782 -1795 0
-1776 -1773 1796 0
1776 -1796 0
1773 -1796 0
-1767 -1764 1797 0
1767 -1797 0
1764 -1797 0
-1299 -9 1798 0
1299 -1798 0
9 -1798 0
1299 9 1799 0
-1299 -1799 0
-9 -1799 0
-1799 -1798 1800 0
1799 -1800 0
1798 -1800 0
-1800 1797 1801 0
1800 -1801 0
-1797 -1801 0
1800 -1797 1802 0
-1800 -1802 0
1797 -1802 0
-1802 -1801 1803 0
1802 -1803 0
1801 -1803 0
1803 16 1804 0
-1803 -1804 0
-16 -1804 0
1299 -16 1805 0
-1299 -1805 0
16 -1805 0
-1805 -1804 1806 0
1805 -1806 0
1804 -1806 0
1806 -8 1807 0
-1806 -1807 0
8 -1807 0
-1806 8 1808 0
1806 -1808 0
-8 -1808 0
-1808 -1807 1809 0
1808 -1809 0
1807 -1809 0
-1809 1796 1810 0
1809 -1810 0
-1796 -1810 0
1809 -1796 1811 0
-1809 -1811 0
1796 -1811 0
-1811 -1810 1812 0
1811 -1812 0
1810 -1812 0
1812 17 1813 0
-1812 -1813 0
-17 -1813 0
-1806 -17 1814 0
1806 -1814 0
17 -1814 0
-1814 -1813 1815 0
1814 -1815 0
1813 -1815 0
1815 -7 1816 0
-1815 -1816 0
7 -1816 0
-1815 7 1817 0
1815 -1817 0
-7 -1817 0
-1817 -1816 1818 0
1817 -1818 0
1816 -1818 0
-1818 1795 1819 0
1818 -1819 0
-1795 -1819 0
1818 -1795 1820 0
-1818 -1820 0
1795 -1820 0
-1820 -1819 1821 0
1820 -1821 0
1819 -1821 0
1821 18 1822 0
-1821 -1822 0
-18 -1822 0
-1815 -18 1823 0
1815 -1823 0
18 -1823 0
-1823 -1822 1824 0
1823 -1824 0
1822 -1824 0
1824 -6 1825 0
-1824 -1825 0
6 -1825 0
-1824 6 1826 0
1824 -1826 0
-6 -1826 0
-1826 -1825 1827 0
1826 -1827 0
1825 -1827 0
-1827 1794 1828 0
1827 -1828 0
-1794 -1828 0
1827 -1794 1829 0
-1827 -1829 0
1794 -1829 0
-1829 -1828 1830 0
1829 -1830 0
1828 -1830 0
1830 19 1831 0
-1830 -1831 0
-19 -1831 0
-1824 -19 1832 0
1824 -1832 0
19 -1832 0
-1832 -1831 1833 0
1832 -1833 0
1831 -1833 0
1833 -5 1834 0
-1833 -1834 0
5 -1834 0
-1833 5 1835 0
1833 -1835 0
-5 -1835 0
-1835 -1834 1836 0
1835 -1836 0
1834 -1836 0
-1792 1738 1837 0
1792 -1837 0
-1738 -1837 0
-1837 -1793 1838 0
1837 -1838 0
1793 -1838 0
1838 19 1839 0
-1838 -1839 0
-19 -1839 0
-1789 -19 1840 0
1789 -1840 0
19 -1840 0
-1840 -1839 1841 0
1840 -1841 0
1839 -1841 0
1841 -4 1842 0
-1841 -1842 0
4 -1842 0
-1841 4 1843 0
1841 -1843 0
-4 -1843 0
-1843 -1842 1844 0
1843 -1844 0
1842 -1844 0
1844 1836 1845 0
-1844 -1845 0
-1836 -1845 0
-1734 1714 1846 0
1734 -1846 0
-1714 -1846 0
-1846 -1713 1847 0
1846 -1847 0
1713 -1847 0
1847 -1706 1848 0
-1847 -1848 0
1706 -1848 0
-1847 1706 1849 0
1847 -1849 0
-1706 -1849 0
-1849 -1848 1850 0
1849 -1850 0
1848 -1850 0
1850 19 1851 0
-1850 -1851 0
-19 -1851 0
-1703 -19 1852 0
1703 -1852 0
19 -1852 0
-1852 -1851 1853 0
1852 -1853 0
1851 -1853 0
1853 -3 1854 0
-1853 -1854 0
3 -1854 0
-1853 3 1855 0
1853 -1855 0
-3 -1855 0
-1855 -1854 1856 0
1855 -1856 0
1854 -1856 0
1734 -1714 1857 0
-1734 -1857 0
1714 -1857 0
-1857 -1846 1858 0
1857 -1858 0
1846 -1858 0
1858 19 1859 0
-1858 -1859 0
-19 -1859 0
-1711 -19 1860 0
1711 -1860 0
19 -1860 0
-1860 -1859 1861 0
1860 -1861 0
1859 -1861 0
1861 -2 1862 0
-1861 -1862 0
2 -1862 0
-1861 2 1863 0
1861 -1863 0
-2 -1863 0
-1863 -1862 1864 0
1863 -1864 0
1862 -1864 0
1864 1856 1865 0
-1864 -1865 0
-1856 -1865 0
-1732 -1726 1866 0
1732 -1866 0
1726 -1866 0
-1866 -1733 1867 0
1866 -1867 0
1733 -1867 0
1867 19 1868 0
-1867 -1868 0
-19 -1868 0
-1723 -19 1869 0
1723 -1869 0
19 -1869 0
-1869 -1868 1870 0
1869 -1870 0
1868 -1870 0
-1870 1 1871 0
1870 -1871 0
-1 -1871 0
1871 1865 1872 0
-1871 -1872 0
-1865 -1872 0
1863 1856 1873 0
-1863 -1873 0
-1856 -1873 0
-1873 -1855 1874 0
1873 -1874 0
1855 -1874 0
1874 -1872 1875 0
-1874 -1875 0
1872 -1875 0
-1875 1845 1876 0
1875 -1876 0
-1845 -1876 0
1843 1836 1877 0
-1843 -1877 0
-1836 -1877 0
-1877 -1835 1878 0
1877 -1878 0
1835 -1878 0
1878 -1876 1879 0
-1878 -1879 0
1876 -1879 0
1827 1792 1880 0
-1827 -1880 0
-1792 -1880 0
1880 -1738 1881 0
-1880 -1881 0
1738 -1881 0
1827 1791 1882 0
-1827 -1882 0
-1791 -1882 0
-1882 -1826 1883 0
1882 -1883 0
1826 -1883 0
1883 -1881 1884 0
-1883 -1884 0
1881 -1884 0
1818 1783 1885 0
-1818 -1885 0
-1783 -1885 0
1885 -1746 1886 0
-1885 -1886 0
1746 -1886 0
1818 1782 1887 0
-1818 -1887 0
-1782 -1887 0
-1887 -1817 1888 0
1887 -1888 0
1817 -1888 0
1888 -1886 1889 0
-1888 -1889 0
1886 -1889 0
1809 1774 1890 0
-1809 -1890 0
-1774 -1890 0
1890 -1754 1891 0
-1890 -1891 0
1754 -1891 0
1809 1773 1892 0
-1809 -1892 0
-1773 -1892 0
-1892 -1808 1893 0
1892 -1893 0
1808 -1893 0
1893 -1891 1894 0
-1893 -1894 0
1891 -1894 0
1800 1765 1895 0
-1800 -1895 0
-1765 -1895 0
1895 -1762 1896 0
-1895 -1896 0
1762 -1896 0
1800 1764 1897 0
-1800 -1897 0
-1764 -1897 0
-1897 -1799 1898 0
1897 -1898 0
1799 -1898 0
1898 -1896 1899 0
-1898 -1899 0
1896 -1899 0
-1255 -10 1900 0
1255 -1900 0
10 -1900 0
1255 10 1901 0
-1255 -1901 0
-10 -1901 0
-1901 -1900 1902 0
1901 -1902 0
1900 -1902 0
-1902 1899 1903 0
1902 -1903 0
-1899 -1903 0
1902 -1899 1904 0
-1902 -1904 0
1899 -1904 0
-1904 -1903 1905 0
1904 -1905 0
1903 -1905 0
1905 16 1906 0
-1905 -1906 0
-16 -1906 0
1255 -16 1907 0
-1255 -1907 0
16 -1907 0
-1907 -1906 1908 0
1907 -1908 0
1906 -1908 0
1908 -9 1909 0
-1908 -1909 0
9 -1909 0
-1908 9 1910 0
1908 -1910 0
-9 -1910 0
-1910 -1909 1911 0
1910 -1911 0
1909 -1911 0
-1911 1894 1912 0
1911 -1912 0
-1894 -1912 0
1911 -1894 1913 0
-1911 -1913 0
1894 -1913 0
-1913 -1912 1914 0
1913 -1914 0
1912 -1914 0
1914 17 1915 0
-1914 -1915 0
-17 -1915 0
-1908 -17 1916 0
1908 -1916 0
17 -1916 0
-1916 -1915 1917 0
1916 -1917 0
1915 -1917 0
1917 -8 1918 0
-1917 -1918 0
8 -1918 0
-1917 8 1919 0
1917 -1919 0
-8 -1919 0
-1919 -1918 1920 0
1919 -1920 0
1918 -1920 0
-1920 1889 1921 0
1920 -1921 0
-1889 -1921 0
1920 -1889 1922 0
-1920 -1922 0
1889 -1922 0
-1922 -1921 1923 0
1922 -1923 0
1921 -1923 0
1923 18 1924 0
-1923 -1924 0
-18 -1924 0
-1917 -18 1925 0
1917 -1925 0
18 -1925 0
-1925 -1924 1926 0
1925 -1926 0
1924 -1926 0
1926 -7 1927 0
-1926 -1927 0
7 -1927 0
-1926 7 1928 0
1926 -1928 0
-7 -1928 0
-1928 -1927 1929 0
1928 -1929 0
1927 -1929 0
-1929 1884 1930 0
1929 -1930 0
-1884 -1930 0
1929 -1884 1931 0
-1929 -1931 0
1884 -1931 0
-1931 -1930 1932 0
1931 -1932 0
1930 -1932 0
1932 19 1933 0
-1932 -1933 0
-19 -1933 0
-1926 -19 1934 0
1926 -1934 0
19 -1934 0
-1934 -1933 1935 0
1934 -1935 0
1933 -1935 0
1935 -6 1936 0
-1935 -1936 0
6 -1936 0
-1935 6 1937 0
1935 -1937 0
-6 -1937 0
-1937 -1936 1938 0
1937 -1938 0
1936 -1938 0
1938 -1879 1939 0
-1938 -1939 0
1879 -1939 0
-1939 -1937 1940 0
1939 -1940 0
1937 -1940 0
-1931 -1928 1941 0
1931 -1941 0
1928 -1941 0
-1922 -1919 1942 0
1922 -1942 0
1919 -1942 0
-1913 -1910 1943 0
1913 -1943 0
1910 -1943 0
-1904 -1901 1944 0
1904 -1944 0
1901 -1944 0
-1199 -11 1945 0
1199 -1945 0
11 -1945 0
1199 11 1946 0
-1199 -1946 0
-11 -1946 0
-1946 -1945 1947 0
1946 -1947 0
1945 -1947 0
-1947 1944 1948 0
1947 -1948 0
-1944 -1948 0
1947 -1944 1949 0
-1947 -1949 0
1944 -1949 0
-1949 -1948 1950 0
1949 -1950 0
1948 -1950 0
1950 16 1951 0
-1950 -1951 0
-16 -1951 0
1199 -16 1952 0
-1199 -1952 0
16 -1952 0
-1952 -1951 1953 0
1952 -1953 0
1951 -1953 0
1953 -10 1954 0
-1953 -1954 0
10 -1954 0
-1953 10 1955 0
1953 -1955 0
-10 -1955 0
-1955 -1954 1956 0
1955 -1956 0
1954 -1956 0
-1956 1943 1957 0
1956 -1957 0
-1943 -1957 0
1956 -1943 1958 0
-1956 -1958 0
1943 -1958 0
-1958 -1957 1959 0
1958 -1959 0
1957 -1959 0
1959 17 1960 0
-1959 -1960 0
-17 -1960 0
-1953 -17 1961 0
1953 -1961 0
17 -1961 0
-1961 -1960 1962 0
1961 -1962 0
1960 -1962 0
1962 -9 1963 0
-1962 -1963 0
9 -1963 0
-1962 9 1964 0
1962 -1964 0
-9 -1964 0
-1964 -1963 1965 0
1964 -1965 0
1963 -1965 0
-1965 1942 1966 0
1965 -1966 0
-1942 -1966 0
1965 -1942 1967 0
-1965 -1967 0
1942 -1967 0
-1967 -1966 1968 0
1967 -1968 0
1966 -1968 0
1968 18 1969 0
-1968 -1969 0
-18 -1969 0
-1962 -18 1970 0
1962 -1970 0
18 -1970 0
-1970 -1969 1971 0
1970 -1971 0
1969 -1971 0
1971 -8 1972 0
-1971 -1972 0
8 -1972 0
-1971 8 1973 0
1971 -1973 0
-8 -1973 0
-1973 -1972 1974 0
1973 -1974 0
1972 -1974 0
-1974 1941 1975 0
1974 -1975 0
-1941 -1975 0
1974 -1941 1976 0
-1974 -1976 0
1941 -1976 0
-1976 -1975 1977 0
1976 -1977 0
1975 -1977 0
1977 19 1978 0
-1977 -1978 0
-19 -1978 0
-1971 -19 1979 0
1971 -1979 0
19 -1979 0
-1979 -1978 1980 0
1979 -1980 0
1978 -1980 0
1980 -7 1981 0
-1980 -1981 0
7 -1981 0
-1980 7 1982 0
1980 -1982 0
-7 -1982 0
-1982 -1981 1983 0
1982 -1983 0
1981 -1983 0
-1983 1940 1984 0
1983 -1984 0
-1940 -1984 0
1983 -1940 1985 0
-1983 -1985 0
1940 -1985 0
-1985 -1984 1986 0
1985 -1986 0
1984 -1986 0
1986 20 1987 0
-1986 -1987 0
-20 -1987 0
-1980 -20 1988 0
1980 -1988 0
20 -1988 0
-1988 -1987 1989 0
1988 -1989 0
1987 -1989 0
1989 -6 1990 0
-1989 -1990 0
6 -1990 0
-1989 6 1991 0
1989 -1991 0
-6 -1991 0
-1991 -1990 1992 0
1991 -1992 0
1990 -1992 0
-1938 1879 1993 0
1938 -1993 0
-1879 -1993 0
-1993 -1939 1994 0
1993 -1994 0
1939 -1994 0
1994 20 1995 0
-1994 -1995 0
-20 -1995 0
-1935 -20 1996 0
1935 -1996 0
20 -1996 0
-1996 -1995 1997 0
1996 -1997 0
1995 -1997 0
1997 -5 1998 0
-1997 -1998 0
5 -1998 0
-1997 5 1999 0
1997 -1999 0
-5 -1999 0
-1999 -1998 2000 0
1999 -2000 0
1998 -2000 0
2000 1992 2001 0
-2000 -2001 0
-1992 -2001 0
-1875 1844 2002 0
1875 -2002 0
-1844 -2002 0
-2002 -1843 2003 0
2002 -2003 0
1843 -2003 0
2003 -1836 2004 0
-2003 -2004 0
1836 -2004 0
-2003 1836 2005 0
2003 -2005 0
-1836 -2005 0
-2005 -2004 2006 0
2005 -2006 0
2004 -2006 0
2006 20 2007 0
-2006 -2007 0
-20 -2007 0
-1833 -20 2008 0
1833 -2008 0
20 -2008 0
-2008 -2007 2009 0
2008 -2009 0
2007 -2009 0
2009 -4 2010 0
-2009 -2010 0
4 -2010 0
-2009 4 2011 0
2009 -2011 0
-4 -2011 0
-2011 -2010 2012 0
2011 -2012 0
2010 -2012 0
1875 -1844 2013 0
-1875 -2013 0
1844 -2013 0
-2013 -2002 2014 0
2013 -2014 0
2002 -2014 0
2014 20 2015 0
-2014 -2015 0
-20 -2015 0
-1841 -20 2016 0
1841 -2016 0
20 -2016 0
-2016 -2015 2017 0
2016 -2017 0
2015 -2017 0
2017 -3 2018 0
-2017 -2018 0
3 -2018 0
-2017 3 2019 0
2017 -2019 0
-3 -2019 0
-2019 -2018 2020 0
2019 -2020 0
2018 -2020 0
2020 2012 2021 0
-2020 -2021 0
-2012 -2021 0
2021 2001 2022 0
-2021 -2022 0
-2001 -2022 0
1871 1864 2023 0
-1871 -2023 0
-1864 -2023 0
-2023 -1863 2024 0
2023 -2024 0
1863 -2024 0
2024 -1856 2025 0
-2024 -2025 0
1856 -2025 0
-2024 1856 2026 0
2024 -2026 0
-1856 -2026 0
-2026 -2025 2027 0
2026 -2027 0
2025 -2027 0
2027 20 2028 0
-2027 -2028 0
-20 -2028 0
-1853 -20 2029 0
1853 -2029 0
20 -2029 0
-2029 -2028 2030 0
2029 -2030 0
2028 -2030 0
2030 -2 2031 0
-2030 -2031 0
2 -2031 0
-2030 2 2032 0
2030 -2032 0
-2 -2032 0
-2032 -2031 2033 0
2032 -2033 0
2031 -2033 0
-1871 -1864 2034 0
1871 -2034 0
1864 -2034 0
-2034 -2023 2035 0
2034 -2035 0
2023 -2035 0
2035 20 2036 0
-2035 -2036 0
-20 -2036 0
-1861 -20 2037 0
1861 -2037 0
20 -2037 0
-2037 -2036 2038 0
2037 -2038 0
2036 -2038 0
-2038 1 2039 0
2038 -2039 0
-1 -2039 0
2039 2033 2040 0
-2039 -2040 0
-2033 -2040 0
-2040 -2032 2041 0
2040 -2041 0
2032 -2041 0
-2041 2022 2042 0
2041 -2042 0
-2022 -2042 0
2019 2012 2043 0
-2019 -2043 0
-2012 -2043 0
-2043 -2011 2044 0
2043 -2044 0
2011 -2044 0
-2044 2001 2045 0
2044 -2045 0
-2001 -2045 0
1999 1992 2046 0
-1999 -2046 0
-1992 -2046 0
-2046 -1991 2047 0
2046 -2047 0
1991 -2047 0
2047 -2045 2048 0
-2047 -2048 0
2045 -2048 0
2048 -2042 2049 0
-2048 -2049 0
2042 -2049 0
1983 1938 2050 0
-1983 -2050 0
-1938 -2050 0
2050 1845 2051 0
-2050 -2051 0
-1845 -2051 0
2051 -1875 2052 0
-2051 -2052 0
1875 -2052 0
2050 -1878 2053 0
-2050 -2053 0
1878 -2053 0
1983 1937 2054 0
-1983 -2054 0
-1937 -2054 0
-2054 -1982 2055 0
2054 -2055 0
1982 -2055 0
2055 -2053 2056 0
-2055 -2056 0
2053 -2056 0
2056 -2052 2057 0
-2056 -2057 0
2052 -2057 0
1974 1929 2058 0
-1974 -2058 0
-1929 -2058 0
2058 1880 2059 0
-2058 -2059 0
-1880 -2059 0
2059 -1738 2060 0
-2059 -2060 0
1738 -2060 0
2058 -1883 2061 0
-2058 -2061 0
1883 -2061 0
1974 1928 2062 0
-1974 -2062 0
-1928 -2062 0
-2062 -1973 2063 0
2062 -2063 0
1973 -2063 0
2063 -2061 2064 0
-2063 -2064 0
2061 -2064 0
2064 -2060 2065 0
-2064 -2065 0
2060 -2065 0
1965 1920 2066 0
-1965 -2066 0
-1920 -2066 0
2066 1885 2067 0
-2066 -2067 0
-1885 -2067 0
2067 -1746 2068 0
-2067 -2068 0
1746 -2068 0
2066 -1888 2069 0
-2066 -2069 0
1888 -2069 0
1965 1919 2070 0
-1965 -2070 0
-1919 -2070 0
-2070 -1964 2071 0
2070 -2071 0
1964 -2071 0
2071 -2069 2072 0
-2071 -2072 0
2069 -2072 0
2072 -2068 2073 0
-2072 -2073 0
2068 -2073 0
1956 1911 2074 0
-1956 -2074 0
-1911 -2074 0
2074 1890 2075 0
-2074 -2075 0
-1890 -2075 0
2075 -1754 2076 0
-2075 -2076 0
1754 -2076 0
2074 -1893 2077 0
-2074 -2077 0
1893 -2077 0
1956 1910 2078 0
-1956 -2078 0
-1910 -2078 0
-2078 -1955 2079 0
2078 -2079 0
1955 -2079 0
2079 -2077 2080 0
-2079 -2080 0
2077 -2080 0
2080 -2076 2081 0
-2080 -2081 0
2076 -2081 0
1947 1902 2082 0
-1947 -2082 0
-1902 -2082 0
2082 1895 2083 0
-2082 -2083 0
-1895 -2083 0
2083 -1762 2084 0
-2083 -2084 0
1762 -2084 0
2082 -1898 2085 0
-2082 -2085 0
1898 -2085 0
1947 1901 2086 0
-1947 -2086 0
-1901 -2086 0
-2086 -1946 2087 0
2086 -2087 0
1946 -2087 0
2087 -2085 2088 0
-2087 -2088 0
2085 -2088 0
2088 -2084 2089 0
-2088 -2089 0
2084 -2089 0
-1132 -12 2090 0
1132 -2090 0
12 -2090 0
1132 12 2091 0
-1132 -2091 0
-12 -2091 0
-2091 -2090 2092 0
2091 -2092 0
2090 -2092 0
-2092 2089 2093 0
2092 -2093 0
-2089 -2093 0
2092 -2089 2094 0
-2092 -2094 0
2089 -2094 0
-2094 -2093 2095 0
2094 -2095 0
2093 -2095 0
2095 16 2096 0
-2095 -2096 0
-16 -2096 0
1132 -16 2097 0
-1132 -2097 0
16 -2097 0
-2097 -2096 2098 0
2097 -2098 0
2096 -2098 0
2098 -11 2099 0
-2098 -2099 0
11 -2099 0
-2098 11 2100 0
2098 -2100 0
-11 -2100 0
-2100 -2099 2101 0
2100 -2101 0
2099 -2101 0
-2101 2081 2102 0
2101 -2102 0
-2081 -2102 0
2101 -2081 2103 0
-2101 -2103 0
2081 -2103 0
-2103 -2102 2104 0
2103 -2104 0
2102 -2104 0
2104 17 2105 0
-2104 -2105 0
-17 -2105 0
-2098 -17 2106 0
2098 -2106 0
17 -2106 0
-2106 -2105 2107 0
2106 -2107 0
2105 -2107 0
2107 -10 2108 0
-2107 -2108 0
10 -2108 0
-2107 10 2109 0
2107 -2109 0
-10 -2109 0
-2109 -2108 2110 0
2109 -2110 0
2108 -2110 0
-2110 2073 2111 0
2110 -2111 0
-2073 -2111 0
2110 -2073 2112 0
-2110 -2112 0
2073 -2112 0
-2112 -2111 2113 0
2112 -2113 0
2111 -2113 0
2113 18 2114 0
-2113 -2114 0
-18 -2114 0
-2107 -18 2115 0
2107 -2115 0
18 -2115 0
-2115 -2114 2116 0
2115 -2116 0
2114 -2116 0
2116 -9 2117 0
-2116 -2117 0
9 -2117 0
-2116 9 2118 0
2116 -2118 0
-9 -2118 0
-2118 -2117 2119 0
2118 -2119 0
2117 -2119 0
-2119 2065 2120 0
2119 -2120 0
-2065 -2120 0
2119 -2065 2121 0
-2119 -2121 0
2065 -2121 0
-2121 -2120 2122 0
2121 -2122 0
2120 -2122 0
2122 19 2123 0
-2122 -2123 0
-19 -2123 0
-2116 -19 2124 0
2116 -2124 0
19 -2124 0
-2124 -2123 2125 0
2124 -2125 0
2123 -2125 0
2125 -8 2126 0
-2125 -2126 0
8 -2126 0
-2125 8 2127 0
2125 -2127 0
-8 -2127 0
-2127 -2126 2128 0
2127 -2128 0
2126 -2128 0
-2128 2057 2129 0
2128 -2129 0
-2057 -2129 0
2128 -2057 2130 0
-2128 -2130 0
2057 -2130 0
-2130 -2129 2131 0
2130 -2131 0
2129 -2131 0
2131 20 2132 0
-2131 -2132 0
-20 -2132 0
-2125 -20 2133 0
2125 -2133 0
20 -2133 0
-2133 -2132 2134 0
2133 -2134 0
2132 -2134 0
2134 -7 2135 0
-2134 -2135 0
7 -2135 0
-2134 7 2136 0
2134 -2136 0
-7 -2136 0
-2136 -2135 2137 0
2136 -2137 0
2135 -2137 0
2137 -2049 2138 0
-2137 -2138 0
2049 -2138 0
-2138 -2136 2139 0
2138 -2139 0
2136 -2139 0
-2130 -2127 2140 0
2130 -2140 0
2127 -2140 0
-2121 -2118 2141 0
2121 -2141 0
2118 -2141 0
-2112 -2109 2142 0
2112 -2142 0
2109 -2142 0
-2103 -2100 2143 0
2103 -2143 0
2100 -2143 0
-2094 -2091 2144 0
2094 -2144 0
2091 -2144 0
-1063 -13 2145 0
1063 -2145 0
13 -2145 0
1063 13 2146 0
-1063 -2146 0
-13 -2146 0
-2146 -2145 2147 0
2146 -2147 0
2145 -2147 0
-2147 2144 2148 0
2147 -2148 0
-2144 -2148 0
2147 -2144 2149 0
-2147 -2149 0
2144 -2149 0
-2149 -2148 2150 0
2149 -2150 0
2148 -2150 0
2150 16 2151 0
-2150 -2151 0
-16 -2151 0
1063 -16 2152 0
-1063 -2152 0
16 -2152 0
-2152 -2151 2153 0
2152 -2153 0
2151 -2153 0
2153 -12 2154 0
-2153 -2154 0
12 -2154 0
-2153 12 2155 0
2153 -2155 0
-12 -2155 0
-2155 -2154 2156 0
2155 -2156 0
2154 -2156 0
-2156 2143 2157 0
2156 -2157 0
-2143 -2157 0
2156 -2143 2158 0
-2156 -2158 0
2143 -2158 0
-2158 -2157 2159 0
2158 -2159 0
2157 -2159 0
2159 17 2160 0
-2159 -2160 0
-17 -2160 0
-2153 -17 2161 0
2153 -2161 0
17 -2161 0
-2161 -2160 2162 0
2161 -2162 0
2160 -2162 0
2162 -11 2163 0
-2162 -2163 0
11 -2163 0
-2162 11 2164 0
2162 -2164 0
-11 -2164 0
-2164 -2163 2165 0
2164 -2165 0
2163 -2165 0
-2165 2142 2166 0
2165 -2166 0
-2142 -2166 0
2165 -2142 2167 0
-2165 -2167 0
2142 -2167 0
-2167 -2166 2168 0
2167 -2168 0
2166 -2168 0
2168 18 2169 0
-2168 -2169 0
-18 -2169 0
-2162 -18 2170 0
2162 -2170 0
18 -2170 0
-2170 -2169 2171 0
2170 -2171 0
2169 -2171 0
2171 -10 2172 0
-2171 -2172 0
10 -2172 0
-2171 10 2173 0
2171 -2173 0
-10 -2173 0
-2173 -2172 2174 0
2173 -2174 0
2172 -2174 0
-2174 2141 2175 0
2174 -2175 0
-2141 -2175 0
2174 -2141 2176 0
-2174 -2176 0
2141 -2176 0
-2176 -2175 2177 0
2176 -2177 0
2175 -2177 0
2177 19 2178 0
-2177 -2178 0
-19 -2178 0
-2171 -19 2179 0
2171 -2179 0
19 -2179 0
-2179 -2178 2180 0
2179 -2180 0
2178 -2180 0
2180 -9 2181 0
-2180 -2181 0
9 -2181 0
-2180 9 2182 0
2180 -2182 0
-9 -2182 0
-2182 -2181 2183 0
2182 -2183 0
2181 -2183 0
-2183 2140 2184 0
2183 -2184 0
-2140 -2184 0
2183 -2140 2185 0
-2183 -2185 0
2140 -2185 0
-2185 -2184 2186 0
2185 -2186 0
2184 -2186 0
2186 20 2187 0
-2186 -2187 0
-20 -2187 0
-2180 -20 2188 0
2180 -2188 0
20 -2188 0
-2188 -2187 2189 0
2188 -2189 0
2187 -2189 0
2189 -8 2190 0
-2189 -2190 0
8 -2190 0
-2189 8 2191 0
2189 -2191 0
-8 -2191 0
-2191 -2190 2192 0
2191 -2192 0
2190 -2192 0
-2192 2139 2193 0
2192 -2193 0
-2139 -2193 0
2192 -2139 2194 0
-2192 -2194 0
2139 -2194 0
-2194 -2193 2195 0
2194 -2195 0
2193 -2195 0
2195 21 2196 0
-2195 -2196 0
-21 -2196 0
-2189 -21 2197 0
2189 -2197 0
21 -2197 0
-2197 -2196 2198 0
2197 -2198 0
2196 -2198 0
2198 -7 2199 0
-2198 -2199 0
7 -2199 0
-2198 7 2200 0
2198 -2200 0
-7 -2200 0
-2200 -2199 2201 0
2200 -2201 0
2199 -2201 0
-2137 2049 2202 0
2137 -2202 0
-2049 -2202 0
-2202 -2138 2203 0
2202 -2203 0
2138 -2203 0
2203 21 2204 0
-2203 -2204 0
-21 -2204 0
-2134 -21 2205 0
2134 -2205 0
21 -2205 0
-2205 -2204 2206 0
2205 -2206 0
2204 -2206 0
2206 -6 2207 0
-2206 -2207 0
6 -2207 0
-2206 6 2208 0
2206 -2208 0
-6 -2208 0
-2208 -2207 2209 0
2208 -2209 0
2207 -2209 0
2209 2201 2210 0
-2209 -2210 0
-2201 -2210 0
-2041 2021 2211 0
2041 -2211 0
-2021 -2211 0
-2211 2044 2212 0
2211 -2212 0
-2044 -2212 0
-2212 2000 2213 0
2212 -2213 0
-2000 -2213 0
-2213 -1999 2214 0
2213 -2214 0
1999 -2214 0
2214 -1992 2215 0
-2214 -2215 0
1992 -2215 0
-2214 1992 2216 0
2214 -2216 0
-1992 -2216 0
-2216 -2215 2217 0
2216 -2217 0
2215 -2217 0
2217 21 2218 0
-2217 -2218 0
-21 -2218 0
-1989 -21 2219 0
1989 -2219 0
21 -2219 0
-2219 -2218 2220 0
2219 -2220 0
2218 -2220 0
2220 -5 2221 0
-2220 -2221 0
5 -2221 0
-2220 5 2222 0
2220 -2222 0
-5 -2222 0
-2222 -2221 2223 0
2222 -2223 0
2221 -2223 0
2212 -2000 2224 0
-2212 -2224 0
2000 -2224 0
-2224 -2213 2225 0
2224 -2225 0
2213 -2225 0
2225 21 2226 0
-2225 -2226 0
-21 -2226 0
-1997 -21 2227 0
1997 -2227 0
21 -2227 0
-2227 -2226 2228 0
2227 -2228 0
2226 -2228 0
2228 -4 2229 0
-2228 -2229 0
4 -2229 0
-2228 4 2230 0
2228 -2230 0
-4 -2230 0
-2230 -2229 2231 0
2230 -2231 0
2229 -2231 0
2231 2223 2232 0
-2231 -2232 0
-2223 -2232 0
-2041 2020 2233 0
2041 -2233 0
-2020 -2233 0
-2233 -2019 2234 0
2233 -2234 0
2019 -2234 0
2234 -2012 2235 0
-2234 -2235 0
2012 -2235 0
-2234 2012 2236 0
2234 -2236 0
-2012 -2236 0
-2236 -2235 2237 0
2236 -2237 0
2235 -2237 0
2237 21 2238 0
-2237 -2238 0
-21 -2238 0
-2009 -21 2239 0
2009 -2239 0
21 -2239 0
-2239 -2238 2240 0
2239 -2240 0
2238 -2240 0
2240 -3 2241 0
-2240 -2241 0
3 -2241 0
-2240 3 2242 0
2240 -2242 0
-3 -2242 0
-2242 -2241 2243 0
2242 -2243 0
2241 -2243 0
2041 -2020 2244 0
-2041 -2244 0
2020 -2244 0
-2244 -2233 2245 0
2244 -2245 0
2233 -2245 0
2245 21 2246 0
-2245 -2246 0
-21 -2246 0
-2017 -21 2247 0
2017 -2247 0
21 -2247 0
-2247 -2246 2248 0
2247 -2248 0
2246 -2248 0
2248 -2 2249 0
-2248 -2249 0
2 -2249 0
-2248 2 2250 0
2248 -2250 0
-2 -2250 0
-2250 -2249 2251 0
2250 -2251 0
2249 -2251 0
2251 2243 2252 0
-2251 -2252 0
-2243 -2252 0
2252 2232 2253 0
-2252 -2253 0
-2232 -2253 0
-2039 -2033 2254 0
2039 -2254 0
2033 -2254 0
-2254 -2040 2255 0
2254 -2255 0
2040 -2255 0
2255 21 2256 0
-2255 -2256 0
-21 -2256 0
-2030 -21 2257 0
2030 -2257 0
21 -2257 0
-2257 -2256 2258 0
2257 -2258 0
2256 -2258 0
-2258 1 2259 0
2258 -2259 0
-1 -2259 0
2259 2253 2260 0
-2259 -2260 0
-2253 -2260 0
2250 2243 2261 0
-2250 -2261 0
-2243 -2261 0
-2261 -2242 2262 0
2261 -2262 0
2242 -2262 0
-2262 2232 2263 0
2262 -2263 0
-2232 -2263 0
2230 2223 2264 0
-2230 -2264 0
-2223 -2264 0
-2264 -2222 2265 0
2264 -2265 0
2222 -2265 0
2265 -2263 2266 0
-2265 -2266 0
2263 -2266 0
2266 -2260 2267 0
-2266 -2267 0
2260 -2267 0
-2267 2210 2268 0
2267 -2268 0
-2210 -2268 0
2208 2201 2269 0
-2208 -2269 0
-2201 -2269 0
-2269 -2200 2270 0
2269 -2270 0
2200 -2270 0
2270 -2268 2271 0
-2270 -2271 0
2268 -2271 0
2192 2137 2272 0
-2192 -2272 0
-2137 -2272 0
2272 -2049 2273 0
-2272 -2273 0
2049 -2273 0
2192 2136 2274 0
-2192 -2274 0
-2136 -2274 0
-2274 -2191 2275 0
2274 -2275 0
2191 -2275 0
2275 -2273 2276 0
-2275 -2276 0
2273 -2276 0
2183 2128 2277 0
-2183 -2277 0
-2128 -2277 0
2277 -2057 2278 0
-2277 -2278 0
2057 -2278 0
2183 2127 2279 0
-2183 -2279 0
-2127 -2279 0
-2279 -2182 2280 0
2279 -2280 0
2182 -2280 0
2280 -2278 2281 0
-2280 -2281 0
2278 -2281 0
2174 2119 2282 0
-2174 -2282 0
-2119 -2282 0
2282 -2065 2283 0
-2282 -2283 0
2065 -2283 0
2174 2118 2284 0
-2174 -2284 0
-2118 -2284 0
-2284 -2173 2285 0
2284 -2285 0
2173 -2285 0
2285 -2283 2286 0
-2285 -2286 0
2283 -2286 0
2165 2110 2287 0
-2165 -2287 0
-2110 -2287 0
2287 -2073 2288 0
-2287 -2288 0
2073 -2288 0
2165 2109 2289 0
-2165 -2289 0
-2109 -2289 0
-2289 -2164 2290 0
2289 -2290 0
2164 -2290 0
2290 -2288 2291 0
-2290 -2291 0
2288 -2291 0
2156 2101 2292 0
-2156 -2292 0
-2101 -2292 0
2292 -2081 2293 0
-2292 -2293 0
2081 -2293 0
2156 2100 2294 0
-2156 -2294 0
-2100 -2294 0
-2294 -2155 2295 0
2294 -2295 0
2155 -2295 0
2295 -2293 2296 0
-2295 -2296 0
2293 -2296 0
2147 2092 2297 0
-2147 -2297 0
-2092 -2297 0
2297 -2089 2298 0
-2297 -2298 0
2089 -2298 0
2147 2091 2299 0
-2147 -2299 0
-2091 -2299 0
-2299 -2146 2300 0
2299 -2300 0
2146 -2300 0
2300 -2298 2301 0
-2300 -2301 0
2298 -2301 0
2301 -14 2302 0
-2301 -2302 0
14 -2302 0
-2301 14 2303 0
2301 -2303 0
-14 -2303 0
-2303 -2302 2304 0
2303 -2304 0
2302 -2304 0
2304 16 2305 0
-2304 -2305 0
-16 -2305 0
-2305 -13 2306 0
2305 -2306 0
13 -2306 0
2305 13 2307 0
-2305 -2307 0
-13 -2307 0
-2307 -2306 2308 0
2307 -2308 0
2306 -2308 0
-2308 2296 2309 0
2308 -2309 0
-2296 -2309 0
2308 -2296 2310 0
-2308 -2310 0
2296 -2310 0
-2310 -2309 2311 0
2310 -2311 0
2309 -2311 0
2311 17 2312 0
-2311 -2312 0
-17 -2312 0
2305 -17 2313 0
-2305 -2313 0
17 -2313 0
-2313 -2312 2314 0
2313 -2314 0
2312 -2314 0
2314 -12 2315 0
-2314 -2315 0
12 -2315 0
-2314 12 2316 0
2314 -2316 0
-12 -2316 0
-2316 -2315 2317 0
2316 -2317 0
2315 -2317 0
-2317 2291 2318 0
2317 -2318 0
-2291 -2318 0
2317 -2291 2319 0
-2317 -2319 0
2291 -2319 0
-2319 -2318 2320 0
2319 -2320 0
2318 -2320 0
2320 18 2321 0
-2320 -2321 0
-18 -2321 0
-2314 -18 2322 0
2314 -2322 0
18 -2322 0
-2322 -2321 2323 0
2322 -2323 0
2321 -2323 0
2323 -11 2324 0
-2323 -2324 0
11 -2324 0
-2323 11 2325 0
2323 -2325 0
-11 -2325 0
-2325 -2324 2326 0
2325 -2326 0
2324 -2326 0
-2326 2286 2327 0
2326 -2327 0
-2286 -2327 0
2326 -2286 2328 0
-2326 -2328 0
2286 -2328 0
-2328 -2327 2329 0
2328 -2329 0
2327 -2329 0
2329 19 2330 0
-2329 -2330 0
-19 -2330 0
-2323 -19 2331 0
2323 -2331 0
19 -2331 0
-2331 -2330 2332 0
2331 -2332 0
2330 -2332 0
2332 -10 2333 0
-2332 -2333 0
10 -2333 0
-2332 10 2334 0
2332 -2334 0
-10 -2334 0
-2334 -2333 2335 0
2334 -2335 0
2333 -2335 0
-2335 2281 2336 0
2335 -2336 0
-2281 -2336 0
2335 -2281 2337 0
-2335 -2337 0
2281 -2337 0
-2337 -2336 2338 0
2337 -2338 0
2336 -2338 0
2338 20 2339 0
-2338 -2339 0
-20 -2339 0
-2332 -20 2340 0
2332 -2340 0
20 -2340 0
-2340 -2339 2341 0
2340 -2341 0
2339 -2341 0
2341 -9 2342 0
-2341 -2342 0
9 -2342 0
-2341 9 2343 0
2341 -2343 0
-9 -2343 0
-2343 -2342 2344 0
2343 -2344 0
2342 -2344 0
-2344 2276 2345 0
2344 -2345 0
-2276 -2345 0
2344 -2276 2346 0
-2344 -2346 0
2276 -2346 0
-2346 -2345 2347 0
2346 -2347 0
2345 -2347 0
2347 21 2348 0
-2347 -2348 0
-21 -2348 0
-2341 -21 2349 0
2341 -2349 0
21 -2349 0
-2349 -2348 2350 0
2349 -2350 0
2348 -2350 0
2350 -8 2351 0
-2350 -2351 0
8 -2351 0
-2350 8 2352 0
2350 -2352 0
-8 -2352 0
-2352 -2351 2353 0
2352 -2353 0
2351 -2353 0
2353 -2271 2354 0
-2353 -2354 0
2271 -2354 0
-2354 -2352 2355 0
2354 -2355 0
2352 -2355 0
-2346 -2343 2356 0
2346 -2356 0
2343 -2356 0
-2337 -2334 2357 0
2337 -2357 0
2334 -2357 0
-2328 -2325 2358 0
2328 -2358 0
2325 -2358 0
-2319 -2316 2359 0
2319 -2359 0
2316 -2359 0
-2310 -2307 2360 0
2310 -2360 0
2307 -2360 0
2303 16 2361 0
-2303 -2361 0
-16 -2361 0
-2361 -14 2362 0
2361 -2362 0
14 -2362 0
2361 14 2363 0
-2361 -2363 0
-14 -2363 0
-2363 -2362 2364 0
2363 -2364 0
2362 -2364 0
-2364 2360 2365 0
2364 -2365 0
-2360 -2365 0
2364 -2360 2366 0
-2364 -2366 0
2360 -2366 0
-2366 -2365 2367 0
2366 -2367 0
2365 -2367 0
2367 17 2368 0
-2367 -2368 0
-17 -2368 0
2361 -17 2369 0
-2361 -2369 0
17 -2369 0
-2369 -2368 2370 0
2369 -2370 0
2368 -2370 0
2370 -13 2371 0
-2370 -2371 0
13 -2371 0
-2370 13 2372 0
2370 -2372 0
-13 -2372 0
-2372 -2371 2373 0
2372 -2373 0
2371 -2373 0
-2373 2359 2374 0
2373 -2374 0
-2359 -2374 0
2373 -2359 2375 0
-2373 -2375 0
2359 -2375 0
-2375 -2374 2376 0
2375 -2376 0
2374 -2376 0
2376 18 2377 0
-2376 -2377 0
-18 -2377 0
-2370 -18 2378 0
2370 -2378 0
18 -2378 0
-2378 -2377 2379 0
2378 -2379 0
2377 -2379 0
2379 -12 2380 0
-2379 -2380 0
12 -2380 0
-2379 12 2381 0
2379 -2381 0
-12 -2381 0
-2381 -2380 2382 0
2381 -2382 0
2380 -2382 0
-2382 2358 2383 0
2382 -2383 0
-2358 -2383 0
2382 -2358 2384 0
-2382 -2384 0
2358 -2384 0
-2384 -2383 2385 0
2384 -2385 0
2383 -2385 0
2385 19 2386 0
-2385 -2386 0
-19 -2386 0
-2379 -19 2387 0
2379 -2387 0
19 -2387 0
-2387 -2386 2388 0
2387 -2388 0
2386 -2388 0
2388 -11 2389 0
-2388 -2389 0
11 -2389 0
-2388 11 2390 0
2388 -2390 0
-11 -2390 0
-2390 -2389 2391 0
2390 -2391 0
2389 -2391 0
-2391 2357 2392 0
2391 -2392 0
-2357 -2392 0
2391 -2357 2393 0
-2391 -2393 0
2357 -2393 0
-2393 -2392 2394 0
2393 -2394 0
2392 -2394 0
2394 20 2395 0
-2394 -2395 0
-20 -2395 0
-2388 -20 2396 0
2388 -2396 0
20 -2396 0
-2396 -2395 2397 0
2396 -2397 0
2395 -2397 0
2397 -10 2398 0
-2397 -2398 0
10 -2398 0
-2397 10 2399 0
2397 -2399 0
-10 -2399 0
-2399 -2398 2400 0
2399 -2400 0
2398 -2400 0
-2400 2356 2401 0
2400 -2401 0
-2356 -2401 0
2400 -2356 2402 0
-2400 -2402 0
2356 -2402 0
-2402 -2401 2403 0
2402 -2403 0
2401 -2403 0
2403 21 2404 0
-2403 -2404 0
-21 -2404 0
-2397 -21 2405 0
2397 -2405 0
21 -2405 0
-2405 -2404 2406 0
2405 -2406 0
2404 -2406 0
2406 -9 2407 0
-2406 -2407 0
9 -2407 0
-2406 9 2408 0
2406 -2408 0
-9 -2408 0
-2408 -2407 2409 0
2408 -2409 0
2407 -2409 0
-2409 2355 2410 0
2409 -2410 0
-2355 -2410 0
2409 -2355 2411 0
-2409 -2411 0
2355 -2411 0
-2411 -2410 2412 0
2411 -2412 0
2410 -2412 0
2412 22 2413 0
-2412 -2413 0
-22 -2413 0
-2406 -22 2414 0
2406 -2414 0
22 -2414 0
-2414 -2413 2415 0
2414 -2415 0
2413 -2415 0
2415 -8 2416 0
-2415 -2416 0
8 -2416 0
-2415 8 2417 0
2415 -2417 0
-8 -2417 0
-2417 -2416 2418 0
2417 -2418 0
2416 -2418 0
-2353 2271 2419 0
2353 -2419 0
-2271 -2419 0
-2419 -2354 2420 0
2419 -2420 0
2354 -2420 0
2420 22 2421 0
-2420 -2421 0
-22 -2421 0
-2350 -22 2422 0
2350 -2422 0
22 -2422 0
-2422 -2421 2423 0
2422 -2423 0
2421 -2423 0
2423 -7 2424 0
-2423 -2424 0
7 -2424 0
-2423 7 2425 0
2423 -2425 0
-7 -2425 0
-2425 -2424 2426 0
2425 -2426 0
2424 -2426 0
2426 2418 2427 0
-2426 -2427 0
-2418 -2427 0
-2267 2209 2428 0
2267 -2428 0
-2209 -2428 0
-2428 -2208 2429 0
2428 -2429 0
2208 -2429 0
2429 -2201 2430 0
-2429 -2430 0
2201 -2430 0
-2429 2201 2431 0
2429 -2431 0
-2201 -2431 0
-2431 -2430 2432 0
2431 -2432 0
2430 -2432 0
2432 22 2433 0
-2432 -2433 0
-22 -2433 0
-2198 -22 2434 0
2198 -2434 0
22 -2434 0
-2434 -2433 2435 0
2434 -2435 0
2433 -2435 0
2435 -6 2436 0
-2435 -2436 0
6 -2436 0
-2435 6 2437 0
2435 -2437 0
-6 -2437 0
-2437 -2436 2438 0
2437 -2438 0
2436 -2438 0
2267 -2209 2439 0
-2267 -2439 0
2209 -2439 0
-2439 -2428 2440 0
2439 -2440 0
2428 -2440 0
2440 22 2441 0
-2440 -2441 0
-22 -2441 0
-2206 -22 2442 0
2206 -2442 0
22 -2442 0
-2442 -2441 2443 0
2442 -2443 0
2441 -2443 0
2443 -5 2444 0
-2443 -2444 0
5 -2444 0
-2443 5 2445 0
2443 -2445 0
-5 -2445 0
-2445 -2444 2446 0
2445 -2446 0
2444 -2446 0
2446 2438 2447 0
-2446 -2447 0
-2438 -2447 0
2447 2427 2448 0
-2447 -2448 0
-2427 -2448 0
2259 2252 2449 0
-2259 -2449 0
-2252 -2449 0
-2449 2262 2450 0
2449 -2450 0
-2262 -2450 0
-2450 2231 2451 0
2450 -2451 0
-2231 -2451 0
-2451 -2230 2452 0
2451 -2452 0
2230 -2452 0
2452 -2223 2453 0
-2452 -2453 0
2223 -2453 0
-2452 2223 2454 0
2452 -2454 0
-2223 -2454 0
-2454 -2453 2455 0
2454 -2455 0
2453 -2455 0
2455 22 2456 0
-2455 -2456 0
-22 -2456 0
-2220 -22 2457 0
2220 -2457 0
22 -2457 0
-2457 -2456 2458 0
2457 -2458 0
2456 -2458 0
2458 -4 2459 0
-2458 -2459 0
4 -2459 0
-2458 4 2460 0
2458 -2460 0
-4 -2460 0
-2460 -2459 2461 0
2460 -2461 0
2459 -2461 0
2450 -2231 2462 0
-2450 -2462 0
2231 -2462 0
-2462 -2451 2463 0
2462 -2463 0
2451 -2463 0
2463 22 2464 0
-2463 -2464 0
-22 -2464 0
-2228 -22 2465 0
2228 -2465 0
22 -2465 0
-2465 -2464 2466 0
2465 -2466 0
2464 -2466 0
2466 -3 2467 0
-2466 -2467 0
3 -2467 0
-2466 3 2468 0
2466 -2468 0
-3 -2468 0
-2468 -2467 2469 0
2468 -2469 0
2467 -2469 0
2469 2461 2470 0
-2469 -2470 0
-2461 -2470 0
2259 2251 2471 0
-2259 -2471 0
-2251 -2471 0
-2471 -2250 2472 0
2471 -2472 0
2250 -2472 0
2472 -2243 2473 0
-2472 -2473 0
2243 -2473 0
-2472 2243 2474 0
2472 -2474 0
-2243 -2474 0
-2474 -2473 2475 0
2474 -2475 0
2473 -2475 0
2475 22 2476 0
-2475 -2476 0
-22 -2476 0
-2240 -22 2477 0
2240 -2477 0
22 -2477 0
-2477 -2476 2478 0
2477 -2478 0
2476 -2478 0
2478 -2 2479 0
-2478 -2479 0
2 -2479 0
-2478 2 2480 0
2478 -2480 0
-2 -2480 0
-2480 -2479 2481 0
2480 -2481 0
2479 -2481 0
-2259 -2251 2482 0
2259 -2482 0
2251 -2482 0
-2482 -2471 2483 0
2482 -2483 0
2471 -2483 0
2483 22 2484 0
-2483 -2484 0
-22 -2484 0
-2248 -22 2485 0
2248 -2485 0
22 -2485 0
-2485 -2484 2486 0
2485 -2486 0
2484 -2486 0
-2486 1 2487 0
2486 -2487 0
-1 -2487 0
2487 2481 2488 0
-2487 -2488 0
-2481 -2488 0
-2488 -2480 2489 0
2488 -2489 0
2480 -2489 0
-2489 2470 2490 0
2489 -2490 0
-2470 -2490 0
2468 2461 2491 0
-2468 -2491 0
-2461 -2491 0
-2491 -2460 2492 0
2491 -2492 0
2460 -2492 0
2492 -2490 2493 0
-2492 -2493 0
2490 -2493 0
-2493 2448 2494 0
2493 -2494 0
-2448 -2494 0
2445 2438 2495 0
-2445 -2495 0
-2438 -2495 0
-2495 -2437 2496 0
2495 -2496 0
2437 -2496 0
-2496 2427 2497 0
2496 -2497 0
-2427 -2497 0
2425 2418 2498 0
-2425 -2498 0
-2418 -2498 0
-2498 -2417 2499 0
2498 -2499 0
2417 -2499 0
2499 -2497 2500 0
-2499 -2500 0
2497 -2500 0
2500 -2494 2501 0
-2500 -2501 0
2494 -2501 0
2409 2353 2502 0
-2409 -2502 0
-2353 -2502 0
2502 2210 2503 0
-2502 -2503 0
-2210 -2503 0
2503 2253 2504 0
-2503 -2504 0
-2253 -2504 0
2504 2259 2505 0
-2504 -2505 0
-2259 -2505 0
2503 -2266 2506 0
-2503 -2506 0
2266 -2506 0
2502 -2270 2507 0
-2502 -2507 0
2270 -2507 0
2409 2352 2508 0
-2409 -2508 0
-2352 -2508 0
-2508 -2408 2509 0
2508 -2509 0
2408 -2509 0
2509 -2507 2510 0
-2509 -2510 0
2507 -2510 0
2510 -2506 2511 0
-2510 -2511 0
2506 -2511 0
2511 -2505 2512 0
-2511 -2512 0
2505 -2512 0
2400 2344 2513 0
-2400 -2513 0
-2344 -2513 0
2513 2272 2514 0
-2513 -2514 0
-2272 -2514 0
2514 2022 2515 0
-2514 -2515 0
-2022 -2515 0
2515 -2041 2516 0
-2515 -2516 0
2041 -2516 0
2514 -2048 2517 0
-2514 -2517 0
2048 -2517 0
2513 -2275 2518 0
-2513 -2518 0
2275 -2518 0
2400 2343 2519 0
-2400 -2519 0
-2343 -2519 0
-2519 -2399 2520 0
2519 -2520 0
2399 -2520 0
2520 -2518 2521 0
-2520 -2521 0
2518 -2521 0
2521 -2517 2522 0
-2521 -2522 0
2517 -2522 0
2522 -2516 2523 0
-2522 -2523 0
2516 -2523 0
2391 2335 2524 0
-2391 -2524 0
-2335 -2524 0
2524 2277 2525 0
-2524 -2525 0
-2277 -2525 0
2525 2051 2526 0
-2525 -2526 0
-2051 -2526 0
2526 -1875 2527 0
-2526 -2527 0
1875 -2527 0
2525 -2056 2528 0
-2525 -2528 0
2056 -2528 0
2524 -2280 2529 0
-2524 -2529 0
2280 -2529 0
2391 2334 2530 0
-2391 -2530 0
-2334 -2530 0
-2530 -2390 2531 0
2530 -2531 0
2390 -2531 0
2531 -2529 2532 0
-2531 -2532 0
2529 -2532 0
2532 -2528 2533 0
-2532 -2533 0
2528 -2533 0
2533 -2527 2534 0
-2533 -2534 0
2527 -2534 0
2382 2326 2535 0
-2382 -2535 0
-2326 -2535 0
2535 2282 2536 0
-2535 -2536 0
-2282 -2536 0
2536 2059 2537 0
-2536 -2537 0
-2059 -2537 0
2537 -1738 2538 0
-2537 -2538 0
1738 -2538 0
2536 -2064 2539 0
-2536 -2539 0
2064 -2539 0
2535 -2285 2540 0
-2535 -2540 0
2285 -2540 0
2382 2325 2541 0
-2382 -2541 0
-2325 -2541 0
-2541 -2381 2542 0
2541 -2542 0
2381 -2542 0
2542 -2540 2543 0
-2542 -2543 0
2540 -2543 0
2543 -2539 2544 0
-2543 -2544 0
2539 -2544 0
2544 -2538 2545 0
-2544 -2545 0
2538 -2545 0
2373 2317 2546 0
-2373 -2546 0
-2317 -2546 0
2546 2287 2547 0
-2546 -2547 0
-2287 -2547 0
2547 2067 2548 0
-2547 -2548 0
-2067 -2548 0
2548 -1746 2549 0
-2548 -2549 0
1746 -2549 0
2547 -2072 2550 0
-2547 -2550 0
2072 -2550 0
2546 -2290 2551 0
-2546 -2551 0
2290 -2551 0
2373 2316 2552 0
-2373 -2552 0
-2316 -2552 0
-2552 -2372 2553 0
2552 -2553 0
2372 -2553 0
2553 -2551 2554 0
-2553 -2554 0
2551 -2554 0
2554 -2550 2555 0
-2554 -2555 0
2550 -2555 0
2555 -2549 2556 0
-2555 -2556 0
2549 -2556 0
2364 2308 2557 0
-2364 -2557 0
-2308 -2557 0
2557 2292 2558 0
-2557 -2558 0
-2292 -2558 0
2558 2075 2559 0
-2558 -2559 0
-2075 -2559 0
2559 -1754 2560 0
-2559 -2560 0
1754 -2560 0
2558 -2080 2561 0
-2558 -2561 0
2080 -2561 0
2557 -2295 2562 0
-2557 -2562 0
2295 -2562 0
2364 2307 2563 0
-2364 -2563 0
-2307 -2563 0
-2563 -2363 2564 0
2563 -2564 0
2363 -2564 0
2564 -2562 2565 0
-2564 -2565 0
2562 -2565 0
2565 -2561 2566 0
-2565 -2566 0
2561 -2566 0
2566 -2560 2567 0
-2566 -2567 0
2560 -2567 0
-2567 17 2568 0
2567 -2568 0
-17 -2568 0
-2568 -14 2569 0
2568 -2569 0
14 -2569 0
2568 14 2570 0
-2568 -2570 0
-14 -2570 0
-2570 -2569 2571 0
2570 -2571 0
2569 -2571 0
-2571 2556 2572 0
2571 -2572 0
-2556 -2572 0
2571 -2556 2573 0
-2571 -2573 0
2556 -2573 0
-2573 -2572 2574 0
2573 -2574 0
2572 -2574 0
2574 18 2575 0
-2574 -2575 0
-18 -2575 0
2568 -18 2576 0
-2568 -2576 0
18 -2576 0
-2576 -2575 2577 0
2576 -2577 0
2575 -2577 0
2577 -13 2578 0
-2577 -2578 0
13 -2578 0
-2577 13 2579 0
2577 -2579 0
-13 -2579 0
-2579 -2578 2580 0
2579 -2580 0
2578 -2580 0
-2580 2545 2581 0
2580 -2581 0
-2545 -2581 0
2580 -2545 2582 0
-2580 -2582 0
2545 -2582 0
-2582 -2581 2583 0
2582 -2583 0
2581 -2583 0
2583 19 2584 0
-2583 -2584 0
-19 -2584 0
-2577 -19 2585 0
2577 -2585 0
19 -2585 0
-2585 -2584 2586 0
2585 -2586 0
2584 -2586 0
2586 -12 2587 0
-2586 -2587 0
12 -2587 0
-2586 12 2588 0
2586 -2588 0
-12 -2588 0
-2588 -2587 2589 0
2588 -2589 0
2587 -2589 0
-2589 2534 2590 0
2589 -2590 0
-2534 -2590 0
2589 -2534 2591 0
-2589 -2591 0
2534 -2591 0
-2591 -2590 2592 0
2591 -2592 0
2590 -2592 0
2592 20 2593 0
-2592 -2593 0
-20 -2593 0
-2586 -20 2594 0
2586 -2594 0
20 -2594 0
-2594 -2593 2595 0
2594 -2595 0
2593 -2595 0
2595 -11 2596 0
-2595 -2596 0
11 -2596 0
-2595 11 2597 0
2595 -2597 0
-11 -2597 0
-2597 -2596 2598 0
2597 -2598 0
2596 -2598 0
-2598 2523 2599 0
2598 -2599 0
-2523 -2599 0
2598 -2523 2600 0
-2598 -2600 0
2523 -2600 0
-2600 -2599 2601 0
2600 -2601 0
2599 -2601 0
2601 21 2602 0
-2601 -2602 0
-21 -2602 0
-2595 -21 2603 0
2595 -2603 0
21 -2603 0
-2603 -2602 2604 0
2603 -2604 0
2602 -2604 0
2604 -10 2605 0
-2604 -2605 0
10 -2605 0
-2604 10 2606 0
2604 -2606 0
-10 -2606 0
-2606 -2605 2607 0
2606 -2607 0
2605 -2607 0
-2607 2512 2608 0
2607 -2608 0
-2512 -2608 0
2607 -2512 2609 0
-2607 -2609 0
2512 -2609 0
-2609 -2608 2610 0
2609 -2610 0
2608 -2610 0
2610 22 2611 0
-2610 -2611 0
-22 -2611 0
-2604 -22 2612 0
2604 -2612 0
22 -2612 0
-2612 -2611 2613 0
2612 -2613 0
2611 -2613 0
2613 -9 2614 0
-2613 -2614 0
9 -2614 0
-2613 9 2615 0
2613 -2615 0
-9 -2615 0
-2615 -2614 2616 0
2615 -2616 0
2614 -2616 0
2616 -2501 2617 0
-2616 -2617 0
2501 -2617 0
-2617 -2615 2618 0
2617 -2618 0
2615 -2618 0
-2609 -2606 2619 0
2609 -2619 0
2606 -2619 0
-2600 -2597 2620 0
2600 -2620 0
2597 -2620 0
-2591 -2588 2621 0
2591 -2621 0
2588 -2621 0
-2582 -2579 2622 0
2582 -2622 0
2579 -2622 0
-2573 -2570 2623 0
2573 -2623 0
2570 -2623 0
-2623 18 2624 0
2623 -2624 0
-18 -2624 0
-2624 -14 2625 0
2624 -2625 0
14 -2625 0
2624 14 2626 0
-2624 -2626 0
-14 -2626 0
-2626 -2625 2627 0
2626 -2627 0
2625 -2627 0
-2627 2622 2628 0
2627 -2628 0
-2622 -2628 0
2627 -2622 2629 0
-2627 -2629 0
2622 -2629 0
-2629 -2628 2630 0
2629 -2630 0
2628 -2630 0
2630 19 2631 0
-2630 -2631 0
-19 -2631 0
2624 -19 2632 0
-2624 -2632 0
19 -2632 0
-2632 -2631 2633 0
2632 -2633 0
2631 -2633 0
2633 -13 2634 0
-2633 -2634 0
13 -2634 0
-2633 13 2635 0
2633 -2635 0
-13 -2635 0
-2635 -2634 2636 0
2635 -2636 0
2634 -2636 0
-2636 2621 2637 0
2636 -2637 0
-2621 -2637 0
2636 -2621 2638 0
-2636 -2638 0
2621 -2638 0
-2638 -2637 2639 0
2638 -2639 0
2637 -2639 0
2639 20 2640 0
-2639 -2640 0
-20 -2640 0
-2633 -20 2641 0
2633 -2641 0
20 -2641 0
-2641 -2640 2642 0
2641 -2642 0
2640 -2642 0
2642 -12 2643 0
-2642 -2643 0
12 -2643 0
-2642 12 2644 0
2642 -2644 0
-12 -2644 0
-2644 -2643 2645 0
2644 -2645 0
2643 -2645 0
-2645 2620 2646 0
2645 -2646 0
-2620 -2646 0
2645 -2620 2647 0
-2645 -2647 0
2620 -2647 0
-2647 -2646 2648 0
2647 -2648 0
2646 -2648 0
2648 21 2649 0
-2648 -2649 0
-21 -2649 0
-2642 -21 2650 0
2642 -2650 0
21 -2650 0
-2650 -2649 2651 0
2650 -2651 0
2649 -2651 0
2651 -11 2652 0
-2651 -2652 0
11 -2652 0
-2651 11 2653 0
2651 -2653 0
-11 -2653 0
-2653 -2652 2654 0
2653 -2654 0
2652 -2654 0
-2654 2619 2655 0
2654 -2655 0
-2619 -2655 0
2654 -2619 2656 0
-2654 -2656 0
2619 -2656 0
-2656 -2655 2657 0
2656 -2657 0
2655 -2657 0
2657 22 2658 0
-2657 -2658 0
-22 -2658 0
-2651 -22 2659 0
2651 -2659 0
22 -2659 0
-2659 -2658 2660 0
2659 -2660 0
2658 -2660 0
2660 -10 2661 0
-2660 -2661 0
10 -2661 0
-2660 10 2662 0
2660 -2662 0
-10 -2662 0
-2662 -2661 2663 0
2662 -2663 0
2661 -2663 0
-2663 2618 2664 0
2663 -2664 0
-2618 -2664 0
2663 -2618 2665 0
-2663 -2665 0
2618 -2665 0
-2665 -2664 2666 0
2665 -2666 0
2664 -2666 0
2666 23 2667 0
-2666 -2667 0
-23 -2667 0
-2660 -23 2668 0
2660 -2668 0
23 -2668 0
-2668 -2667 2669 0
2668 -2669 0
2667 -2669 0
2669 -9 2670 0
-2669 -2670 0
9 -2670 0
-2669 9 2671 0
2669 -2671 0
-9 -2671 0
-2671 -2670 2672 0
2671 -2672 0
2670 -2672 0
-2616 2501 2673 0
2616 -2673 0
-2501 -2673 0
-2673 -2617 2674 0
2673 -2674 0
2617 -2674 0
2674 23 2675 0
-2674 -2675 0
-23 -2675 0
-2613 -23 2676 0
2613 -2676 0
23 -2676 0
-2676 -2675 2677 0
2676 -2677 0
2675 -2677 0
2677 -8 2678 0
-2677 -2678 0
8 -2678 0
-2677 8 2679 0
2677 -2679 0
-8 -2679 0
-2679 -2678 2680 0
2679 -2680 0
2678 -2680 0
2680 2672 2681 0
-2680 -2681 0
-2672 -2681 0
-2493 2447 2682 0
2493 -2682 0
-2447 -2682 0
-2682 2496 2683 0
2682 -2683 0
-2496 -2683 0
-2683 2426 2684 0
2683 -2684 0
-2426 -2684 0
-2684 -2425 2685 0
2684 -2685 0
2425 -2685 0
2685 -2418 2686 0
-2685 -2686 0
2418 -2686 0
-2685 2418 2687 0
2685 -2687 0
-2418 -2687 0
-2687 -2686 2688 0
2687 -2688 0
2686 -2688 0
2688 23 2689 0
-2688 -2689 0
-23 -2689 0
-2415 -23 2690 0
2415 -2690 0
23 -2690 0
-2690 -2689 2691 0
2690 -2691 0
2689 -2691 0
2691 -7 2692 0
-2691 -2692 0
7 -2692 0
-2691 7 2693 0
2691 -2693 0
-7 -2693 0
-2693 -2692 2694 0
2693 -2694 0
2692 -2694 0
2683 -2426 2695 0
-2683 -2695 0
2426 -2695 0
-2695 -2684 2696 0
2695 -2696 0
2684 -2696 0
2696 23 2697 0
-2696 -2697 0
-23 -2697 0
-2423 -23 2698 0
2423 -2698 0
23 -2698 0
-2698 -2697 2699 0
2698 -2699 0
2697 -2699 0
2699 -6 2700 0
-2699 -2700 0
6 -2700 0
-2699 6 2701 0
2699 -2701 0
-6 -2701 0
-2701 -2700 2702 0
2701 -2702 0
2700 -2702 0
2702 2694 2703 0
-2702 -2703 0
-2694 -2703 0
-2493 2446 2704 0
2493 -2704 0
-2446 -2704 0
-2704 -2445 2705 0
2704 -2705 0
2445 -2705 0
2705 -2438 2706 0
-2705 -2706 0
2438 -2706 0
-2705 2438 2707 0
2705 -2707 0
-2438 -2707 0
-2707 -2706 2708 0
2707 -2708 0
2706 -2708 0
2708 23 2709 0
-2708 -2709 0
-23 -2709 0
-2435 -23 2710 0
2435 -2710 0
23 -2710 0
-2710 -2709 2711 0
2710 -2711 0
2709 -2711 0
2711 -5 2712 0
-2711 -2712 0
5 -2712 0
-2711 5 2713 0
2711 -2713 0
-5 -2713 0
-2713 -2712 2714 0
2713 -2714 0
2712 -2714 0
2493 -2446 2715 0
-2493 -2715 0
2446 -2715 0
-2715 -2704 2716 0
2715 -2716 0
2704 -2716 0
2716 23 2717 0
-2716 -2717 0
-23 -2717 0
-2443 -23 2718 0
2443 -2718 0
23 -2718 0
-2718 -2717 2719 0
2718 -2719 0
2717 -2719 0
2719 -4 2720 0
-2719 -2720 0
4 -2720 0
-2719 4 2721 0
2719 -2721 0
-4 -2721 0
-2721 -2720 2722 0
2721 -2722 0
2720 -2722 0
2722 2714 2723 0
-2722 -2723 0
-2714 -2723 0
2723 2703 2724 0
-2723 -2724 0
-2703 -2724 0
-2489 2469 2725 0
2489 -2725 0
-2469 -2725 0
-2725 -2468 2726 0
2725 -2726 0
2468 -2726 0
2726 -2461 2727 0
-2726 -2727 0
2461 -2727 0
-2726 2461 2728 0
2726 -2728 0
-2461 -2728 0
-2728 -2727 2729 0
2728 -2729 0
2727 -2729 0
2729 23 2730 0
-2729 -2730 0
-23 -2730 0
-2458 -23 2731 0
2458 -2731 0
23 -2731 0
-2731 -2730 2732 0
2731 -2732 0
2730 -2732 0
2732 -3 2733 0
-2732 -2733 0
3 -2733 0
-2732 3 2734 0
2732 -2734 0
-3 -2734 0
-2734 -2733 2735 0
2734 -2735 0
2733 -2735 0
2489 -2469 2736 0
-2489 -2736 0
2469 -2736 0
-2736 -2725 2737 0
2736 -2737 0
2725 -2737 0
2737 23 2738 0
-2737 -2738 0
-23 -2738 0
-2466 -23 2739 0
2466 -2739 0
23 -2739 0
-2739 -2738 2740 0
2739 -2740 0
2738 -2740 0
2740 -2 2741 0
-2740 -2741 0
2 -2741 0
-2740 2 2742 0
2740 -2742 0
-2 -2742 0
-2742 -2741 2743 0
2742 -2743 0
2741 -2743 0
2743 2735 2744 0
-2743 -2744 0
-2735 -2744 0
-2487 -2481 2745 0
2487 -2745 0
2481 -2745 0
-2745 -2488 2746 0
2745 -2746 0
2488 -2746 0
2746 23 2747 0
-2746 -2747 0
-23 -2747 0
-2478 -23 2748 0
2478 -2748 0
23 -2748 0
-2748 -2747 2749 0
2748 -2749 0
2747 -2749 0
-2749 1 2750 0
2749 -2750 0
-1 -2750 0
2750 2744 2751 0
-2750 -2751 0
-2744 -2751 0
2742 2735 2752 0
-2742 -2752 0
-2735 -2752 0
-2752 -2734 2753 0
2752 -2753 0
2734 -2753 0
2753 -2751 2754 0
-2753 -2754 0
2751 -2754 0
-2754 2724 2755 0
2754 -2755 0
-2724 -2755 0
2721 2714 2756 0
-2721 -2756 0
-2714 -2756 0
-2756 -2713 2757 0
2756 -2757 0
2713 -2757 0
-2757 2703 2758 0
2757 -2758 0
-2703 -2758 0
2701 2694 2759 0
-2701 -2759 0
-2694 -2759 0
-2759 -2693 2760 0
2759 -2760 0
2693 -2760 0
2760 -2758 2761 0
-2760 -2761 0
2758 -2761 0
2761 -2755 2762 0
-2761 -2762 0
2755 -2762 0
-2762 2681 2763 0
2762 -2763 0
-2681 -2763 0
2679 2672 2764 0
-2679 -2764 0
-2672 -2764 0
-2764 -2671 2765 0
2764 -2765 0
2671 -2765 0
2765 -2763 2766 0
-2765 -2766 0
2763 -2766 0
2663 2616 2767 0
-2663 -2767 0
-2616 -2767 0
2767 -2501 2768 0
-2767 -2768 0
2501 -2768 0
2663 2615 2769 0
-2663 -2769 0
-2615 -2769 0
-2769 -2662 2770 0
2769 -2770 0
2662 -2770 0
2770 -2768 2771 0
-2770 -2771 0
2768 -2771 0
2654 2607 2772 0
-2654 -2772 0
-2607 -2772 0
2772 -2512 2773 0
-2772 -2773 0
2512 -2773 0
2654 2606 2774 0
-2654 -2774 0
-2606 -2774 0
-2774 -2653 2775 0
2774 -2775 0
2653 -2775 0
2775 -2773 2776 0
-2775 -2776 0
2773 -2776 0
2645 2598 2777 0
-2645 -2777 0
-2598 -2777 0
2777 -2523 2778 0
-2777 -2778 0
2523 -2778 0
2645 2597 2779 0
-2645 -2779 0
-2597 -2779 0
-2779 -2644 2780 0
2779 -2780 0
2644 -2780 0
2780 -2778 2781 0
-2780 -2781 0
2778 -2781 0
2636 2589 2782 0
-2636 -2782 0
-2589 -2782 0
2782 -2534 2783 0
-2782 -2783 0
2534 -2783 0
2636 2588 2784 0
-2636 -2784 0
-2588 -2784 0
-2784 -2635 2785 0
2784 -2785 0
2635 -2785 0
2785 -2783 2786 0
-2785 -2786 0
2783 -2786 0
2627 2580 2787 0
-2627 -2787 0
-2580 -2787 0
2787 -2545 2788 0
-2787 -2788 0
2545 -2788 0
2627 2579 2789 0
-2627 -2789 0
-2579 -2789 0
-2789 -2626 2790 0
2789 -2790 0
2626 -2790 0
2790 -2788 2791 0
-2790 -2791 0
2788 -2791 0
-2791 19 2792 0
2791 -2792 0
-19 -2792 0
-2792 -14 2793 0
2792 -2793 0
14 -2793 0
2792 14 2794 0
-2792 -2794 0
-14 -2794 0
-2794 -2793 2795 0
2794 -2795 0
2793 -2795 0
-2795 2786 2796 0
2795 -2796 0
-2786 -2796 0
2795 -2786 2797 0
-2795 -2797 0
2786 -2797 0
-2797 -2796 2798 0
2797 -2798 0
2796 -2798 0
2798 20 2799 0
-2798 -2799 0
-20 -2799 0
2792 -20 2800 0
-2792 -2800 0
20 -2800 0
-2800 -2799 2801 0
2800 -2801 0
2799 -2801 0
2801 -13 2802 0
-2801 -2802 0
13 -2802 0
-2801 13 2803 0
2801 -2803 0
-13 -2803 0
-2803 -2802 2804 0
2803 -2804 0
2802 -2804 0
-2804 2781 2805 0
2804 -2805 0
-2781 -2805 0
2804 -2781 2806 0
-2804 -2806 0
2781 -2806 0
-2806 -2805 2807 0
2806 -2807 0
2805 -2807 0
2807 21 2808 0
-2807 -2808 0
-21 -2808 0
-2801 -21 2809 0
2801 -2809 0
21 -2809 0
-2809 -2808 2810 0
2809 -2810 0
2808 -2810 0
2810 -12 2811 0
-2810 -2811 0
12 -2811 0
-2810 12 2812 0
2810 -2812 0
-12 -2812 0
-2812 -2811 2813 0
2812 -2813 0
2811 -2813 0
-2813 2776 2814 0
2813 -2814 0
-2776 -2814 0
2813 -2776 2815 0
-2813 -2815 0
2776 -2815 0
-2815 -2814 2816 0
2815 -2816 0
2814 -2816 0
2816 22 2817 0
-2816 -2817 0
-22 -2817 0
-2810 -22 2818 0
2810 -2818 0
22 -2818 0
-2818 -2817 2819 0
2818 -2819 0
2817 -2819 0
2819 -11 2820 0
-2819 -2820 0
11 -2820 0
-2819 11 2821 0
2819 -2821 0
-11 -2821 0
-2821 -2820 2822 0
2821 -2822 0
2820 -2822 0
-2822 2771 2823 0
2822 -2823 0
-2771 -2823 0
2822 -2771 2824 0
-2822 -2824 0
2771 -2824 0
-2824 -2823 2825 0
2824 -2825 0
2823 -2825 0
2825 23 2826 0
-2825 -2826 0
-23 -2826 0
-2819 -23 2827 0
2819 -2827 0
23 -2827 0
-2827 -2826 2828 0
2827 -2828 0
2826 -2828 0
2828 -10 2829 0
-2828 -2829 0
10 -2829 0
-2828 10 2830 0
2828 -2830 0
-10 -2830 0
-2830 -2829 2831 0
2830 -2831 0
2829 -2831 0
2831 -2766 2832 0
-2831 -2832 0
2766 -2832 0
-2832 -2830 2833 0
2832 -2833 0
2830 -2833 0
-2824 -2821 2834 0
2824 -2834 0
2821 -2834 0
-2815 -2812 2835 0
2815 -2835 0
2812 -2835 0
-2806 -2803 2836 0
2806 -2836 0
2803 -2836 0
-2797 -2794 2837 0
2797 -2837 0
2794 -2837 0
-2837 20 2838 0
2837 -2838 0
-20 -2838 0
-2838 -14 2839 0
2838 -2839 0
14 -2839 0
2838 14 2840 0
-2838 -2840 0
-14 -2840 0
-2840 -2839 2841 0
2840 -2841 0
2839 -2841 0
-2841 2836 2842 0
2841 -2842 0
-2836 -2842 0
2841 -2836 2843 0
-2841 -2843 0
2836 -2843 0
-2843 -2842 2844 0
2843 -2844 0
2842 -2844 0
2844 21 2845 0
-2844 -2845 0
-21 -2845 0
2838 -21 2846 0
-2838 -2846 0
21 -2846 0
-2846 -2845 2847 0
2846 -2847 0
2845 -2847 0
2847 -13 2848 0
-2847 -2848 0
13 -2848 0
-2847 13 2849 0
2847 -2849 0
-13 -2849 0
-2849 -2848 2850 0
2849 -2850 0
2848 -2850 0
-2850 2835 2851 0
2850 -2851 0
-2835 -2851 0
2850 -2835 2852 0
-2850 -2852 0
2835 -2852 0
-2852 -2851 2853 0
2852 -2853 0
2851 -2853 0
2853 22 2854 0
-2853 -2854 0
-22 -2854 0
-2847 -22 2855 0
2847 -2855 0
22 -2855 0
-2855 -2854 2856 0
2855 -2856 0
2854 -2856 0
2856 -12 2857 0
-2856 -2857 0
12 -2857 0
-2856 12 2858 0
2856 -2858 0
-12 -2858 0
-2858 -2857 2859 0
2858 -2859 0
2857 -2859 0
-2859 2834 2860 0
2859 -2860 0
-2834 -2860 0
2859 -2834 2861 0
-2859 -2861 0
2834 -2861 0
-2861 -2860 2862 0
2861 -2862 0
2860 -2862 0
2862 23 2863 0
-2862 -2863 0
-23 -2863 0
-2856 -23 2864 0
2856 -2864 0
23 -2864 0
-2864 -2863 2865 0
2864 -2865 0
2863 -2865 0
2865 -11 2866 0
-2865 -2866 0
11 -2866 0
-2865 11 2867 0
2865 -2867 0
-11 -2867 0
-2867 -2866 2868 0
2867 -2868 0
2866 -2868 0
-2868 2833 2869 0
2868 -2869 0
-2833 -2869 0
2868 -2833 2870 0
-2868 -2870 0
2833 -2870 0
-2870 -2869 2871 0
2870 -2871 0
2869 -2871 0
2871 24 2872 0
-2871 -2872 0
-24 -2872 0
-2865 -24 2873 0
2865 -2873 0
24 -2873 0
-2873 -2872 2874 0
2873 -2874 0
2872 -2874 0
2874 -10 2875 0
-2874 -2875 0
10 -2875 0
-2874 10 2876 0
2874 -2876 0
-10 -2876 0
-2876 -2875 2877 0
2876 -2877 0
2875 -2877 0
-2831 2766 2878 0
2831 -2878 0
-2766 -2878 0
-2878 -2832 2879 0
2878 -2879 0
2832 -2879 0
2879 24 2880 0
-2879 -2880 0
-24 -2880 0
-2828 -24 2881 0
2828 -2881 0
24 -2881 0
-2881 -2880 2882 0
2881 -2882 0
2880 -2882 0
2882 -9 2883 0
-2882 -2883 0
9 -2883 0
-2882 9 2884 0
2882 -2884 0
-9 -2884 0
-2884 -2883 2885 0
2884 -2885 0
2883 -2885 0
2885 2877 2886 0
-2885 -2886 0
-2877 -2886 0
-2762 2680 2887 0
2762 -2887 0
-2680 -2887 0
-2887 -2679 2888 0
2887 -2888 0
2679 -2888 0
2888 -2672 2889 0
-2888 -2889 0
2672 -2889 0
-2888 2672 2890 0
2888 -2890 0
-2672 -2890 0
-2890 -2889 2891 0
2890 -2891 0
2889 -2891 0
2891 24 2892 0
-2891 -2892 0
-24 -2892 0
-2669 -24 2893 0
2669 -2893 0
24 -2893 0
-2893 -2892 2894 0
2893 -2894 0
2892 -2894 0
2894 -8 2895 0
-2894 -2895 0
8 -2895 0
-2894 8 2896 0
2894 -2896 0
-8 -2896 0
-2896 -2895 2897 0
2896 -2897 0
2895 -2897 0
2762 -2680 2898 0
-2762 -2898 0
2680 -2898 0
-2898 -2887 2899 0
2898 -2899 0
2887 -2899 0
2899 24 2900 0
-2899 -2900 0
-24 -2900 0
-2677 -24 2901 0
2677 -2901 0
24 -2901 0
-2901 -2900 2902 0
2901 -2902 0
2900 -2902 0
2902 -7 2903 0
-2902 -2903 0
7 -2903 0
-2902 7 2904 0
2902 -2904 0
-7 -2904 0
-2904 -2903 2905 0
2904 -2905 0
2903 -2905 0
2905 2897 2906 0
-2905 -2906 0
-2897 -2906 0
2906 2886 2907 0
-2906 -2907 0
-2886 -2907 0
-2754 2723 2908 0
2754 -2908 0
-2723 -2908 0
-2908 2757 2909 0
2908 -2909 0
-2757 -2909 0
-2909 2702 2910 0
2909 -2910 0
-2702 -2910 0
-2910 -2701 2911 0
2910 -2911 0
2701 -2911 0
2911 -2694 2912 0
-2911 -2912 0
2694 -2912 0
-2911 2694 2913 0
2911 -2913 0
-2694 -2913 0
-2913 -2912 2914 0
2913 -2914 0
2912 -2914 0
2914 24 2915 0
-2914 -2915 0
-24 -2915 0
-2691 -24 2916 0
2691 -2916 0
24 -2916 0
-2916 -2915 2917 0
2916 -2917 0
2915 -2917 0
2917 -6 2918 0
-2917 -2918 0
6 -2918 0
-2917 6 2919 0
2917 -2919 0
-6 -2919 0
-2919 -2918 2920 0
2919 -2920 0
2918 -2920 0
2909 -2702 2921 0
-2909 -2921 0
2702 -2921 0
-2921 -2910 2922 0
2921 -2922 0
2910 -2922 0
2922 24 2923 0
-2922 -2923 0
-24 -2923 0
-2699 -24 2924 0
2699 -2924 0
24 -2924 0
-2924 -2923 2925 0
2924 -2925 0
2923 -2925 0
2925 -5 2926 0
-2925 -2926 0
5 -2926 0
-2925 5 2927 0
2925 -2927 0
-5 -2927 0
-2927 -2926 2928 0
2927 -2928 0
2926 -2928 0
2928 2920 2929 0
-2928 -2929 0
-2920 -2929 0
-2754 2722 2930 0
2754 -2930 0
-2722 -2930 0
-2930 -2721 2931 0
2930 -2931 0
2721 -2931 0
2931 -2714 2932 0
-2931 -2932 0
2714 -2932 0
-2931 2714 2933 0
2931 -2933 0
-2714 -2933 0
-2933 -2932 2934 0
2933 -2934 0
2932 -2934 0
2934 24 2935 0
-2934 -2935 0
-24 -2935 0
-2711 -24 2936 0
2711 -2936 0
24 -2936 0
-2936 -2935 2937 0
2936 -2937 0
2935 -2937 0
2937 -4 2938 0
-2937 -2938 0
4 -2938 0
-2937 4 2939 0
2937 -2939 0
-4 -2939 0
-2939 -2938 2940 0
2939 -2940 0
2938 -2940 0
2754 -2722 2941 0
-2754 -2941 0
2722 -2941 0
-2941 -2930 2942 0
2941 -2942 0
2930 -2942 0
2942 24 2943 0
-2942 -2943 0
-24 -2943 0
-2719 -24 2944 0
2719 -2944 0
24 -2944 0
-2944 -2943 2945 0
2944 -2945 0
2943 -2945 0
2945 -3 2946 0
-2945 -2946 0
3 -2946 0
-2945 3 2947 0
2945 -2947 0
-3 -2947 0
-2947 -2946 2948 0
2947 -2948 0
2946 -2948 0
2948 2940 2949 0
-2948 -2949 0
-2940 -2949 0
2949 2929 2950 0
-2949 -2950 0
-2929 -2950 0
2750 2743 2951 0
-2750 -2951 0
-2743 -2951 0
-2951 -2742 2952 0
2951 -2952 0
2742 -2952 0
2952 -2735 2953 0
-2952 -2953 0
2735 -2953 0
-2952 2735 2954 0
2952 -2954 0
-2735 -2954 0
-2954 -2953 2955 0
2954 -2955 0
2953 -2955 0
2955 24 2956 0
-2955 -2956 0
-24 -2956 0
-2732 -24 2957 0
2732 -2957 0
24 -2957 0
-2957 -2956 2958 0
2957 -2958 0
2956 -2958 0
2958 -2 2959 0
-2958 -2959 0
2 -2959 0
-2958 2 2960 0
2958 -2960 0
-2 -2960 0
-2960 -2959 2961 0
2960 -2961 0
2959 -2961 0
-2750 -2743 2962 0
2750 -2962 0
2743 -2962 0
-2962 -2951 2963 0
2962 -2963 0
2951 -2963 0
2963 24 2964 0
-2963 -2964 0
-24 -2964 0
-2740 -24 2965 0
2740 -2965 0
24 -2965 0
-2965 -2964 2966 0
2965 -2966 0
2964 -2966 0
-2966 1 2967 0
2966 -2967 0
-1 -2967 0
2967 2961 2968 0
-2967 -2968 0
-2961 -2968 0
-2968 -2960 2969 0
2968 -2969 0
2960 -2969 0
-2969 2950 2970 0
2969 -2970 0
-2950 -2970 0
2947 2940 2971 0
-2947 -2971 0
-2940 -2971 0
-2971 -2939 2972 0
2971 -2972 0
2939 -2972 0
-2972 2929 2973 0
2972 -2973 0
-2929 -2973 0
2927 2920 2974 0
-2927 -2974 0
-2920 -2974 0
-2974 -2919 2975 0
2974 -2975 0
2919 -2975 0
2975 -2973 2976 0
-2975 -2976 0
2973 -2976 0
2976 -2970 2977 0
-2976 -2977 0
2970 -2977 0
-2977 2907 2978 0
2977 -2978 0
-2907 -2978 0
2904 2897 2979 0
-2904 -2979 0
-2897 -2979 0
-2979 -2896 2980 0
2979 -2980 0
2896 -2980 0
-2980 2886 2981 0
2980 -2981 0
-2886 -2981 0
2884 2877 2982 0
-2884 -2982 0
-2877 -2982 0
-2982 -2876 2983 0
2982 -2983 0
2876 -2983 0
2983 -2981 2984 0
-2983 -2984 0
2981 -2984 0
2984 -2978 2985 0
-2984 -2985 0
2978 -2985 0
2868 2831 2986 0
-2868 -2986 0
-2831 -2986 0
2986 2681 2987 0
-2986 -2987 0
-2681 -2987 0
2987 -2762 2988 0
-2987 -2988 0
2762 -2988 0
2986 -2765 2989 0
-2986 -2989 0
2765 -2989 0
2868 2830 2990 0
-2868 -2990 0
-2830 -2990 0
-2990 -2867 2991 0
2990 -2991 0
2867 -2991 0
2991 -2989 2992 0
-2991 -2992 0
2989 -2992 0
2992 -2988 2993 0
-2992 -2993 0
2988 -2993 0
2859 2822 2994 0
-2859 -2994 0
-2822 -2994 0
2994 2767 2995 0
-2994 -2995 0
-2767 -2995 0
2995 -2501 2996 0
-2995 -2996 0
2501 -2996 0
2994 -2770 2997 0
-2994 -2997 0
2770 -2997 0
2859 2821 2998 0
-2859 -2998 0
-2821 -2998 0
-2998 -2858 2999 0
2998 -2999 0
2858 -2999 0
2999 -2997 3000 0
-2999 -3000 0
2997 -3000 0
3000 -2996 3001 0
-3000 -3001 0
2996 -3001 0
2850 2813 3002 0
-2850 -3002 0
-2813 -3002 0
3002 2772 3003 0
-3002 -3003 0
-2772 -3003 0
3003 -2512 3004 0
-3003 -3004 0
2512 -3004 0
3002 -2775 3005 0
-3002 -3005 0
2775 -3005 0
2850 2812 3006 0
-2850 -3006 0
-2812 -3006 0
-3006 -2849 3007 0
3006 -3007 0
2849 -3007 0
3007 -3005 3008 0
-3007 -3008 0
3005 -3008 0
3008 -3004 3009 0
-3008 -3009 0
3004 -3009 0
2841 2804 3010 0
-2841 -3010 0
-2804 -3010 0
3010 2777 3011 0
-3010 -3011 0
-2777 -3011 0
3011 -2523 3012 0
-3011 -3012 0
2523 -3012 0
3010 -2780 3013 0
-3010 -3013 0
2780 -3013 0
2841 2803 3014 0
-2841 -3014 0
-2803 -3014 0
-3014 -2840 3015 0
3014 -3015 0
2840 -3015 0
3015 -3013 3016 0
-3015 -3016 0
3013 -3016 0
3016 -3012 3017 0
-3016 -3017 0
3012 -3017 0
-3017 21 3018 0
3017 -3018 0
-21 -3018 0
-3018 -14 3019 0
3018 -3019 0
14 -3019 0
3018 14 3020 0
-3018 -3020 0
-14 -3020 0
-3020 -3019 3021 0
3020 -3021 0
3019 -3021 0
-3021 3009 3022 0
3021 -3022 0
-3009 -3022 0
3021 -3009 3023 0
-3021 -3023 0
3009 -3023 0
-3023 -3022 3024 0
3023 -3024 0
3022 -3024 0
3024 22 3025 0
-3024 -3025 0
-22 -3025 0
3018 -22 3026 0
-3018 -3026 0
22 -3026 0
-3026 -3025 3027 0
3026 -3027 0
3025 -3027 0
3027 -13 3028 0
-3027 -3028 0
13 -3028 0
-3027 13 3029 0
3027 -3029 0
-13 -3029 0
-3029 -3028 3030 0
3029 -3030 0
3028 -3030 0
-3030 3001 3031 0
3030 -3031 0
-3001 -3031 0
3030 -3001 3032 0
-3030 -3032 0
3001 -3032 0
-3032 -3031 3033 0
3032 -3033 0
3031 -3033 0
3033 23 3034 0
-3033 -3034 0
-23 -3034 0
-3027 -23 3035 0
3027 -3035 0
23 -3035 0
-3035 -3034 3036 0
3035 -3036 0
3034 -3036 0
3036 -12 3037 0
-3036 -3037 0
12 -3037 0
-3036 12 3038 0
3036 -3038 0
-12 -3038 0
-3038 -3037 3039 0
3038 -3039 0
3037 -3039 0
-3039 2993 3040 0
3039 -3040 0
-2993 -3040 0
3039 -2993 3041 0
-3039 -3041 0
2993 -3041 0
-3041 -3040 3042 0
3041 -3042 0
3040 -3042 0
3042 24 3043 0
-3042 -3043 0
-24 -3043 0
-3036 -24 3044 0
3036 -3044 0
24 -3044 0
-3044 -3043 3045 0
3044 -3045 0
3043 -3045 0
3045 -11 3046 0
-3045 -3046 0
11 -3046 0
-3045 11 3047 0
3045 -3047 0
-11 -3047 0
-3047 -3046 3048 0
3047 -3048 0
3046 -3048 0
3048 -2985 3049 0
-3048 -3049 0
2985 -3049 0
-3049 -3047 3050 0
3049 -3050 0
3047 -3050 0
-3041 -3038 3051 0
3041 -3051 0
3038 -3051 0
-3032 -3029 3052 0
3032 -3052 0
3029 -3052 0
-3023 -3020 3053 0
3023 -3053 0
3020 -3053 0
-3053 22 3054 0
3053 -3054 0
-22 -3054 0
-3054 -14 3055 0
3054 -3055 0
14 -3055 0
3054 14 3056 0
-3054 -3056 0
-14 -3056 0
-3056 -3055 3057 0
3056 -3057 0
3055 -3057 0
-3057 3052 3058 0
3057 -3058 0
-3052 -3058 0
3057 -3052 3059 0
-3057 -3059 0
3052 -3059 0
-3059 -3058 3060 0
3059 -3060 0
3058 -3060 0
3060 23 3061 0
-3060 -3061 0
-23 -3061 0
3054 -23 3062 0
-3054 -3062 0
23 -3062 0
-3062 -3061 3063 0
3062 -3063 0
3061 -3063 0
3063 -13 3064 0
-3063 -3064 0
13 -3064 0
-3063 13 3065 0
3063 -3065 0
-13 -3065 0
-3065 -3064 3066 0
3065 -3066 0
3064 -3066 0
-3066 3051 3067 0
3066 -3067 0
-3051 -3067 0
3066 -3051 3068 0
-3066 -3068 0
3051 -3068 0
-3068 -3067 3069 0
3068 -3069 0
3067 -3069 0
3069 24 3070 0
-3069 -3070 0
-24 -3070 0
-3063 -24 3071 0
3063 -3071 0
24 -3071 0
-3071 -3070 3072 0
3071 -3072 0
3070 -3072 0
3072 -12 3073 0
-3072 -3073 0
12 -3073 0
-3072 12 3074 0
3072 -3074 0
-12 -3074 0
-3074 -3073 3075 0
3074 -3075 0
3073 -3075 0
-3075 3050 3076 0
3075 -3076 0
-3050 -3076 0
3075 -3050 3077 0
-3075 -3077 0
3050 -3077 0
-3077 -3076 3078 0
3077 -3078 0
3076 -3078 0
3078 25 3079 0
-3078 -3079 0
-25 -3079 0
-3072 -25 3080 0
3072 -3080 0
25 -3080 0
-3080 -3079 3081 0
3080 -3081 0
3079 -3081 0
3081 -11 3082 0
-3081 -3082 0
11 -3082 0
-3081 11 3083 0
3081 -3083 0
-11 -3083 0
-3083 -3082 3084 0
3083 -3084 0
3082 -3084 0
-3048 2985 3085 0
3048 -3085 0
-2985 -3085 0
-3085 -3049 3086 0
3085 -3086 0
3049 -3086 0
3086 25 3087 0
-3086 -3087 0
-25 -3087 0
-3045 -25 3088 0
3045 -3088 0
25 -3088 0
-3088 -3087 3089 0
3088 -3089 0
3087 -3089 0
3089 -10 3090 0
-3089 -3090 0
10 -3090 0
-3089 10 3091 0
3089 -3091 0
-10 -3091 0
-3091 -3090 3092 0
3091 -3092 0
3090 -3092 0
3092 3084 3093 0
-3092 -3093 0
-3084 -3093 0
-2977 2906 3094 0
2977 -3094 0
-2906 -3094 0
-3094 2980 3095 0
3094 -3095 0
-2980 -3095 0
-3095 2885 3096 0
3095 -3096 0
-2885 -3096 0
-3096 -2884 3097 0
3096 -3097 0
2884 -3097 0
3097 -2877 3098 0
-3097 -3098 0
2877 -3098 0
-3097 2877 3099 0
3097 -3099 0
-2877 -3099 0
-3099 -3098 3100 0
3099 -3100 0
3098 -3100 0
3100 25 3101 0
-3100 -3101 0
-25 -3101 0
-2874 -25 3102 0
2874 -3102 0
25 -3102 0
-3102 -3101 3103 0
3102 -3103 0
3101 -3103 0
3103 -9 3104 0
-3103 -3104 0
9 -3104 0
-3103 9 3105 0
3103 -3105 0
-9 -3105 0
-3105 -3104 3106 0
3105 -3106 0
3104 -3106 0
3095 -2885 3107 0
-3095 -3107 0
2885 -3107 0
-3107 -3096 3108 0
3107 -3108 0
3096 -3108 0
3108 25 3109 0
-3108 -3109 0
-25 -3109 0
-2882 -25 3110 0
2882 -3110 0
25 -3110 0
-3110 -3109 3111 0
3110 -3111 0
3109 -3111 0
3111 -8 3112 0
-3111 -3112 0
8 -3112 0
-3111 8 3113 0
3111 -3113 0
-8 -3113 0
-3113 -3112 3114 0
3113 -3114 0
3112 -3114 0
3114 3106 3115 0
-3114 -3115 0
-3106 -3115 0
-2977 2905 3116 0
2977 -3116 0
-2905 -3116 0
-3116 -2904 3117 0
3116 -3117 0
2904 -3117 0
3117 -2897 3118 0
-3117 -3118 0
2897 -3118 0
-3117 2897 3119 0
3117 -3119 0
-2897 -3119 0
-3119 -3118 3120 0
3119 -3120 0
3118 -3120 0
3120 25 3121 0
-3120 -3121 0
-25 -3121 0
-2894 -25 3122 0
2894 -3122 0
25 -3122 0
-3122 -3121 3123 0
3122 -3123 0
3121 -3123 0
3123 -7 3124 0
-3123 -3124 0
7 -3124 0
-3123 7 3125 0
3123 -3125 0
-7 -3125 0
-3125 -3124 3126 0
3125 -3126 0
3124 -3126 0
2977 -2905 3127 0
-2977 -3127 0
2905 -3127 0
-3127 -3116 3128 0
3127 -3128 0
3116 -3128 0
3128 25 3129 0
-3128 -3129 0
-25 -3129 0
-2902 -25 3130 0
2902 -3130 0
25 -3130 0
-3130 -3129 3131 0
3130 -3131 0
3129 -3131 0
3131 -6 3132 0
-3131 -3132 0
6 -3132 0
-3131 6 3133 0
3131 -3133 0
-6 -3133 0
-3133 -3132 3134 0
3133 -3134 0
3132 -3134 0
3134 3126 3135 0
-3134 -3135 0
-3126 -3135 0
3135 3115 3136 0
-3135 -3136 0
-3115 -3136 0
-2969 2949 3137 0
2969 -3137 0
-2949 -3137 0
-3137 2972 3138 0
3137 -3138 0
-2972 -3138 0
-3138 2928 3139 0
3138 -3139 0
-2928 -3139 0
-3139 -2927 3140 0
3139 -3140 0
2927 -3140 0
3140 -2920 3141 0
-3140 -3141 0
2920 -3141 0
-3140 2920 3142 0
3140 -3142 0
-2920 -3142 0
-3142 -3141 3143 0
3142 -3143 0
3141 -3143 0
3143 25 3144 0
-3143 -3144 0
-25 -3144 0
-2917 -25 3145 0
2917 -3145 0
25 -3145 0
-3145 -3144 3146 0
3145 -3146 0
3144 -3146 0
3146 -5 3147 0
-3146 -3147 0
5 -3147 0
-3146 5 3148 0
3146 -3148 0
-5 -3148 0
-3148 -3147 3149 0
3148 -3149 0
3147 -3149 0
3138 -2928 3150 0
-3138 -3150 0
2928 -3150 0
-3150 -3139 3151 0
3150 -3151 0
3139 -3151 0
3151 25 3152 0
-3151 -3152 0
-25 -3152 0
-2925 -25 3153 0
2925 -3153 0
25 -3153 0
-3153 -3152 3154 0
3153 -3154 0
3152 -3154 0
3154 -4 3155 0
-3154 -3155 0
4 -3155 0
-3154 4 3156 0
3154 -3156 0
-4 -3156 0
-3156 -3155 3157 0
3156 -3157 0
3155 -3157 0
3157 3149 3158 0
-3157 -3158 0
-3149 -3158 0
-2969 2948 3159 0
2969 -3159 0
-2948 -3159 0
-3159 -2947 3160 0
3159 -3160 0
2947 -3160 0
3160 -2940 3161 0
-3160 -3161 0
2940 -3161 0
-3160 2940 3162 0
3160 -3162 0
-2940 -3162 0
-3162 -3161 3163 0
3162 -3163 0
3161 -3163 0
3163 25 3164 0
-3163 -3164 0
-25 -3164 0
-2937 -25 3165 0
2937 -3165 0
25 -3165 0
-3165 -3164 3166 0
3165 -3166 0
3164 -3166 0
3166 -3 3167 0
-3166 -3167 0
3 -3167 0
-3166 3 3168 0
3166 -3168 0
-3 -3168 0
-3168 -3167 3169 0
3168 -3169 0
3167 -3169 0
2969 -2948 3170 0
-2969 -3170 0
2948 -3170 0
-3170 -3159 3171 0
3170 -3171 0
3159 -3171 0
3171 25 3172 0
-3171 -3172 0
-25 -3172 0
-2945 -25 3173 0
2945 -3173 0
25 -3173 0
-3173 -3172 3174 0
3173 -3174 0
3172 -3174 0
3174 -2 3175 0
-3174 -3175 0
2 -3175 0
-3174 2 3176 0
3174 -3176 0
-2 -3176 0
-3176 -3175 3177 0
3176 -3177 0
3175 -3177 0
3177 3169 3178 0
-3177 -3178 0
-3169 -3178 0
3178 3158 3179 0
-3178 -3179 0
-3158 -3179 0
-2967 -2961 3180 0
2967 -3180 0
2961 -3180 0
-3180 -2968 3181 0
3180 -3181 0
2968 -3181 0
3181 25 3182 0
-3181 -3182 0
-25 -3182 0
-2958 -25 3183 0
2958 -3183 0
25 -3183 0
-3183 -3182 3184 0
3183 -3184 0
3182 -3184 0
-3184 1 3185 0
3184 -3185 0
-1 -3185 0
3185 3179 3186 0
-3185 -3186 0
-3179 -3186 0
3176 3169 3187 0
-3176 -3187 0
-3169 -3187 0
-3187 -3168 3188 0
3187 -3188 0
3168 -3188 0
-3188 3158 3189 0
3188 -3189 0
-3158 -3189 0
3156 3149 3190 0
-3156 -3190 0
-3149 -3190 0
-3190 -3148 3191 0
3190 -3191 0
3148 -3191 0
3191 -3189 3192 0
-3191 -3192 0
3189 -3192 0
3192 -3186 3193 0
-3192 -3193 0
3186 -3193 0
-3193 3136 3194 0
3193 -3194 0
-3136 -3194 0
3133 3126 3195 0
-3133 -3195 0
-3126 -3195 0
-3195 -3125 3196 0
3195 -3196 0
3125 -3196 0
-3196 3115 3197 0
3196 -3197 0
-3115 -3197 0
3113 3106 3198 0
-3113 -3198 0
-3106 -3198 0
-3198 -3105 3199 0
3198 -3199 0
3105 -3199 0
3199 -3197 3200 0
-3199 -3200 0
3197 -3200 0
3200 -3194 3201 0
-3200 -3201 0
3194 -3201 0
-3201 3093 3202 0
3201 -3202 0
-3093 -3202 0
3091 3084 3203 0
-3091 -3203 0
-3084 -3203 0
-3203 -3083 3204 0
3203 -3204 0
3083 -3204 0
3204 -3202 3205 0
-3204 -3205 0
3202 -3205 0
3075 3048 3206 0
-3075 -3206 0
-3048 -3206 0
3206 -2985 3207 0
-3206 -3207 0
2985 -3207 0
3075 3047 3208 0
-3075 -3208 0
-3047 -3208 0
-3208 -3074 3209 0
3208 -3209 0
3074 -3209 0
3209 -3207 3210 0
-3209 -3210 0
3207 -3210 0
3066 3039 3211 0
-3066 -3211 0
-3039 -3211 0
3211 -2993 3212 0
-3211 -3212 0
2993 -3212 0
3066 3038 3213 0
-3066 -3213 0
-3038 -3213 0
-3213 -3065 3214 0
3213 -3214 0
3065 -3214 0
3214 -3212 3215 0
-3214 -3215 0
3212 -3215 0
3057 3030 3216 0
-3057 -3216 0
-3030 -3216 0
3216 -3001 3217 0
-3216 -3217 0
3001 -3217 0
3057 3029 3218 0
-3057 -3218 0
-3029 -3218 0
-3218 -3056 3219 0
3218 -3219 0
3056 -3219 0
3219 -3217 3220 0
-3219 -3220 0
3217 -3220 0
-3220 23 3221 0
3220 -3221 0
-23 -3221 0
-3221 -14 3222 0
3221 -3222 0
14 -3222 0
3221 14 3223 0
-3221 -3223 0
-14 -3223 0
-3223 -3222 3224 0
3223 -3224 0
3222 -3224 0
-3224 3215 3225 0
3224 -3225 0
-3215 -3225 0
3224 -3215 3226 0
-3224 -3226 0
3215 -3226 0
-3226 -3225 3227 0
3226 -3227 0
3225 -3227 0
3227 24 3228 0
-3227 -3228 0
-24 -3228 0
3221 -24 3229 0
-3221 -3229 0
24 -3229 0
-3229 -3228 3230 0
3229 -3230 0
3228 -3230 0
3230 -13 3231 0
-3230 -3231 0
13 -3231 0
-3230 13 3232 0
3230 -3232 0
-13 -3232 0
-3232 -3231 3233 0
3232 -3233 0
3231 -3233 0
-3233 3210 3234 0
3233 -3234 0
-3210 -3234 0
3233 -3210 3235 0
-3233 -3235 0
3210 -3235 0
-3235 -3234 3236 0
3235 -3236 0
3234 -3236 0
3236 25 3237 0
-3236 -3237 0
-25 -3237 0
-3230 -25 3238 0
3230 -3238 0
25 -3238 0
-3238 -3237 3239 0
3238 -3239 0
3237 -3239 0
3239 -12 3240 0
-3239 -3240 0
12 -3240 0
-3239 12 3241 0
3239 -3241 0
-12 -3241 0
-3241 -3240 3242 0
3241 -3242 0
3240 -3242 0
3242 -3205 3243 0
-3242 -3243 0
3205 -3243 0
-3243 -3241 3244 0
3243 -3244 0
3241 -3244 0
-3235 -3232 3245 0
3235 -3245 0
3232 -3245 0
-3226 -3223 3246 0
3226 -3246 0
3223 -3246 0
-3246 24 3247 0
3246 -3247 0
-24 -3247 0
-3247 -14 3248 0
3247 -3248 0
14 -3248 0
3247 14 3249 0
-3247 -3249 0
-14 -3249 0
-3249 -3248 3250 0
3249 -3250 0
3248 -3250 0
-3250 3245 3251 0
3250 -3251 0
-3245 -3251 0
3250 -3245 3252 0
-3250 -3252 0
3245 -3252 0
-3252 -3251 3253 0
3252 -3253 0
3251 -3253 0
3253 25 3254 0
-3253 -3254 0
-25 -3254 0
3247 -25 3255 0
-3247 -3255 0
25 -3255 0
-3255 -3254 3256 0
3255 -3256 0
3254 -3256 0
3256 -13 3257 0
-3256 -3257 0
13 -3257 0
-3256 13 3258 0
3256 -3258 0
-13 -3258 0
-3258 -3257 3259 0
3258 -3259 0
3257 -3259 0
-3259 3244 3260 0
3259 -3260 0
-3244 -3260 0
3259 -3244 3261 0
-3259 -3261 0
3244 -3261 0
-3261 -3260 3262 0
3261 -3262 0
3260 -3262 0
3262 26 3263 0
-3262 -3263 0
-26 -3263 0
-3256 -26 3264 0
3256 -3264 0
26 -3264 0
-3264 -3263 3265 0
3264 -3265 0
3263 -3265 0
3265 -12 3266 0
-3265 -3266 0
12 -3266 0
-3265 12 3267 0
3265 -3267 0
-12 -3267 0
-3267 -3266 3268 0
3267 -3268 0
3266 -3268 0
-3242 3205 3269 0
3242 -3269 0
-3205 -3269 0
-3269 -3243 3270 0
3269 -3270 0
3243 -3270 0
3270 26 3271 0
-3270 -3271 0
-26 -3271 0
-3239 -26 3272 0
3239 -3272 0
26 -3272 0
-3272 -3271 3273 0
3272 -3273 0
3271 -3273 0
3273 -11 3274 0
-3273 -3274 0
11 -3274 0
-3273 11 3275 0
3273 -3275 0
-11 -3275 0
-3275 -3274 3276 0
3275 -3276 0
3274 -3276 0
3276 3268 3277 0
-3276 -3277 0
-3268 -3277 0
-3201 3092 3278 0
3201 -3278 0
-3092 -3278 0
-3278 -3091 3279 0
3278 -3279 0
3091 -3279 0
3279 -3084 3280 0
-3279 -3280 0
3084 -3280 0
-3279 3084 3281 0
3279 -3281 0
-3084 -3281 0
-3281 -3280 3282 0
3281 -3282 0
3280 -3282 0
3282 26 3283 0
-3282 -3283 0
-26 -3283 0
-3081 -26 3284 0
3081 -3284 0
26 -3284 0
-3284 -3283 3285 0
3284 -3285 0
3283 -3285 0
3285 -10 3286 0
-3285 -3286 0
10 -3286 0
-3285 10 3287 0
3285 -3287 0
-10 -3287 0
-3287 -3286 3288 0
3287 -3288 0
3286 -3288 0
3201 -3092 3289 0
-3201 -3289 0
3092 -3289 0
-3289 -3278 3290 0
3289 -3290 0
3278 -3290 0
3290 26 3291 0
-3290 -3291 0
-26 -3291 0
-3089 -26 3292 0
3089 -3292 0
26 -3292 0
-3292 -3291 3293 0
3292 -3293 0
3291 -3293 0
3293 -9 3294 0
-3293 -3294 0
9 -3294 0
-3293 9 3295 0
3293 -3295 0
-9 -3295 0
-3295 -3294 3296 0
3295 -3296 0
3294 -3296 0
3296 3288 3297 0
-3296 -3297 0
-3288 -3297 0
3297 3277 3298 0
-3297 -3298 0
-3277 -3298 0
-3193 3135 3299 0
3193 -3299 0
-3135 -3299 0
-3299 3196 3300 0
3299 -3300 0
-3196 -3300 0
-3300 3114 3301 0
3300 -3301 0
-3114 -3301 0
-3301 -3113 3302 0
3301 -3302 0
3113 -3302 0
3302 -3106 3303 0
-3302 -3303 0
3106 -3303 0
-3302 3106 3304 0
3302 -3304 0
-3106 -3304 0
-3304 -3303 3305 0
3304 -3305 0
3303 -3305 0
3305 26 3306 0
-3305 -3306 0
-26 -3306 0
-3103 -26 3307 0
3103 -3307 0
26 -3307 0
-3307 -3306 3308 0
3307 -3308 0
3306 -3308 0
3308 -8 3309 0
-3308 -3309 0
8 -3309 0
-3308 8 3310 0
3308 -3310 0
-8 -3310 0
-3310 -3309 3311 0
3310 -3311 0
3309 -3311 0
3300 -3114 3312 0
-3300 -3312 0
3114 -3312 0
-3312 -3301 3313 0
3312 -3313 0
3301 -3313 0
3313 26 3314 0
-3313 -3314 0
-26 -3314 0
-3111 -26 3315 0
3111 -3315 0
26 -3315 0
-3315 -3314 3316 0
3315 -3316 0
3314 -3316 0
3316 -7 3317 0
-3316 -3317 0
7 -3317 0
-3316 7 3318 0
3316 -3318 0
-7 -3318 0
-3318 -3317 3319 0
3318 -3319 0
3317 -3319 0
3319 3311 3320 0
-3319 -3320 0
-3311 -3320 0
-3193 3134 3321 0
3193 -3321 0
-3134 -3321 0
-3321 -3133 3322 0
3321 -3322 0
3133 -3322 0
3322 -3126 3323 0
-3322 -3323 0
3126 -3323 0
-3322 3126 3324 0
3322 -3324 0
-3126 -3324 0
-3324 -3323 3325 0
3324 -3325 0
3323 -3325 0
3325 26 3326 0
-3325 -3326 0
-26 -3326 0
-3123 -26 3327 0
3123 -3327 0
26 -3327 0
-3327 -3326 3328 0
3327 -3328 0
3326 -3328 0
3328 -6 3329 0
-3328 -3329 0
6 -3329 0
-3328 6 3330 0
3328 -3330 0
-6 -3330 0
-3330 -3329 3331 0
3330 -3331 0
3329 -3331 0
3193 -3134 3332 0
-3193 -3332 0
3134 -3332 0
-3332 -3321 3333 0
3332 -3333 0
3321 -3333 0
3333 26 3334 0
-3333 -3334 0
-26 -3334 0
-3131 -26 3335 0
3131 -3335 0
26 -3335 0
-3335 -3334 3336 0
3335 -3336 0
3334 -3336 0
3336 -5 3337 0
-3336 -3337 0
5 -3337 0
-3336 5 3338 0
3336 -3338 0
-5 -3338 0
-3338 -3337 3339 0
3338 -3339 0
3337 -3339 0
3339 3331 3340 0
-3339 -3340 0
-3331 -3340 0
3340 3320 3341 0
-3340 -3341 0
-3320 -3341 0
3341 3298 3342 0
-3341 -3342 0
-3298 -3342 0
3185 3178 3343 0
-3185 -3343 0
-3178 -3343 0
-3343 3188 3344 0
3343 -3344 0
-3188 -3344 0
-3344 3157 3345 0
3344 -3345 0
-3157 -3345 0
-3345 -3156 3346 0
3345 -3346 0
3156 -3346 0
3346 -3149 3347 0
-3346 -3347 0
3149 -3347 0
-3346 3149 3348 0
3346 -3348 0
-3149 -3348 0
-3348 -3347 3349 0
3348 -3349 0
3347 -3349 0
3349 26 3350 0
-3349 -3350 0
-26 -3350 0
-3146 -26 3351 0
3146 -3351 0
26 -3351 0
-3351 -3350 3352 0
3351 -3352 0
3350 -3352 0
3352 -4 3353 0
-3352 -3353 0
4 -3353 0
-3352 4 3354 0
3352 -3354 0
-4 -3354 0
-3354 -3353 3355 0
3354 -3355 0
3353 -3355 0
3344 -3157 3356 0
-3344 -3356 0
3157 -3356 0
-3356 -3345 3357 0
3356 -3357 0
3345 -3357 0
3357 26 3358 0
-3357 -3358 0
-26 -3358 0
-3154 -26 3359 0
3154 -3359 0
26 -3359 0
-3359 -3358 3360 0
3359 -3360 0
3358 -3360 0
3360 -3 3361 0
-3360 -3361 0
3 -3361 0
-3360 3 3362 0
3360 -3362 0
-3 -3362 0
-3362 -3361 3363 0
3362 -3363 0
3361 -3363 0
3363 3355 3364 0
-3363 -3364 0
-3355 -3364 0
3185 3177 3365 0
-3185 -3365 0
-3177 -3365 0
-3365 -3176 3366 0
3365 -3366 0
3176 -3366 0
3366 -3169 3367 0
-3366 -3367 0
3169 -3367 0
-3366 3169 3368 0
3366 -3368 0
-3169 -3368 0
-3368 -3367 3369 0
3368 -3369 0
3367 -3369 0
3369 26 3370 0
-3369 -3370 0
-26 -3370 0
-3166 -26 3371 0
3166 -3371 0
26 -3371 0
-3371 -3370 3372 0
3371 -3372 0
3370 -3372 0
3372 -2 3373 0
-3372 -3373 0
2 -3373 0
-3372 2 3374 0
3372 -3374 0
-2 -3374 0
-3374 -3373 3375 0
3374 -3375 0
3373 -3375 0
-3185 -3177 3376 0
3185 -3376 0
3177 -3376 0
-3376 -3365 3377 0
3376 -3377 0
3365 -3377 0
3377 26 3378 0
-3377 -3378 0
-26 -3378 0
-3174 -26 3379 0
3174 -3379 0
26 -3379 0
-3379 -3378 3380 0
3379 -3380 0
3378 -3380 0
-3380 1 3381 0
3380 -3381 0
-1 -3381 0
3381 3375 3382 0
-3381 -3382 0
-3375 -3382 0
-3382 -3374 3383 0
3382 -3383 0
3374 -3383 0
-3383 3364 3384 0
3383 -3384 0
-3364 -3384 0
3362 3355 3385 0
-3362 -3385 0
-3355 -3385 0
-3385 -3354 3386 0
3385 -3386 0
3354 -3386 0
3386 -3384 3387 0
-3386 -3387 0
3384 -3387 0
-3387 3342 3388 0
3387 -3388 0
-3342 -3388 0
3338 3331 3389 0
-3338 -3389 0
-3331 -3389 0
-3389 -3330 3390 0
3389 -3390 0
3330 -3390 0
-3390 3320 3391 0
3390 -3391 0
-3320 -3391 0
3318 3311 3392 0
-3318 -3392 0
-3311 -3392 0
-3392 -3310 3393 0
3392 -3393 0
3310 -3393 0
3393 -3391 3394 0
-3393 -3394 0
3391 -3394 0
-3394 3298 3395 0
3394 -3395 0
-3298 -3395 0
3295 3288 3396 0
-3295 -3396 0
-3288 -3396 0
-3396 -3287 3397 0
3396 -3397 0
3287 -3397 0
-3397 3277 3398 0
3397 -3398 0
-3277 -3398 0
3275 3268 3399 0
-3275 -3399 0
-3268 -3399 0
-3399 -3267 3400 0
3399 -3400 0
3267 -3400 0
3400 -3398 3401 0
-3400 -3401 0
3398 -3401 0
3401 -3395 3402 0
-3401 -3402 0
3395 -3402 0
3402 -3388 3403 0
-3402 -3403 0
3388 -3403 0
3259 3242 3404 0
-3259 -3404 0
-3242 -3404 0
3404 3093 3405 0
-3404 -3405 0
-3093 -3405 0
3405 3136 3406 0
-3405 -3406 0
-3136 -3406 0
3406 -3193 3407 0
-3406 -3407 0
3193 -3407 0
3405 -3200 3408 0
-3405 -3408 0
3200 -3408 0
3404 -3204 3409 0
-3404 -3409 0
3204 -3409 0
3259 3241 3410 0
-3259 -3410 0
-3241 -3410 0
-3410 -3258 3411 0
3410 -3411 0
3258 -3411 0
3411 -3409 3412 0
-3411 -3412 0
3409 -3412 0
3412 -3408 3413 0
-3412 -3413 0
3408 -3413 0
3413 -3407 3414 0
-3413 -3414 0
3407 -3414 0
3250 3233 3415 0
-3250 -3415 0
-3233 -3415 0
3415 3206 3416 0
-3415 -3416 0
-3206 -3416 0
3416 2907 3417 0
-3416 -3417 0
-2907 -3417 0
3417 -2977 3418 0
-3417 -3418 0
2977 -3418 0
3416 -2984 3419 0
-3416 -3419 0
2984 -3419 0
3415 -3209 3420 0
-3415 -3420 0
3209 -3420 0
3250 3232 3421 0
-3250 -3421 0
-3232 -3421 0
-3421 -3249 3422 0
3421 -3422 0
3249 -3422 0
3422 -3420 3423 0
-3422 -3423 0
3420 -3423 0
3423 -3419 3424 0
-3423 -3424 0
3419 -3424 0
3424 -3418 3425 0
-3424 -3425 0
3418 -3425 0
-3425 25 3426 0
3425 -3426 0
-25 -3426 0
-3426 -14 3427 0
3426 -3427 0
14 -3427 0
3426 14 3428 0
-3426 -3428 0
-14 -3428 0
-3428 -3427 3429 0
3428 -3429 0
3427 -3429 0
-3429 3414 3430 0
3429 -3430 0
-3414 -3430 0
3429 -3414 3431 0
-3429 -3431 0
3414 -3431 0
-3431 -3430 3432 0
3431 -3432 0
3430 -3432 0
3432 26 3433 0
-3432 -3433 0
-26 -3433 0
3426 -26 3434 0
-3426 -3434 0
26 -3434 0
-3434 -3433 3435 0
3434 -3435 0
3433 -3435 0
3435 -13 3436 0
-3435 -3436 0
13 -3436 0
-3435 13 3437 0
3435 -3437 0
-13 -3437 0
-3437 -3436 3438 0
3437 -3438 0
3436 -3438 0
3438 -3403 3439 0
-3438 -3439 0
3403 -3439 0
-3439 -3437 3440 0
3439 -3440 0
3437 -3440 0
-3431 -3428 3441 0
3431 -3441 0
3428 -3441 0
-3441 26 3442 0
3441 -3442 0
-26 -3442 0
-3442 -14 3443 0
3442 -3443 0
14 -3443 0
3442 14 3444 0
-3442 -3444 0
-14 -3444 0
-3444 -3443 3445 0
3444 -3445 0
3443 -3445 0
-3445 3440 3446 0
3445 -3446 0
-3440 -3446 0
3445 -3440 3447 0
-3445 -3447 0
3440 -3447 0
-3447 -3446 3448 0
3447 -3448 0
3446 -3448 0
3448 27 3449 0
-3448 -3449 0
-27 -3449 0
3442 -27 3450 0
-3442 -3450 0
27 -3450 0
-3450 -3449 3451 0
3450 -3451 0
3449 -3451 0
3451 -13 3452 0
-3451 -3452 0
13 -3452 0
-3451 13 3453 0
3451 -3453 0
-13 -3453 0
-3453 -3452 3454 0
3453 -3454 0
3452 -3454 0
-3438 3403 3455 0
3438 -3455 0
-3403 -3455 0
-3455 -3439 3456 0
3455 -3456 0
3439 -3456 0
3456 27 3457 0
-3456 -3457 0
-27 -3457 0
-3435 -27 3458 0
3435 -3458 0
27 -3458 0
-3458 -3457 3459 0
3458 -3459 0
3457 -3459 0
3459 -12 3460 0
-3459 -3460 0
12 -3460 0
-3459 12 3461 0
3459 -3461 0
-12 -3461 0
-3461 -3460 3462 0
3461 -3462 0
3460 -3462 0
3462 3454 3463 0
-3462 -3463 0
-3454 -3463 0
-3387 3341 3464 0
3387 -3464 0
-3341 -3464 0
-3464 3394 3465 0
3464 -3465 0
-3394 -3465 0
-3465 3297 3466 0
3465 -3466 0
-3297 -3466 0
-3466 3397 3467 0
3466 -3467 0
-3397 -3467 0
-3467 3276 3468 0
3467 -3468 0
-3276 -3468 0
-3468 -3275 3469 0
3468 -3469 0
3275 -3469 0
3469 -3268 3470 0
-3469 -3470 0
3268 -3470 0
-3469 3268 3471 0
3469 -3471 0
-3268 -3471 0
-3471 -3470 3472 0
3471 -3472 0
3470 -3472 0
3472 27 3473 0
-3472 -3473 0
-27 -3473 0
-3265 -27 3474 0
3265 -3474 0
27 -3474 0
-3474 -3473 3475 0
3474 -3475 0
3473 -3475 0
3475 -11 3476 0
-3475 -3476 0
11 -3476 0
-3475 11 3477 0
3475 -3477 0
-11 -3477 0
-3477 -3476 3478 0
3477 -3478 0
3476 -3478 0
3467 -3276 3479 0
-3467 -3479 0
3276 -3479 0
-3479 -3468 3480 0
3479 -3480 0
3468 -3480 0
3480 27 3481 0
-3480 -3481 0
-27 -3481 0
-3273 -27 3482 0
3273 -3482 0
27 -3482 0
-3482 -3481 3483 0
3482 -3483 0
3481 -3483 0
3483 -10 3484 0
-3483 -3484 0
10 -3484 0
-3483 10 3485 0
3483 -3485 0
-10 -3485 0
-3485 -3484 3486 0
3485 -3486 0
3484 -3486 0
3486 3478 3487 0
-3486 -3487 0
-3478 -3487 0
-3465 3296 3488 0
3465 -3488 0
-3296 -3488 0
-3488 -3295 3489 0
3488 -3489 0
3295 -3489 0
3489 -3288 3490 0
-3489 -3490 0
3288 -3490 0
-3489 3288 3491 0
3489 -3491 0
-3288 -3491 0
-3491 -3490 3492 0
3491 -3492 0
3490 -3492 0
3492 27 3493 0
-3492 -3493 0
-27 -3493 0
-3285 -27 3494 0
3285 -3494 0
27 -3494 0
-3494 -3493 3495 0
3494 -3495 0
3493 -3495 0
3495 -9 3496 0
-3495 -3496 0
9 -3496 0
-3495 9 3497 0
3495 -3497 0
-9 -3497 0
-3497 -3496 3498 0
3497 -3498 0
3496 -3498 0
3465 -3296 3499 0
-3465 -3499 0
3296 -3499 0
-3499 -3488 3500 0
3499 -3500 0
3488 -3500 0
3500 27 3501 0
-3500 -3501 0
-27 -3501 0
-3293 -27 3502 0
3293 -3502 0
27 -3502 0
-3502 -3501 3503 0
3502 -3503 0
3501 -3503 0
3503 -8 3504 0
-3503 -3504 0
8 -3504 0
-3503 8 3505 0
3503 -3505 0
-8 -3505 0
-3505 -3504 3506 0
3505 -3506 0
3504 -3506 0
3506 3498 3507 0
-3506 -3507 0
-3498 -3507 0
3507 3487 3508 0
-3507 -3508 0
-3487 -3508 0
-3387 3340 3509 0
3387 -3509 0
-3340 -3509 0
-3509 3390 3510 0
3509 -3510 0
-3390 -3510 0
-3510 3319 3511 0
3510 -3511 0
-3319 -3511 0
-3511 -3318 3512 0
3511 -3512 0
3318 -3512 0
3512 -3311 3513 0
-3512 -3513 0
3311 -3513 0
-3512 3311 3514 0
3512 -3514 0
-3311 -3514 0
-3514 -3513 3515 0
3514 -3515 0
3513 -3515 0
3515 27 3516 0
-3515 -3516 0
-27 -3516 0
-3308 -27 3517 0
3308 -3517 0
27 -3517 0
-3517 -3516 3518 0
3517 -3518 0
3516 -3518 0
3518 -7 3519 0
-3518 -3519 0
7 -3519 0
-3518 7 3520 0
3518 -3520 0
-7 -3520 0
-3520 -3519 3521 0
3520 -3521 0
3519 -3521 0
3510 -3319 3522 0
-3510 -3522 0
3319 -3522 0
-3522 -3511 3523 0
3522 -3523 0
3511 -3523 0
3523 27 3524 0
-3523 -3524 0
-27 -3524 0
-3316 -27 3525 0
3316 -3525 0
27 -3525 0
-3525 -3524 3526 0
3525 -3526 0
3524 -3526 0
3526 -6 3527 0
-3526 -3527 0
6 -3527 0
-3526 6 3528 0
3526 -3528 0
-6 -3528 0
-3528 -3527 3529 0
3528 -3529 0
3527 -3529 0
3529 3521 3530 0
-3529 -3530 0
-3521 -3530 0
-3387 3339 3531 0
3387 -3531 0
-3339 -3531 0
-3531 -3338 3532 0
3531 -3532 0
3338 -3532 0
3532 -3331 3533 0
-3532 -3533 0
3331 -3533 0
-3532 3331 3534 0
3532 -3534 0
-3331 -3534 0
-3534 -3533 3535 0
3534 -3535 0
3533 -3535 0
3535 27 3536 0
-3535 -3536 0
-27 -3536 0
-3328 -27 3537 0
3328 -3537 0
27 -3537 0
-3537 -3536 3538 0
3537 -3538 0
3536 -3538 0
3538 -5 3539 0
-3538 -3539 0
5 -3539 0
-3538 5 3540 0
3538 -3540 0
-5 -3540 0
-3540 -3539 3541 0
3540 -3541 0
3539 -3541 0
3387 -3339 3542 0
-3387 -3542 0
3339 -3542 0
-3542 -3531 3543 0
3542 -3543 0
3531 -3543 0
3543 27 3544 0
-3543 -3544 0
-27 -3544 0
-3336 -27 3545 0
3336 -3545 0
27 -3545 0
-3545 -3544 3546 0
3545 -3546 0
3544 -3546 0
3546 -4 3547 0
-3546 -3547 0
4 -3547 0
-3546 4 3548 0
3546 -3548 0
-4 -3548 0
-3548 -3547 3549 0
3548 -3549 0
3547 -3549 0
3549 3541 3550 0
-3549 -3550 0
-3541 -3550 0
3550 3530 3551 0
-3550 -3551 0
-3530 -3551 0
3551 3508 3552 0
-3551 -3552 0
-3508 -3552 0
-3383 3363 3553 0
3383 -3553 0
-3363 -3553 0
-3553 -3362 3554 0
3553 -3554 0
3362 -3554 0
3554 -3355 3555 0
-3554 -3555 0
3355 -3555 0
-3554 3355 3556 0
3554 -3556 0
-3355 -3556 0
-3556 -3555 3557 0
3556 -3557 0
3555 -3557 0
3557 27 3558 0
-3557 -3558 0
-27 -3558 0
-3352 -27 3559 0
3352 -3559 0
27 -3559 0
-3559 -3558 3560 0
3559 -3560 0
3558 -3560 0
3560 -3 3561 0
-3560 -3561 0
3 -3561 0
-3560 3 3562 0
3560 -3562 0
-3 -3562 0
-3562 -3561 3563 0
3562 -3563 0
3561 -3563 0
3383 -3363 3564 0
-3383 -3564 0
3363 -3564 0
-3564 -3553 3565 0
3564 -3565 0
3553 -3565 0
3565 27 3566 0
-3565 -3566 0
-27 -3566 0
-3360 -27 3567 0
3360 -3567 0
27 -3567 0
-3567 -3566 3568 0
3567 -3568 0
3566 -3568 0
3568 -2 3569 0
-3568 -3569 0
2 -3569 0
-3568 2 3570 0
3568 -3570 0
-2 -3570 0
-3570 -3569 3571 0
3570 -3571 0
3569 -3571 0
3571 3563 3572 0
-3571 -3572 0
-3563 -3572 0
-3381 -3375 3573 0
3381 -3573 0
3375 -3573 0
-3573 -3382 3574 0
3573 -3574 0
3382 -3574 0
3574 27 3575 0
-3574 -3575 0
-27 -3575 0
-3372 -27 3576 0
3372 -3576 0
27 -3576 0
-3576 -3575 3577 0
3576 -3577 0
3575 -3577 0
-3577 1 3578 0
3577 -3578 0
-1 -3578 0
3578 3572 3579 0
-3578 -3579 0
-3572 -3579 0
3570 3563 3580 0
-3570 -3580 0
-3563 -3580 0
-3580 -3562 3581 0
3580 -3581 0
3562 -3581 0
3581 -3579 3582 0
-3581 -3582 0
3579 -3582 0
-3582 3552 3583 0
3582 -3583 0
-3552 -3583 0
3548 3541 3584 0
-3548 -3584 0
-3541 -3584 0
-3584 -3540 3585 0
3584 -3585 0
3540 -3585 0
-3585 3530 3586 0
3585 -3586 0
-3530 -3586 0
3528 3521 3587 0
-3528 -3587 0
-3521 -3587 0
-3587 -3520 3588 0
3587 -3588 0
3520 -3588 0
3588 -3586 3589 0
-3588 -3589 0
3586 -3589 0
-3589 3508 3590 0
3589 -3590 0
-3508 -3590 0
3505 3498 3591 0
-3505 -3591 0
-3498 -3591 0
-3591 -3497 3592 0
3591 -3592 0
3497 -3592 0
-3592 3487 3593 0
3592 -3593 0
-3487 -3593 0
3485 3478 3594 0
-3485 -3594 0
-3478 -3594 0
-3594 -3477 3595 0
3594 -3595 0
3477 -3595 0
3595 -3593 3596 0
-3595 -3596 0
3593 -3596 0
3596 -3590 3597 0
-3596 -3597 0
3590 -3597 0
3597 -3583 3598 0
-3597 -3598 0
3583 -3598 0
-3598 3463 3599 0
3598 -3599 0
-3463 -3599 0
3461 3454 3600 0
-3461 -3600 0
-3454 -3600 0
-3600 -3453 3601 0
3600 -3601 0
3453 -3601 0
3601 -3599 3602 0
-3601 -3602 0
3599 -3602 0
3445 3438 3603 0
-3445 -3603 0
-3438 -3603 0
3603 -3403 3604 0
-3603 -3604 0
3403 -3604 0
3445 3437 3605 0
-3445 -3605 0
-3437 -3605 0
-3605 -3444 3606 0
3605 -3606 0
3444 -3606 0
3606 -3604 3607 0
-3606 -3607 0
3604 -3607 0
-3607 27 3608 0
3607 -3608 0
-27 -3608 0
-3608 -14 3609 0
3608 -3609 0
14 -3609 0
3608 14 3610 0
-3608 -3610 0
-14 -3610 0
-3610 -3609 3611 0
3610 -3611 0
3609 -3611 0
3611 -3602 3612 0
-3611 -3612 0
3602 -3612 0
-3612 -3610 3613 0
3612 -3613 0
3610 -3613 0
-3613 28 3614 0
3613 -3614 0
-28 -3614 0
3614 -1555 3615 0
-3614 -3615 0
1555 -3615 0
-3614 1555 3616 0
3614 -3616 0
-1555 -3616 0
-3616 -3615 3617 0
3616 -3617 0
3615 -3617 0
-1538 1519 3618 0
1538 -3618 0
-1519 -3618 0
-3618 -1539 3619 0
3618 -3619 0
1539 -3619 0
-3611 3602 3620 0
3611 -3620 0
-3602 -3620 0
-3620 -3612 3621 0
3620 -3621 0
3612 -3621 0
3621 28 3622 0
-3621 -3622 0
-28 -3622 0
3608 -28 3623 0
-3608 -3623 0
28 -3623 0
-3623 -3622 3624 0
3623 -3624 0
3622 -3624 0
-3624 -3619 3625 0
3624 -3625 0
3619 -3625 0
3624 3619 3626 0
-3624 -3626 0
-3619 -3626 0
-3626 -3625 3627 0
3626 -3627 0
3625 -3627 0
3627 3617 3628 0
-3627 -3628 0
-3617 -3628 0
-1515 259 3629 0
1515 -3629 0
-259 -3629 0
-3629 -258 3630 0
3629 -3630 0
258 -3630 0
3630 -198 3631 0
-3630 -3631 0
198 -3631 0
-3630 198 3632 0
3630 -3632 0
-198 -3632 0
-3632 -3631 3633 0
3632 -3633 0
3631 -3633 0
-3598 3462 3634 0
3598 -3634 0
-3462 -3634 0
-3634 -3461 3635 0
3634 -3635 0
3461 -3635 0
3635 -3454 3636 0
-3635 -3636 0
3454 -3636 0
-3635 3454 3637 0
3635 -3637 0
-3454 -3637 0
-3637 -3636 3638 0
3637 -3638 0
3636 -3638 0
3638 28 3639 0
-3638 -3639 0
-28 -3639 0
-3451 -28 3640 0
3451 -3640 0
28 -3640 0
-3640 -3639 3641 0
3640 -3641 0
3639 -3641 0
-3641 -3633 3642 0
3641 -3642 0
3633 -3642 0
3641 3633 3643 0
-3641 -3643 0
-3633 -3643 0
-3643 -3642 3644 0
3643 -3644 0
3642 -3644 0
1515 -259 3645 0
-1515 -3645 0
259 -3645 0
-3645 -3629 3646 0
3645 -3646 0
3629 -3646 0
3598 -3462 3647 0
-3598 -3647 0
3462 -3647 0
-3647 -3634 3648 0
3647 -3648 0
3634 -3648 0
3648 28 3649 0
-3648 -3649 0
-28 -3649 0
-3459 -28 3650 0
3459 -3650 0
28 -3650 0
-3650 -3649 3651 0
3650 -3651 0
3649 -3651 0
-3651 -3646 3652 0
3651 -3652 0
3646 -3652 0
3651 3646 3653 0
-3651 -3653 0
-3646 -3653 0
-3653 -3652 3654 0
3653 -3654 0
3652 -3654 0
3654 3644 3655 0
-3654 -3655 0
-3644 -3655 0
3655 3628 3656 0
-3655 -3656 0
-3628 -3656 0
-1499 919 3657 0
1499 -3657 0
-919 -3657 0
-3657 1506 3658 0
3657 -3658 0
-1506 -3658 0
-3658 566 3659 0
3658 -3659 0
-566 -3659 0
-3659 1509 3660 0
3659 -3660 0
-1509 -3660 0
-3660 394 3661 0
3660 -3661 0
-394 -3661 0
-3661 -393 3662 0
3661 -3662 0
393 -3662 0
3662 -327 3663 0
-3662 -3663 0
327 -3663 0
-3662 327 3664 0
3662 -3664 0
-327 -3664 0
-3664 -3663 3665 0
3664 -3665 0
3663 -3665 0
-3582 3551 3666 0
3582 -3666 0
-3551 -3666 0
-3666 3589 3667 0
3666 -3667 0
-3589 -3667 0
-3667 3507 3668 0
3667 -3668 0
-3507 -3668 0
-3668 3592 3669 0
3668 -3669 0
-3592 -3669 0
-3669 3486 3670 0
3669 -3670 0
-3486 -3670 0
-3670 -3485 3671 0
3670 -3671 0
3485 -3671 0
3671 -3478 3672 0
-3671 -3672 0
3478 -3672 0
-3671 3478 3673 0
3671 -3673 0
-3478 -3673 0
-3673 -3672 3674 0
3673 -3674 0
3672 -3674 0
3674 28 3675 0
-3674 -3675 0
-28 -3675 0
-3475 -28 3676 0
3475 -3676 0
28 -3676 0
-3676 -3675 3677 0
3676 -3677 0
3675 -3677 0
-3677 -3665 3678 0
3677 -3678 0
3665 -3678 0
3677 3665 3679 0
-3677 -3679 0
-3665 -3679 0
-3679 -3678 3680 0
3679 -3680 0
3678 -3680 0
3660 -394 3681 0
-3660 -3681 0
394 -3681 0
-3681 -3661 3682 0
3681 -3682 0
3661 -3682 0
3669 -3486 3683 0
-3669 -3683 0
3486 -3683 0
-3683 -3670 3684 0
3683 -3684 0
3670 -3684 0
3684 28 3685 0
-3684 -3685 0
-28 -3685 0
-3483 -28 3686 0
3483 -3686 0
28 -3686 0
-3686 -3685 3687 0
3686 -3687 0
3685 -3687 0
-3687 -3682 3688 0
3687 -3688 0
3682 -3688 0
3687 3682 3689 0
-3687 -3689 0
-3682 -3689 0
-3689 -3688 3690 0
3689 -3690 0
3688 -3690 0
3690 3680 3691 0
-3690 -3691 0
-3680 -3691 0
-3658 565 3692 0
3658 -3692 0
-565 -3692 0
-3692 -564 3693 0
3692 -3693 0
564 -3693 0
3693 -474 3694 0
-3693 -3694 0
474 -3694 0
-3693 474 3695 0
3693 -3695 0
-474 -3695 0
-3695 -3694 3696 0
3695 -3696 0
3694 -3696 0
-3667 3506 3697 0
3667 -3697 0
-3506 -3697 0
-3697 -3505 3698 0
3697 -3698 0
3505 -3698 0
3698 -3498 3699 0
-3698 -3699 0
3498 -3699 0
-3698 3498 3700 0
3698 -3700 0
-3498 -3700 0
-3700 -3699 3701 0
3700 -3701 0
3699 -3701 0
3701 28 3702 0
-3701 -3702 0
-28 -3702 0
-3495 -28 3703 0
3495 -3703 0
28 -3703 0
-3703 -3702 3704 0
3703 -3704 0
3702 -3704 0
-3704 -3696 3705 0
3704 -3705 0
3696 -3705 0
3704 3696 3706 0
-3704 -3706 0
-3696 -3706 0
-3706 -3705 3707 0
3706 -3707 0
3705 -3707 0
3707 3691 3708 0
-3707 -3708 0
-3691 -3708 0
3708 3656 3709 0
-3708 -3709 0
-3656 -3709 0
3658 -565 3710 0
-3658 -3710 0
565 -3710 0
-3710 -3692 3711 0
3710 -3711 0
3692 -3711 0
3667 -3506 3712 0
-3667 -3712 0
3506 -3712 0
-3712 -3697 3713 0
3712 -3713 0
3697 -3713 0
3713 28 3714 0
-3713 -3714 0
-28 -3714 0
-3503 -28 3715 0
3503 -3715 0
28 -3715 0
-3715 -3714 3716 0
3715 -3716 0
3714 -3716 0
-3716 -3711 3717 0
3716 -3717 0
3711 -3717 0
3716 3711 3718 0
-3716 -3718 0
-3711 -3718 0
-3718 -3717 3719 0
3718 -3719 0
3717 -3719 0
-1499 918 3720 0
1499 -3720 0
-918 -3720 0
-3720 1502 3721 0
3720 -3721 0
-1502 -3721 0
-3721 749 3722 0
3721 -3722 0
-749 -3722 0
-3722 -748 3723 0
3722 -3723 0
748 -3723 0
3723 -658 3724 0
-3723 -3724 0
658 -3724 0
-3723 658 3725 0
3723 -3725 0
-658 -3725 0
-3725 -3724 3726 0
3725 -3726 0
3724 -3726 0
-3582 3550 3727 0
3582 -3727 0
-3550 -3727 0
-3727 3585 3728 0
3727 -3728 0
-3585 -3728 0
-3728 3529 3729 0
3728 -3729 0
-3529 -3729 0
-3729 -3528 3730 0
3729 -3730 0
3528 -3730 0
3730 -3521 3731 0
-3730 -3731 0
3521 -3731 0
-3730 3521 3732 0
3730 -3732 0
-3521 -3732 0
-3732 -3731 3733 0
3732 -3733 0
3731 -3733 0
3733 28 3734 0
-3733 -3734 0
-28 -3734 0
-3518 -28 3735 0
3518 -3735 0
28 -3735 0
-3735 -3734 3736 0
3735 -3736 0
3734 -3736 0
-3736 -3726 3737 0
3736 -3737 0
3726 -3737 0
3736 3726 3738 0
-3736 -3738 0
-3726 -3738 0
-3738 -3737 3739 0
3738 -3739 0
3737 -3739 0
3739 3719 3740 0
-3739 -3740 0
-3719 -3740 0
3721 -749 3741 0
-3721 -3741 0
749 -3741 0
-3741 -3722 3742 0
3741 -3742 0
3722 -3742 0
3728 -3529 3743 0
-3728 -3743 0
3529 -3743 0
-3743 -3729 3744 0
3743 -3744 0
3729 -3744 0
3744 28 3745 0
-3744 -3745 0
-28 -3745 0
-3526 -28 3746 0
3526 -3746 0
28 -3746 0
-3746 -3745 3747 0
3746 -3747 0
3745 -3747 0
-3747 -3742 3748 0
3747 -3748 0
3742 -3748 0
3747 3742 3749 0
-3747 -3749 0
-3742 -3749 0
-3749 -3748 3750 0
3749 -3750 0
3748 -3750 0
-1499 917 3751 0
1499 -3751 0
-917 -3751 0
-3751 -916 3752 0
3751 -3752 0
916 -3752 0
3752 -834 3753 0
-3752 -3753 0
834 -3753 0
-3752 834 3754 0
3752 -3754 0
-834 -3754 0
-3754 -3753 3755 0
3754 -3755 0
3753 -3755 0
-3582 3549 3756 0
3582 -3756 0
-3549 -3756 0
-3756 -3548 3757 0
3756 -3757 0
3548 -3757 0
3757 -3541 3758 0
-3757 -3758 0
3541 -3758 0
-3757 3541 3759 0
3757 -3759 0
-3541 -3759 0
-3759 -3758 3760 0
3759 -3760 0
3758 -3760 0
3760 28 3761 0
-3760 -3761 0
-28 -3761 0
-3538 -28 3762 0
3538 -3762 0
28 -3762 0
-3762 -3761 3763 0
3762 -3763 0
3761 -3763 0
-3763 -3755 3764 0
3763 -3764 0
3755 -3764 0
3763 3755 3765 0
-3763 -3765 0
-3755 -3765 0
-3765 -3764 3766 0
3765 -3766 0
3764 -3766 0
3766 3750 3767 0
-3766 -3767 0
-3750 -3767 0
3767 3740 3768 0
-3767 -3768 0
-3740 -3768 0
1499 -917 3769 0
-1499 -3769 0
917 -3769 0
-3769 -3751 3770 0
3769 -3770 0
3751 -3770 0
3582 -3549 3771 0
-3582 -3771 0
3549 -3771 0
-3771 -3756 3772 0
3771 -3772 0
3756 -3772 0
3772 28 3773 0
-3772 -3773 0
-28 -3773 0
-3546 -28 3774 0
3546 -3774 0
28 -3774 0
-3774 -3773 3775 0
3774 -3775 0
3773 -3775 0
-3775 -3770 3776 0
3775 -3776 0
3770 -3776 0
3775 3770 3777 0
-3775 -3777 0
-3770 -3777 0
-3777 -3776 3778 0
3777 -3778 0
3776 -3778 0
-1483 1391 3779 0
1483 -3779 0
-1391 -3779 0
-3779 1490 3780 0
3779 -3780 0
-1490 -3780 0
-3780 1207 3781 0
3780 -3781 0
-1207 -3781 0
-3781 1493 3782 0
3781 -3782 0
-1493 -3782 0
-3782 1070 3783 0
3782 -3783 0
-1070 -3783 0
-3783 -1069 3784 0
3783 -3784 0
1069 -3784 0
3784 -995 3785 0
-3784 -3785 0
995 -3785 0
-3784 995 3786 0
3784 -3786 0
-995 -3786 0
-3786 -3785 3787 0
3786 -3787 0
3785 -3787 0
3578 3571 3788 0
-3578 -3788 0
-3571 -3788 0
-3788 -3570 3789 0
3788 -3789 0
3570 -3789 0
3789 -3563 3790 0
-3789 -3790 0
3563 -3790 0
-3789 3563 3791 0
3789 -3791 0
-3563 -3791 0
-3791 -3790 3792 0
3791 -3792 0
3790 -3792 0
3792 28 3793 0
-3792 -3793 0
-28 -3793 0
-3560 -28 3794 0
3560 -3794 0
28 -3794 0
-3794 -3793 3795 0
3794 -3795 0
3793 -3795 0
-3795 -3787 3796 0
3795 -3796 0
3787 -3796 0
3795 3787 3797 0
-3795 -3797 0
-3787 -3797 0
-3797 -3796 3798 0
3797 -3798 0
3796 -3798 0
3798 3778 3799 0
-3798 -3799 0
-3778 -3799 0
3782 -1070 3800 0
-3782 -3800 0
1070 -3800 0
-3800 -3783 3801 0
3800 -3801 0
3783 -3801 0
-3578 -3571 3802 0
3578 -3802 0
3571 -3802 0
-3802 -3788 3803 0
3802 -3803 0
3788 -3803 0
3803 28 3804 0
-3803 -3804 0
-28 -3804 0
-3568 -28 3805 0
3568 -3805 0
28 -3805 0
-3805 -3804 3806 0
3805 -3806 0
3804 -3806 0
-3806 -3801 3807 0
3806 -3807 0
3801 -3807 0
3806 3801 3808 0
-3806 -3808 0
-3801 -3808 0
-3808 -3807 3809 0
3808 -3809 0
3807 -3809 0
3809 3799 3810 0
-3809 -3810 0
-3799 -3810 0
3810 3768 3811 0
-3810 -3811 0
-3768 -3811 0
3811 3709 3812 0
-3811 -3812 0
-3709 -3812 0
-3780 1206 3813 0
3780 -3813 0
-1206 -3813 0
-3813 -1205 3814 0
3813 -3814 0
1205 -3814 0
3814 -1139 3815 0
-3814 -3815 0
1139 -3815 0
-3814 1139 3816 0
3814 -3816 0
-1139 -3816 0
-3816 -3815 3817 0
3816 -3817 0
3815 -3817 0
3577 -1 3818 0
-3577 -3818 0
1 -3818 0
-3818 -3578 3819 0
3818 -3819 0
3578 -3819 0
3819 28 3820 0
-3819 -3820 0
-28 -3820 0
-3577 -28 3821 0
3577 -3821 0
28 -3821 0
-3821 -3820 3822 0
3821 -3822 0
3820 -3822 0
-3822 -3817 3823 0
3822 -3823 0
3817 -3823 0
3822 3817 3824 0
-3822 -3824 0
-3817 -3824 0
-3824 -3823 3825 0
3824 -3825 0
3823 -3825 0
3780 -1206 3826 0
-3780 -3826 0
1206 -3826 0
-3826 -3813 3827 0
3826 -3827 0
3813 -3827 0
3380 -1 3828 0
-3380 -3828 0
1 -3828 0
-3828 -3381 3829 0
3828 -3829 0
3381 -3829 0
3829 27 3830 0
-3829 -3830 0
-27 -3830 0
-3380 -27 3831 0
3380 -3831 0
27 -3831 0
-3831 -3830 3832 0
3831 -3832 0
3830 -3832 0
-3832 28 3833 0
3832 -3833 0
-28 -3833 0
-3832 -28 3834 0
3832 -3834 0
28 -3834 0
-3834 -3833 3835 0
3834 -3835 0
3833 -3835 0
-3835 -3827 3836 0
3835 -3836 0
3827 -3836 0
3835 3827 3837 0
-3835 -3837 0
-3827 -3837 0
-3837 -3836 3838 0
3837 -3838 0
3836 -3838 0
3838 3825 3839 0
-3838 -3839 0
-3825 -3839 0
-1483 1390 3840 0
1483 -3840 0
-1390 -3840 0
-3840 1486 3841 0
3840 -3841 0
-1486 -3841 0
-3841 1306 3842 0
3841 -3842 0
-1306 -3842 0
-3842 -1305 3843 0
3842 -3843 0
1305 -3843 0
3843 -1262 3844 0
-3843 -3844 0
1262 -3844 0
-3843 1262 3845 0
3843 -3845 0
-1262 -3845 0
-3845 -3844 3846 0
3845 -3846 0
3844 -3846 0
3184 -1 3847 0
-3184 -3847 0
1 -3847 0
-3847 -3185 3848 0
3847 -3848 0
3185 -3848 0
3848 26 3849 0
-3848 -3849 0
-26 -3849 0
-3184 -26 3850 0
3184 -3850 0
26 -3850 0
-3850 -3849 3851 0
3850 -3851 0
3849 -3851 0
-3851 27 3852 0
3851 -3852 0
-27 -3852 0
-3851 -27 3853 0
3851 -3853 0
27 -3853 0
-3853 -3852 3854 0
3853 -3854 0
3852 -3854 0
-3854 28 3855 0
3854 -3855 0
-28 -3855 0
-3854 -28 3856 0
3854 -3856 0
28 -3856 0
-3856 -3855 3857 0
3856 -3857 0
3855 -3857 0
-3857 -3846 3858 0
3857 -3858 0
3846 -3858 0
3857 3846 3859 0
-3857 -3859 0
-3846 -3859 0
-3859 -3858 3860 0
3859 -3860 0
3858 -3860 0
3841 -1306 3861 0
-3841 -3861 0
1306 -3861 0
-3861 -3842 3862 0
3861 -3862 0
3842 -3862 0
2966 -1 3863 0
-2966 -3863 0
1 -3863 0
-3863 -2967 3864 0
3863 -3864 0
2967 -3864 0
3864 25 3865 0
-3864 -3865 0
-25 -3865 0
-2966 -25 3866 0
2966 -3866 0
25 -3866 0
-3866 -3865 3867 0
3866 -3867 0
3865 -3867 0
-3867 26 3868 0
3867 -3868 0
-26 -3868 0
-3867 -26 3869 0
3867 -3869 0
26 -3869 0
-3869 -3868 3870 0
3869 -3870 0
3868 -3870 0
-3870 27 3871 0
3870 -3871 0
-27 -3871 0
-3870 -27 3872 0
3870 -3872 0
27 -3872 0
-3872 -3871 3873 0
3872 -3873 0
3871 -3873 0
-3873 28 3874 0
3873 -3874 0
-28 -3874 0
-3873 -28 3875 0
3873 -3875 0
28 -3875 0
-3875 -3874 3876 0
3875 -3876 0
3874 -3876 0
-3876 -3862 3877 0
3876 -3877 0
3862 -3877 0
3876 3862 3878 0
-3876 -3878 0
-3862 -3878 0
-3878 -3877 3879 0
3878 -3879 0
3877 -3879 0
3879 3860 3880 0
-3879 -3880 0
-3860 -3880 0
3880 3839 3881 0
-3880 -3881 0
-3839 -3881 0
-1483 1389 3882 0
1483 -3882 0
-1389 -3882 0
-3882 -1388 3883 0
3882 -3883 0
1388 -3883 0
3883 -1351 3884 0
-3883 -3884 0
1351 -3884 0
-3883 1351 3885 0
3883 -3885 0
-1351 -3885 0
-3885 -3884 3886 0
3885 -3886 0
3884 -3886 0
2749 -1 3887 0
-2749 -3887 0
1 -3887 0
-3887 -2750 3888 0
3887 -3888 0
2750 -3888 0
3888 24 3889 0
-3888 -3889 0
-24 -3889 0
-2749 -24 3890 0
2749 -3890 0
24 -3890 0
-3890 -3889 3891 0
3890 -3891 0
3889 -3891 0
-3891 25 3892 0
3891 -3892 0
-25 -3892 0
-3891 -25 3893 0
3891 -3893 0
25 -3893 0
-3893 -3892 3894 0
3893 -3894 0
3892 -3894 0
-3894 26 3895 0
3894 -3895 0
-26 -3895 0
-3894 -26 3896 0
3894 -3896 0
26 -3896 0
-3896 -3895 3897 0
3896 -3897 0
3895 -3897 0
-3897 27 3898 0
3897 -3898 0
-27 -3898 0
-3897 -27 3899 0
3897 -3899 0
27 -3899 0
-3899 -3898 3900 0
3899 -3900 0
3898 -3900 0
-3900 28 3901 0
3900 -3901 0
-28 -3901 0
-3900 -28 3902 0
3900 -3902 0
28 -3902 0
-3902 -3901 3903 0
3902 -3903 0
3901 -3903 0
-3903 -3886 3904 0
3903 -3904 0
3886 -3904 0
3903 3886 3905 0
-3903 -3905 0
-3886 -3905 0
-3905 -3904 3906 0
3905 -3906 0
3904 -3906 0
1483 -1389 3907 0
-1483 -3907 0
1389 -3907 0
-3907 -3882 3908 0
3907 -3908 0
3882 -3908 0
2486 -1 3909 0
-2486 -3909 0
1 -3909 0
-3909 -2487 3910 0
3909 -3910 0
2487 -3910 0
3910 23 3911 0
-3910 -3911 0
-23 -3911 0
-2486 -23 3912 0
2486 -3912 0
23 -3912 0
-3912 -3911 3913 0
3912 -3913 0
3911 -3913 0
-3913 24 3914 0
3913 -3914 0
-24 -3914 0
-3913 -24 3915 0
3913 -3915 0
24 -3915 0
-3915 -3914 3916 0
3915 -3916 0
3914 -3916 0
-3916 25 3917 0
3916 -3917 0
-25 -3917 0
-3916 -25 3918 0
3916 -3918 0
25 -3918 0
-3918 -3917 3919 0
3918 -3919 0
3917 -3919 0
-3919 26 3920 0
3919 -3920 0
-26 -3920 0
-3919 -26 3921 0
3919 -3921 0
26 -3921 0
-3921 -3920 3922 0
3921 -3922 0
3920 -3922 0
-3922 27 3923 0
3922 -3923 0
-27 -3923 0
-3922 -27 3924 0
3922 -3924 0
27 -3924 0
-3924 -3923 3925 0
3924 -3925 0
3923 -3925 0
-3925 28 3926 0
3925 -3926 0
-28 -3926 0
-3925 -28 3927 0
3925 -3927 0
28 -3927 0
-3927 -3926 3928 0
3927 -3928 0
3926 -3928 0
-3928 -3908 3929 0
3928 -3929 0
3908 -3929 0
3928 3908 3930 0
-3928 -3930 0
-3908 -3930 0
-3930 -3929 3931 0
3930 -3931 0
3929 -3931 0
3931 3906 3932 0
-3931 -3932 0
-3906 -3932 0
-1475 1457 3933 0
1475 -3933 0
-1457 -3933 0
-3933 1478 3934 0
3933 -3934 0
-1478 -3934 0
-3934 1437 3935 0
3934 -3935 0
-1437 -3935 0
-3935 -1436 3936 0
3935 -3936 0
1436 -3936 0
3936 -1415 3937 0
-3936 -3937 0
1415 -3937 0
-3936 1415 3938 0
3936 -3938 0
-1415 -3938 0
-3938 -3937 3939 0
3938 -3939 0
3937 -3939 0
2258 -1 3940 0
-2258 -3940 0
1 -3940 0
-3940 -2259 3941 0
3940 -3941 0
2259 -3941 0
3941 22 3942 0
-3941 -3942 0
-22 -3942 0
-2258 -22 3943 0
2258 -3943 0
22 -3943 0
-3943 -3942 3944 0
3943 -3944 0
3942 -3944 0
-3944 23 3945 0
3944 -3945 0
-23 -3945 0
-3944 -23 3946 0
3944 -3946 0
23 -3946 0
-3946 -3945 3947 0
3946 -3947 0
3945 -3947 0
-3947 24 3948 0
3947 -3948 0
-24 -3948 0
-3947 -24 3949 0
3947 -3949 0
24 -3949 0
-3949 -3948 3950 0
3949 -3950 0
3948 -3950 0
-3950 25 3951 0
3950 -3951 0
-25 -3951 0
-3950 -25 3952 0
3950 -3952 0
25 -3952 0
-3952 -3951 3953 0
3952 -3953 0
3951 -3953 0
-3953 26 3954 0
3953 -3954 0
-26 -3954 0
-3953 -26 3955 0
3953 -3955 0
26 -3955 0
-3955 -3954 3956 0
3955 -3956 0
3954 -3956 0
-3956 27 3957 0
3956 -3957 0
-27 -3957 0
-3956 -27 3958 0
3956 -3958 0
27 -3958 0
-3958 -3957 3959 0
3958 -3959 0
3957 -3959 0
-3959 28 3960 0
3959 -3960 0
-28 -3960 0
-3959 -28 3961 0
3959 -3961 0
28 -3961 0
-3961 -3960 3962 0
3961 -3962 0
3960 -3962 0
-3962 -3939 3963 0
3962 -3963 0
3939 -3963 0
3962 3939 3964 0
-3962 -3964 0
-3939 -3964 0
-3964 -3963 3965 0
3964 -3965 0
3963 -3965 0
3965 3932 3966 0
-3965 -3966 0
-3932 -3966 0
3966 3881 3967 0
-3966 -3967 0
-3881 -3967 0
3934 -1437 3968 0
-3934 -3968 0
1437 -3968 0
-3968 -3935 3969 0
3968 -3969 0
3935 -3969 0
2038 -1 3970 0
-2038 -3970 0
1 -3970 0
-3970 -2039 3971 0
3970 -3971 0
2039 -3971 0
3971 21 3972 0
-3971 -3972 0
-21 -3972 0
-2038 -21 3973 0
2038 -3973 0
21 -3973 0
-3973 -3972 3974 0
3973 -3974 0
3972 -3974 0
-3974 22 3975 0
3974 -3975 0
-22 -3975 0
-3974 -22 3976 0
3974 -3976 0
22 -3976 0
-3976 -3975 3977 0
3976 -3977 0
3975 -3977 0
-3977 23 3978 0
3977 -3978 0
-23 -3978 0
-3977 -23 3979 0
3977 -3979 0
23 -3979 0
-3979 -3978 3980 0
3979 -3980 0
3978 -3980 0
-3980 24 3981 0
3980 -3981 0
-24 -3981 0
-3980 -24 3982 0
3980 -3982 0
24 -3982 0
-3982 -3981 3983 0
3982 -3983 0
3981 -3983 0
-3983 25 3984 0
3983 -3984 0
-25 -3984 0
-3983 -25 3985 0
3983 -3985 0
25 -3985 0
-3985 -3984 3986 0
3985 -3986 0
3984 -3986 0
-3986 26 3987 0
3986 -3987 0
-26 -3987 0
-3986 -26 3988 0
3986 -3988 0
26 -3988 0
-3988 -3987 3989 0
3988 -3989 0
3987 -3989 0
-3989 27 3990 0
3989 -3990 0
-27 -3990 0
-3989 -27 3991 0
3989 -3991 0
27 -3991 0
-3991 -3990 3992 0
3991 -3992 0
3990 -3992 0
-3992 28 3993 0
3992 -3993 0
-28 -3993 0
-3992 -28 3994 0
3992 -3994 0
28 -3994 0
-3994 -3993 3995 0
3994 -3995 0
3993 -3995 0
-3995 -3969 3996 0
3995 -3996 0
3969 -3996 0
3995 3969 3997 0
-3995 -3997 0
-3969 -3997 0
-3997 -3996 3998 0
3997 -3998 0
3996 -3998 0
-1475 1456 3999 0
1475 -3999 0
-1456 -3999 0
-3999 -1455 4000 0
3999 -4000 0
1455 -4000 0
4000 -1447 4001 0
-4000 -4001 0
1447 -4001 0
-4000 1447 4002 0
4000 -4002 0
-1447 -4002 0
-4002 -4001 4003 0
4002 -4003 0
4001 -4003 0
1870 -1 4004 0
-1870 -4004 0
1 -4004 0
-4004 -1871 4005 0
4004 -4005 0
1871 -4005 0
4005 20 4006 0
-4005 -4006 0
-20 -4006 0
-1870 -20 4007 0
1870 -4007 0
20 -4007 0
-4007 -4006 4008 0
4007 -4008 0
4006 -4008 0
-4008 21 4009 0
4008 -4009 0
-21 -4009 0
-4008 -21 4010 0
4008 -4010 0
21 -4010 0
-4010 -4009 4011 0
4010 -4011 0
4009 -4011 0
-4011 22 4012 0
4011 -4012 0
-22 -4012 0
-4011 -22 4013 0
4011 -4013 0
22 -4013 0
-4013 -4012 4014 0
4013 -4014 0
4012 -4014 0
-4014 23 4015 0
4014 -4015 0
-23 -4015 0
-4014 -23 4016 0
4014 -4016 0
23 -4016 0
-4016 -4015 4017 0
4016 -4017 0
4015 -4017 0
-4017 24 4018 0
4017 -4018 0
-24 -4018 0
-4017 -24 4019 0
4017 -4019 0
24 -4019 0
-4019 -4018 4020 0
4019 -4020 0
4018 -4020 0
-4020 25 4021 0
4020 -4021 0
-25 -4021 0
-4020 -25 4022 0
4020 -4022 0
25 -4022 0
-4022 -4021 4023 0
4022 -4023 0
4021 -4023 0
-4023 26 4024 0
4023 -4024 0
-26 -4024 0
-4023 -26 4025 0
4023 -4025 0
26 -4025 0
-4025 -4024 4026 0
4025 -4026 0
4024 -4026 0
-4026 27 4027 0
4026 -4027 0
-27 -4027 0
-4026 -27 4028 0
4026 -4028 0
27 -4028 0
-4028 -4027 4029 0
4028 -4029 0
4027 -4029 0
-4029 28 4030 0
4029 -4030 0
-28 -4030 0
-4029 -28 4031 0
4029 -4031 0
28 -4031 0
-4031 -4030 4032 0
4031 -4032 0
4030 -4032 0
-4032 -4003 4033 0
4032 -4033 0
4003 -4033 0
4032 4003 4034 0
-4032 -4034 0
-4003 -4034 0
-4034 -4033 4035 0
4034 -4035 0
4033 -4035 0
4035 3998 4036 0
-4035 -4036 0
-3998 -4036 0
1475 -1456 4037 0
-1475 -4037 0
1456 -4037 0
-4037 -3999 4038 0
4037 -4038 0
3999 -4038 0
1731 -1 4039 0
-1731 -4039 0
1 -4039 0
-4039 -1732 4040 0
4039 -4040 0
1732 -4040 0
4040 19 4041 0
-4040 -4041 0
-19 -4041 0
-1731 -19 4042 0
1731 -4042 0
19 -4042 0
-4042 -4041 4043 0
4042 -4043 0
4041 -4043 0
-4043 20 4044 0
4043 -4044 0
-20 -4044 0
-4043 -20 4045 0
4043 -4045 0
20 -4045 0
-4045 -4044 4046 0
4045 -4046 0
4044 -4046 0
-4046 21 4047 0
4046 -4047 0
-21 -4047 0
-4046 -21 4048 0
4046 -4048 0
21 -4048 0
-4048 -4047 4049 0
4048 -4049 0
4047 -4049 0
-4049 22 4050 0
4049 -4050 0
-22 -4050 0
-4049 -22 4051 0
4049 -4051 0
22 -4051 0
-4051 -4050 4052 0
4051 -4052 0
4050 -4052 0
-4052 23 4053 0
4052 -4053 0
-23 -4053 0
-4052 -23 4054 0
4052 -4054 0
23 -4054 0
-4054 -4053 4055 0
4054 -4055 0
4053 -4055 0
-4055 24 4056 0
4055 -4056 0
-24 -4056 0
-4055 -24 4057 0
4055 -4057 0
24 -4057 0
-4057 -4056 4058 0
4057 -4058 0
4056 -4058 0
-4058 25 4059 0
4058 -4059 0
-25 -4059 0
-4058 -25 4060 0
4058 -4060 0
25 -4060 0
-4060 -4059 4061 0
4060 -4061 0
4059 -4061 0
-4061 26 4062 0
4061 -4062 0
-26 -4062 0
-4061 -26 4063 0
4061 -4063 0
26 -4063 0
-4063 -4062 4064 0
4063 -4064 0
4062 -4064 0
-4064 27 4065 0
4064 -4065 0
-27 -4065 0
-4064 -27 4066 0
4064 -4066 0
27 -4066 0
-4066 -4065 4067 0
4066 -4067 0
4065 -4067 0
-4067 28 4068 0
4067 -4068 0
-28 -4068 0
-4067 -28 4069 0
4067 -4069 0
28 -4069 0
-4069 -4068 4070 0
4069 -4070 0
4068 -4070 0
-4070 -4038 4071 0
4070 -4071 0
4038 -4071 0
4070 4038 4072 0
-4070 -4072 0
-4038 -4072 0
-4072 -4071 4073 0
4072 -4073 0
4071 -4073 0
-1473 -1467 4074 0
1473 -4074 0
1467 -4074 0
-4074 -1474 4075 0
4074 -4075 0
1474 -4075 0
1636 -1 4076 0
-1636 -4076 0
1 -4076 0
-4076 -1637 4077 0
4076 -4077 0
1637 -4077 0
4077 18 4078 0
-4077 -4078 0
-18 -4078 0
-1636 -18 4079 0
1636 -4079 0
18 -4079 0
-4079 -4078 4080 0
4079 -4080 0
4078 -4080 0
-4080 19 4081 0
4080 -4081 0
-19 -4081 0
-4080 -19 4082 0
4080 -4082 0
19 -4082 0
-4082 -4081 4083 0
4082 -4083 0
4081 -4083 0
-4083 20 4084 0
4083 -4084 0
-20 -4084 0
-4083 -20 4085 0
4083 -4085 0
20 -4085 0
-4085 -4084 4086 0
4085 -4086 0
4084 -4086 0
-4086 21 4087 0
4086 -4087 0
-21 -4087 0
-4086 -21 4088 0
4086 -4088 0
21 -4088 0
-4088 -4087 4089 0
4088 -4089 0
4087 -4089 0
-4089 22 4090 0
4089 -4090 0
-22 -4090 0
-4089 -22 4091 0
4089 -4091 0
22 -4091 0
-4091 -4090 4092 0
4091 -4092 0
4090 -4092 0
-4092 23 4093 0
4092 -4093 0
-23 -4093 0
-4092 -23 4094 0
4092 -4094 0
23 -4094 0
-4094 -4093 4095 0
4094 -4095 0
4093 -4095 0
-4095 24 4096 0
4095 -4096 0
-24 -4096 0
-4095 -24 4097 0
4095 -4097 0
24 -4097 0
-4097 -4096 4098 0
4097 -4098 0
4096 -4098 0
-4098 25 4099 0
4098 -4099 0
-25 -4099 0
-4098 -25 4100 0
4098 -4100 0
25 -4100 0
-4100 -4099 4101 0
4100 -4101 0
4099 -4101 0
-4101 26 4102 0
4101 -4102 0
-26 -4102 0
-4101 -26 4103 0
4101 -4103 0
26 -4103 0
-4103 -4102 4104 0
4103 -4104 0
4102 -4104 0
-4104 27 4105 0
4104 -4105 0
-27 -4105 0
-4104 -27 4106 0
4104 -4106 0
27 -4106 0
-4106 -4105 4107 0
4106 -4107 0
4105 -4107 0
-4107 28 4108 0
4107 -4108 0
-28 -4108 0
-4107 -28 4109 0
4107 -4109 0
28 -4109 0
-4109 -4108 4110 0
4109 -4110 0
4108 -4110 0
-4110 -4075 4111 0
4110 -4111 0
4075 -4111 0
4110 4075 4112 0
-4110 -4112 0
-4075 -4112 0
-4112 -4111 4113 0
4112 -4113 0
4111 -4113 0
4113 4073 4114 0
-4113 -4114 0
-4073 -4114 0
4114 4036 4115 0
-4114 -4115 0
-4036 -4115 0
-1472 -1469 4116 0
1472 -4116 0
1469 -4116 0
-4116 -1473 4117 0
4116 -4117 0
1473 -4117 0
1578 -1 4118 0
-1578 -4118 0
1 -4118 0
-4118 -1579 4119 0
4118 -4119 0
1579 -4119 0
4119 17 4120 0
-4119 -4120 0
-17 -4120 0
-1578 -17 4121 0
1578 -4121 0
17 -4121 0
-4121 -4120 4122 0
4121 -4122 0
4120 -4122 0
-4122 18 4123 0
4122 -4123 0
-18 -4123 0
-4122 -18 4124 0
4122 -4124 0
18 -4124 0
-4124 -4123 4125 0
4124 -4125 0
4123 -4125 0
-4125 19 4126 0
4125 -4126 0
-19 -4126 0
-4125 -19 4127 0
4125 -4127 0
19 -4127 0
-4127 -4126 4128 0
4127 -4128 0
4126 -4128 0
-4128 20 4129 0
4128 -4129 0
-20 -4129 0
-4128 -20 4130 0
4128 -4130 0
20 -4130 0
-4130 -4129 4131 0
4130 -4131 0
4129 -4131 0
-4131 21 4132 0
4131 -4132 0
-21 -4132 0
-4131 -21 4133 0
4131 -4133 0
21 -4133 0
-4133 -4132 4134 0
4133 -4134 0
4132 -4134 0
-4134 22 4135 0
4134 -4135 0
-22 -4135 0
-4134 -22 4136 0
4134 -4136 0
22 -4136 0
-4136 -4135 4137 0
4136 -4137 0
4135 -4137 0
-4137 23 4138 0
4137 -4138 0
-23 -4138 0
-4137 -23 4139 0
4137 -4139 0
23 -4139 0
-4139 -4138 4140 0
4139 -4140 0
4138 -4140 0
-4140 24 4141 0
4140 -4141 0
-24 -4141 0
-4140 -24 4142 0
4140 -4142 0
24 -4142 0
-4142 -4141 4143 0
4142 -4143 0
4141 -4143 0
-4143 25 4144 0
4143 -4144 0
-25 -4144 0
-4143 -25 4145 0
4143 -4145 0
25 -4145 0
-4145 -4144 4146 0
4145 -4146 0
4144 -4146 0
-4146 26 4147 0
4146 -4147 0
-26 -4147 0
-4146 -26 4148 0
4146 -4148 0
26 -4148 0
-4148 -4147 4149 0
4148 -4149 0
4147 -4149 0
-4149 27 4150 0
4149 -4150 0
-27 -4150 0
-4149 -27 4151 0
4149 -4151 0
27 -4151 0
-4151 -4150 4152 0
4151 -4152 0
4150 -4152 0
-4152 28 4153 0
4152 -4153 0
-28 -4153 0
-4152 -28 4154 0
4152 -4154 0
28 -4154 0
-4154 -4153 4155 0
4154 -4155 0
4153 -4155 0
-4155 -4117 4156 0
4155 -4156 0
4117 -4156 0
4155 4117 4157 0
-4155 -4157 0
-4117 -4157 0
-4157 -4156 4158 0
4157 -4158 0
4156 -4158 0
-1471 -1470 4159 0
1471 -4159 0
1470 -4159 0
-4159 -1472 4160 0
4159 -4160 0
1472 -4160 0
-1471 -1 4161 0
1471 -4161 0
1 -4161 0
-4161 -1559 4162 0
4161 -4162 0
1559 -4162 0
4162 16 4163 0
-4162 -4163 0
-16 -4163 0
1471 -16 4164 0
-1471 -4164 0
16 -4164 0
-4164 -4163 4165 0
4164 -4165 0
4163 -4165 0
-4165 17 4166 0
4165 -4166 0
-17 -4166 0
-4165 -17 4167 0
4165 -4167 0
17 -4167 0
-4167 -4166 4168 0
4167 -4168 0
4166 -4168 0
-4168 18 4169 0
4168 -4169 0
-18 -4169 0
-4168 -18 4170 0
4168 -4170 0
18 -4170 0
-4170 -4169 4171 0
4170 -4171 0
4169 -4171 0
-4171 19 4172 0
4171 -4172 0
-19 -4172 0
-4171 -19 4173 0
4171 -4173 0
19 -4173 0
-4173 -4172 4174 0
4173 -4174 0
4172 -4174 0
-4174 20 4175 0
4174 -4175 0
-20 -4175 0
-4174 -20 4176 0
4174 -4176 0
20 -4176 0
-4176 -4175 4177 0
4176 -4177 0
4175 -4177 0
-4177 21 4178 0
4177 -4178 0
-21 -4178 0
-4177 -21 4179 0
4177 -4179 0
21 -4179 0
-4179 -4178 4180 0
4179 -4180 0
4178 -4180 0
-4180 22 4181 0
4180 -4181 0
-22 -4181 0
-4180 -22 4182 0
4180 -4182 0
22 -4182 0
-4182 -4181 4183 0
4182 -4183 0
4181 -4183 0
-4183 23 4184 0
4183 -4184 0
-23 -4184 0
-4183 -23 4185 0
4183 -4185 0
23 -4185 0
-4185 -4184 4186 0
4185 -4186 0
4184 -4186 0
-4186 24 4187 0
4186 -4187 0
-24 -4187 0
-4186 -24 4188 0
4186 -4188 0
24 -4188 0
-4188 -4187 4189 0
4188 -4189 0
4187 -4189 0
-4189 25 4190 0
4189 -4190 0
-25 -4190 0
-4189 -25 4191 0
4189 -4191 0
25 -4191 0
-4191 -4190 4192 0
4191 -4192 0
4190 -4192 0
-4192 26 4193 0
4192 -4193 0
-26 -4193 0
-4192 -26 4194 0
4192 -4194 0
26 -4194 0
-4194 -4193 4195 0
4194 -4195 0
4193 -4195 0
-4195 27 4196 0
4195 -4196 0
-27 -4196 0
-4195 -27 4197 0
4195 -4197 0
27 -4197 0
-4197 -4196 4198 0
4197 -4198 0
4196 -4198 0
-4198 28 4199 0
4198 -4199 0
-28 -4199 0
-4198 -28 4200 0
4198 -4200 0
28 -4200 0
-4200 -4199 4201 0
4200 -4201 0
4199 -4201 0
-4201 -4160 4202 0
4201 -4202 0
4160 -4202 0
4201 4160 4203 0
-4201 -4203 0
-4160 -4203 0
-4203 -4202 4204 0
4203 -4204 0
4202 -4204 0
4204 4158 4205 0
-4204 -4205 0
-4158 -4205 0
15 1 4206 0
-15 -4206 0
-1 -4206 0
4206 16 4207 0
-4206 -4207 0
-16 -4207 0
4206 -16 4208 0
-4206 -4208 0
16 -4208 0
-4208 -4207 4209 0
4208 -4209 0
4207 -4209 0
-4209 17 4210 0
4209 -4210 0
-17 -4210 0
-4209 -17 4211 0
4209 -4211 0
17 -4211 0
-4211 -4210 4212 0
4211 -4212 0
4210 -4212 0
-4212 18 4213 0
4212 -4213 0
-18 -4213 0
-4212 -18 4214 0
4212 -4214 0
18 -4214 0
-4214 -4213 4215 0
4214 -4215 0
4213 -4215 0
-4215 19 4216 0
4215 -4216 0
-19 -4216 0
-4215 -19 4217 0
4215 -4217 0
19 -4217 0
-4217 -4216 4218 0
4217 -4218 0
4216 -4218 0
-4218 20 4219 0
4218 -4219 0
-20 -4219 0
-4218 -20 4220 0
4218 -4220 0
20 -4220 0
-4220 -4219 4221 0
4220 -4221 0
4219 -4221 0
-4221 21 4222 0
4221 -4222 0
-21 -4222 0
-4221 -21 4223 0
4221 -4223 0
21 -4223 0
-4223 -4222 4224 0
4223 -4224 0
4222 -4224 0
-4224 22 4225 0
4224 -4225 0
-22 -4225 0
-4224 -22 4226 0
4224 -4226 0
22 -4226 0
-4226 -4225 4227 0
4226 -4227 0
4225 -4227 0
-4227 23 4228 0
4227 -4228 0
-23 -4228 0
-4227 -23 4229 0
4227 -4229 0
23 -4229 0
-4229 -4228 4230 0
4229 -4230 0
4228 -4230 0
-4230 24 4231 0
4230 -4231 0
-24 -4231 0
-4230 -24 4232 0
4230 -4232 0
24 -4232 0
-4232 -4231 4233 0
4232 -4233 0
4231 -4233 0
-4233 25 4234 0
4233 -4234 0
-25 -4234 0
-4233 -25 4235 0
4233 -4235 0
25 -4235 0
-4235 -4234 4236 0
4235 -4236 0
4234 -4236 0
-4236 26 4237 0
4236 -4237 0
-26 -4237 0
-4236 -26 4238 0
4236 -4238 0
26 -4238 0
-4238 -4237 4239 0
4238 -4239 0
4237 -4239 0
-4239 27 4240 0
4239 -4240 0
-27 -4240 0
-4239 -27 4241 0
4239 -4241 0
27 -4241 0
-4241 -4240 4242 0
4241 -4242 0
4240 -4242 0
-4242 28 4243 0
4242 -4243 0
-28 -4243 0
-4242 -28 4244 0
4242 -4244 0
28 -4244 0
-4244 -4243 4245 0
4244 -4245 0
4243 -4245 0
-4245 -4206 4246 0
4245 -4246 0
4206 -4246 0
4245 4206 4247 0
-4245 -4247 0
-4206 -4247 0
-4247 -4246 4248 0
4247 -4248 0
4246 -4248 0
4248 4205 4249 0
-4248 -4249 0
-4205 -4249 0
4249 4115 4250 0
-4249 -4250 0
-4115 -4250 0
4250 3967 4251 0
-4250 -4251 0
-3967 -4251 0
4251 3812 4252 0
-4251 -4252 0
-3812 -4252 0
-4252 0
