c Result of efficient AIG-to-CNF conversion using package CNF
p cnf 468 1607
2 -450 -459 0
-2 450 0
-2 459 0
3 4 -5 0
3 -4 5 0
-3 -4 -5 0
-3 4 5 0
4 -450 -460 0
-4 450 0
-4 460 0
5 -451 -459 0
-5 451 0
-5 459 0
6 7 -8 0
6 -7 8 0
-6 -7 -8 0
-6 7 8 0
7 -450 -451 -459 -460 0
-7 460 0
-7 450 0
-7 459 0
-7 451 0
8 9 -12 0
8 -9 12 0
-8 -9 -12 0
-8 9 12 0
9 10 -11 0
9 -10 11 0
-9 -10 -11 0
-9 10 11 0
10 -450 -461 0
-10 450 0
-10 461 0
11 -451 -460 0
-11 451 0
-11 460 0
12 -452 -459 0
-12 452 0
-12 459 0
13 14 -15 0
13 -14 15 0
-13 -14 -15 0
-13 14 15 0
14 -7 -8 0
-14 7 0
-14 8 0
15 16 -17 0
15 -16 17 0
-15 -16 -17 0
-15 16 17 0
16 -450 -462 0
-16 450 0
-16 462 0
17 -18 23 0
17 18 -23 0
-17 18 23 0
-17 -18 -23 0
18 19 -22 0
18 -19 22 0
-18 -19 -22 0
-18 19 22 0
19 20 -21 0
19 -20 21 0
-19 -20 -21 0
-19 20 21 0
20 -451 -461 0
-20 451 0
-20 461 0
21 -452 -460 0
-21 452 0
-21 460 0
22 -453 -459 0
-22 453 0
-22 459 0
-23 24 25 0
23 -24 0
23 -25 0
24 -450 -451 -460 -461 0
-24 461 0
-24 450 0
-24 460 0
-24 451 0
25 -452 -459 -9 0
-25 452 0
-25 459 0
-25 9 0
26 27 -28 0
26 -27 28 0
-26 -27 -28 0
-26 27 28 0
27 -14 -15 0
-27 14 0
-27 15 0
28 29 -30 0
28 -29 30 0
-28 -29 -30 0
-28 29 30 0
29 -18 -23 0
-29 18 0
-29 23 0
30 31 -32 0
30 -31 32 0
-30 -31 -32 0
-30 31 32 0
31 -450 -462 -17 0
-31 450 0
-31 462 0
-31 17 0
32 33 -36 0
32 -33 36 0
-32 -33 -36 0
-32 33 36 0
33 34 -35 0
33 -34 35 0
-33 -34 -35 0
-33 34 35 0
34 -450 -463 0
-34 450 0
-34 463 0
35 -451 -462 0
-35 451 0
-35 462 0
36 -37 42 0
36 37 -42 0
-36 37 42 0
-36 -37 -42 0
37 38 -41 0
37 -38 41 0
-37 -38 -41 0
-37 38 41 0
38 39 -40 0
38 -39 40 0
-38 -39 -40 0
-38 39 40 0
39 -452 -461 0
-39 452 0
-39 461 0
40 -453 -460 0
-40 453 0
-40 460 0
41 -454 -459 0
-41 454 0
-41 459 0
-42 43 44 0
42 -43 0
42 -44 0
43 -451 -452 -460 -461 0
-43 461 0
-43 451 0
-43 460 0
-43 452 0
44 -453 -459 -19 0
-44 453 0
-44 459 0
-44 19 0
45 46 -47 0
45 -46 47 0
-45 -46 -47 0
-45 46 47 0
46 -27 -28 0
-46 27 0
-46 28 0
47 -48 69 0
47 48 -69 0
-47 48 69 0
-47 -48 -69 0
48 49 -50 0
48 -49 50 0
-48 -49 -50 0
-48 49 50 0
49 -37 -42 0
-49 37 0
-49 42 0
50 51 -52 0
50 -51 52 0
-50 -51 -52 0
-50 51 52 0
51 -33 -36 0
-51 33 0
-51 36 0
52 53 -58 0
52 -53 58 0
-52 -53 -58 0
-52 53 58 0
53 54 -57 0
53 -54 57 0
-53 -54 -57 0
-53 54 57 0
54 55 -56 0
54 -55 56 0
-54 -55 -56 0
-54 55 56 0
55 -450 -464 0
-55 450 0
-55 464 0
56 -451 -463 0
-56 451 0
-56 463 0
57 -452 -462 0
-57 452 0
-57 462 0
58 -59 66 0
58 59 -66 0
-58 59 66 0
-58 -59 -66 0
59 60 -61 0
59 -60 61 0
-59 -60 -61 0
-59 60 61 0
60 -450 -451 -462 -463 0
-60 463 0
-60 450 0
-60 462 0
-60 451 0
61 62 -65 0
61 -62 65 0
-61 -62 -65 0
-61 62 65 0
62 63 -64 0
62 -63 64 0
-62 -63 -64 0
-62 63 64 0
63 -453 -461 0
-63 453 0
-63 461 0
64 -454 -460 0
-64 454 0
-64 460 0
65 -455 -459 0
-65 455 0
-65 459 0
-66 67 68 0
66 -67 0
66 -68 0
67 -452 -453 -460 -461 0
-67 461 0
-67 452 0
-67 460 0
-67 453 0
68 -454 -459 -38 0
-68 454 0
-68 459 0
-68 38 0
-69 70 71 0
69 -70 0
69 -71 0
70 -31 -32 0
-70 31 0
-70 32 0
71 -29 -32 0
-71 29 0
-71 32 0
72 -73 104 0
72 73 -104 0
-72 73 104 0
-72 -73 -104 0
73 -74 101 0
73 74 -101 0
-73 74 101 0
-73 -74 -101 0
74 -75 98 0
74 75 -98 0
-74 75 98 0
-74 -75 -98 0
75 76 -77 0
75 -76 77 0
-75 -76 -77 0
-75 76 77 0
76 -53 -58 0
-76 53 0
-76 58 0
77 78 -85 0
77 -78 85 0
-77 -78 -85 0
-77 78 85 0
78 79 -80 0
78 -79 80 0
-78 -79 -80 0
-78 79 80 0
79 -450 -465 0
-79 450 0
-79 465 0
80 81 -84 0
80 -81 84 0
-80 -81 -84 0
-80 81 84 0
81 82 -83 0
81 -82 83 0
-81 -82 -83 0
-81 82 83 0
82 -451 -464 0
-82 451 0
-82 464 0
83 -452 -463 0
-83 452 0
-83 463 0
84 -453 -462 0
-84 453 0
-84 462 0
85 -86 95 0
85 86 -95 0
-85 86 95 0
-85 -86 -95 0
86 87 -90 0
86 -87 90 0
-86 -87 -90 0
-86 87 90 0
-87 88 89 0
87 -88 0
87 -89 0
88 -450 -451 -463 -464 0
-88 464 0
-88 450 0
-88 463 0
-88 451 0
89 -452 -462 -54 0
-89 452 0
-89 462 0
-89 54 0
90 91 -94 0
90 -91 94 0
-90 -91 -94 0
-90 91 94 0
91 92 -93 0
91 -92 93 0
-91 -92 -93 0
-91 92 93 0
92 -454 -461 0
-92 454 0
-92 461 0
93 -455 -460 0
-93 455 0
-93 460 0
94 -456 -459 0
-94 456 0
-94 459 0
-95 96 97 0
95 -96 0
95 -97 0
96 -453 -454 -460 -461 0
-96 461 0
-96 453 0
-96 460 0
-96 454 0
97 -455 -459 -62 0
-97 455 0
-97 459 0
-97 62 0
-98 99 100 0
98 -99 0
98 -100 0
99 -60 -61 0
-99 60 0
-99 61 0
100 -59 -66 0
-100 59 0
-100 66 0
-101 102 103 0
101 -102 0
101 -103 0
102 -51 -52 0
-102 51 0
-102 52 0
103 -49 -50 0
-103 49 0
-103 50 0
-104 105 106 0
104 -105 0
104 -106 0
105 -48 -69 0
-105 48 0
-105 69 0
106 -46 -47 0
-106 46 0
-106 47 0
107 -108 143 0
107 108 -143 0
-107 108 143 0
-107 -108 -143 0
108 -109 140 0
108 109 -140 0
-108 109 140 0
-108 -109 -140 0
109 -110 137 0
109 110 -137 0
-109 110 137 0
-109 -110 -137 0
110 111 -112 0
110 -111 112 0
-110 -111 -112 0
-110 111 112 0
111 -78 -85 0
-111 78 0
-111 85 0
112 113 -124 0
112 -113 124 0
-112 -113 -124 0
-112 113 124 0
113 114 -115 0
113 -114 115 0
-113 -114 -115 0
-113 114 115 0
114 -450 -465 -80 0
-114 450 0
-114 465 0
-114 80 0
115 116 -119 0
115 -116 119 0
-115 -116 -119 0
-115 116 119 0
116 117 -118 0
116 -117 118 0
-116 -117 -118 0
-116 117 118 0
117 -450 -466 0
-117 450 0
-117 466 0
118 -451 -465 0
-118 451 0
-118 465 0
119 120 -123 0
119 -120 123 0
-119 -120 -123 0
-119 120 123 0
120 121 -122 0
120 -121 122 0
-120 -121 -122 0
-120 121 122 0
121 -452 -464 0
-121 452 0
-121 464 0
122 -453 -463 0
-122 453 0
-122 463 0
123 -454 -462 0
-123 454 0
-123 462 0
124 -125 134 0
124 125 -134 0
-124 125 134 0
-124 -125 -134 0
125 126 -129 0
125 -126 129 0
-125 -126 -129 0
-125 126 129 0
-126 127 128 0
126 -127 0
126 -128 0
127 -451 -452 -463 -464 0
-127 464 0
-127 451 0
-127 463 0
-127 452 0
128 -453 -462 -81 0
-128 453 0
-128 462 0
-128 81 0
129 130 -133 0
129 -130 133 0
-129 -130 -133 0
-129 130 133 0
130 131 -132 0
130 -131 132 0
-130 -131 -132 0
-130 131 132 0
131 -455 -461 0
-131 455 0
-131 461 0
132 -456 -460 0
-132 456 0
-132 460 0
133 -457 -459 0
-133 457 0
-133 459 0
-134 135 136 0
134 -135 0
134 -136 0
135 -454 -455 -460 -461 0
-135 461 0
-135 454 0
-135 460 0
-135 455 0
136 -456 -459 -91 0
-136 456 0
-136 459 0
-136 91 0
-137 138 139 0
137 -138 0
137 -139 0
138 -87 -90 0
-138 87 0
-138 90 0
139 -86 -95 0
-139 86 0
-139 95 0
-140 141 142 0
140 -141 0
140 -142 0
141 -76 -77 0
-141 76 0
-141 77 0
142 -75 -98 0
-142 75 0
-142 98 0
-143 144 145 0
143 -144 0
143 -145 0
144 -74 -101 0
-144 74 0
-144 101 0
145 -73 -104 0
-145 73 0
-145 104 0
146 -147 188 0
146 147 -188 0
-146 147 188 0
-146 -147 -188 0
147 -148 185 0
147 148 -185 0
-147 148 185 0
-147 -148 -185 0
148 -149 182 0
148 149 -182 0
-148 149 182 0
-148 -149 -182 0
149 -150 179 0
149 150 -179 0
-149 150 179 0
-149 -150 -179 0
150 151 -166 0
150 -151 166 0
-150 -151 -166 0
-150 151 166 0
151 152 -153 0
151 -152 153 0
-151 -152 -153 0
-151 152 153 0
152 -116 -119 0
-152 116 0
-152 119 0
153 154 -161 0
153 -154 161 0
-153 -154 -161 0
-153 154 161 0
154 155 -156 0
154 -155 156 0
-154 -155 -156 0
-154 155 156 0
155 -450 -451 -465 -466 0
-155 466 0
-155 450 0
-155 465 0
-155 451 0
156 157 -160 0
156 -157 160 0
-156 -157 -160 0
-156 157 160 0
157 158 -159 0
157 -158 159 0
-157 -158 -159 0
-157 158 159 0
158 -450 -467 0
-158 450 0
-158 467 0
159 -451 -466 0
-159 451 0
-159 466 0
160 -452 -465 0
-160 452 0
-160 465 0
161 162 -165 0
161 -162 165 0
-161 -162 -165 0
-161 162 165 0
162 163 -164 0
162 -163 164 0
-162 -163 -164 0
-162 163 164 0
163 -453 -464 0
-163 453 0
-163 464 0
164 -454 -463 0
-164 454 0
-164 463 0
165 -455 -462 0
-165 455 0
-165 462 0
166 -167 176 0
166 167 -176 0
-166 167 176 0
-166 -167 -176 0
167 168 -171 0
167 -168 171 0
-167 -168 -171 0
-167 168 171 0
-168 169 170 0
168 -169 0
168 -170 0
169 -452 -453 -463 -464 0
-169 464 0
-169 452 0
-169 463 0
-169 453 0
170 -454 -462 -120 0
-170 454 0
-170 462 0
-170 120 0
171 172 -175 0
171 -172 175 0
-171 -172 -175 0
-171 172 175 0
172 173 -174 0
172 -173 174 0
-172 -173 -174 0
-172 173 174 0
173 -456 -461 0
-173 456 0
-173 461 0
174 -457 -460 0
-174 457 0
-174 460 0
175 -458 -459 0
-175 458 0
-175 459 0
-176 177 178 0
176 -177 0
176 -178 0
177 -455 -456 -460 -461 0
-177 461 0
-177 455 0
-177 460 0
-177 456 0
178 -457 -459 -130 0
-178 457 0
-178 459 0
-178 130 0
-179 180 181 0
179 -180 0
179 -181 0
180 -114 -115 0
-180 114 0
-180 115 0
181 -113 -124 0
-181 113 0
-181 124 0
-182 183 184 0
182 -183 0
182 -184 0
183 -126 -129 0
-183 126 0
-183 129 0
184 -125 -134 0
-184 125 0
-184 134 0
-185 186 187 0
185 -186 0
185 -187 0
186 -111 -112 0
-186 111 0
-186 112 0
187 -110 -137 0
-187 110 0
-187 137 0
-188 73 189 0
-188 104 189 0
-188 108 189 0
188 -189 0
188 -73 -104 -108 0
-189 190 108 0
-189 144 190 0
189 -190 0
189 -144 -108 0
190 -109 -140 0
-190 109 0
-190 140 0
191 -192 235 0
191 192 -235 0
-191 192 235 0
-191 -192 -235 0
192 -193 232 0
192 193 -232 0
-192 193 232 0
-192 -193 -232 0
193 -194 229 0
193 194 -229 0
-193 194 229 0
-193 -194 -229 0
194 -195 226 0
194 195 -226 0
-194 195 226 0
-194 -195 -226 0
195 196 -215 0
195 -196 215 0
-195 -196 -215 0
-195 196 215 0
196 -197 212 0
196 197 -212 0
-196 197 212 0
-196 -197 -212 0
197 198 -207 0
197 -198 207 0
-197 -198 -207 0
-197 198 207 0
198 -199 204 0
198 199 -204 0
-198 199 204 0
-198 -199 -204 0
199 200 -203 0
199 -200 203 0
-199 -200 -203 0
-199 200 203 0
200 201 -202 0
200 -201 202 0
-200 -201 -202 0
-200 201 202 0
201 -451 -467 0
-201 451 0
-201 467 0
202 -452 -466 0
-202 452 0
-202 466 0
203 -453 -465 0
-203 453 0
-203 465 0
-204 205 206 0
204 -205 0
204 -206 0
205 -450 -451 -466 -467 0
-205 467 0
-205 450 0
-205 466 0
-205 451 0
206 -452 -465 -157 0
-206 452 0
-206 465 0
-206 157 0
207 208 -211 0
207 -208 211 0
-207 -208 -211 0
-207 208 211 0
208 209 -210 0
208 -209 210 0
-208 -209 -210 0
-208 209 210 0
209 -454 -464 0
-209 454 0
-209 464 0
210 -455 -463 0
-210 455 0
-210 463 0
211 -456 -462 0
-211 456 0
-211 462 0
-212 213 214 0
212 -213 0
212 -214 0
213 -155 -156 0
-213 155 0
-213 156 0
214 -154 -161 0
-214 154 0
-214 161 0
215 -216 223 0
215 216 -223 0
-215 216 223 0
-215 -216 -223 0
216 217 -220 0
216 -217 220 0
-216 -217 -220 0
-216 217 220 0
-217 218 219 0
217 -218 0
217 -219 0
218 -453 -454 -463 -464 0
-218 464 0
-218 453 0
-218 463 0
-218 454 0
219 -455 -462 -162 0
-219 455 0
-219 462 0
-219 162 0
220 221 -222 0
220 -221 222 0
-220 -221 -222 0
-220 221 222 0
221 -457 -461 0
-221 457 0
-221 461 0
222 -458 -460 0
-222 458 0
-222 460 0
-223 224 225 0
223 -224 0
223 -225 0
224 -456 -457 -460 -461 0
-224 461 0
-224 456 0
-224 460 0
-224 457 0
225 -458 -459 -172 0
-225 458 0
-225 459 0
-225 172 0
-226 227 228 0
226 -227 0
226 -228 0
227 -152 -153 0
-227 152 0
-227 153 0
228 -151 -166 0
-228 151 0
-228 166 0
-229 230 231 0
229 -230 0
229 -231 0
230 -168 -171 0
-230 168 0
-230 171 0
231 -167 -176 0
-231 167 0
-231 176 0
-232 233 234 0
232 -233 0
232 -234 0
233 -150 -179 0
-233 150 0
-233 179 0
234 -149 -182 0
-234 149 0
-234 182 0
-235 236 237 0
235 -236 0
235 -237 0
236 -148 -185 0
-236 148 0
-236 185 0
237 -147 -188 0
-237 147 0
-237 188 0
238 -239 278 0
238 239 -278 0
-238 239 278 0
-238 -239 -278 0
239 -240 275 0
239 240 -275 0
-239 240 275 0
-239 -240 -275 0
240 -241 272 0
240 241 -272 0
-240 241 272 0
-240 -241 -272 0
241 -242 269 0
241 242 -269 0
-241 242 269 0
-241 -242 -269 0
242 243 -262 0
242 -243 262 0
-242 -243 -262 0
-242 243 262 0
243 -244 259 0
243 244 -259 0
-243 244 259 0
-243 -244 -259 0
244 245 -254 0
244 -245 254 0
-244 -245 -254 0
-244 245 254 0
245 -246 251 0
245 246 -251 0
-245 246 251 0
-245 -246 -251 0
246 247 -250 0
246 -247 250 0
-246 -247 -250 0
-246 247 250 0
247 248 -249 0
247 -248 249 0
-247 -248 -249 0
-247 248 249 0
248 -452 -467 0
-248 452 0
-248 467 0
249 -453 -466 0
-249 453 0
-249 466 0
250 -454 -465 0
-250 454 0
-250 465 0
-251 252 253 0
251 -252 0
251 -253 0
252 -451 -452 -466 -467 0
-252 467 0
-252 451 0
-252 466 0
-252 452 0
253 -453 -465 -200 0
-253 453 0
-253 465 0
-253 200 0
254 255 -258 0
254 -255 258 0
-254 -255 -258 0
-254 255 258 0
255 256 -257 0
255 -256 257 0
-255 -256 -257 0
-255 256 257 0
256 -455 -464 0
-256 455 0
-256 464 0
257 -456 -463 0
-257 456 0
-257 463 0
258 -457 -462 0
-258 457 0
-258 462 0
-259 260 261 0
259 -260 0
259 -261 0
260 -199 -204 0
-260 199 0
-260 204 0
261 -198 -207 0
-261 198 0
-261 207 0
262 263 -264 0
262 -263 264 0
-262 -263 -264 0
-262 263 264 0
263 -457 -458 -460 -461 0
-263 461 0
-263 457 0
-263 460 0
-263 458 0
264 265 -268 0
264 -265 268 0
-264 -265 -268 0
-264 265 268 0
-265 266 267 0
265 -266 0
265 -267 0
266 -454 -455 -463 -464 0
-266 464 0
-266 454 0
-266 463 0
-266 455 0
267 -456 -462 -208 0
-267 456 0
-267 462 0
-267 208 0
268 -458 -461 0
-268 458 0
-268 461 0
-269 270 271 0
269 -270 0
269 -271 0
270 -197 -212 0
-270 197 0
-270 212 0
271 -196 -215 0
-271 196 0
-271 215 0
-272 273 274 0
272 -273 0
272 -274 0
273 -217 -220 0
-273 217 0
-273 220 0
274 -216 -223 0
-274 216 0
-274 223 0
-275 276 277 0
275 -276 0
275 -277 0
276 -195 -226 0
-276 195 0
-276 226 0
277 -194 -229 0
-277 194 0
-277 229 0
-278 188 279 0
-278 279 281 0
278 -279 0
278 -188 -281 0
-279 280 192 0
-279 236 280 0
279 -280 0
279 -236 -192 0
280 -193 -232 0
-280 193 0
-280 232 0
281 -147 -192 0
-281 147 0
-281 192 0
282 -283 318 0
282 283 -318 0
-282 283 318 0
-282 -283 -318 0
283 -284 315 0
283 284 -315 0
-283 284 315 0
-283 -284 -315 0
284 -285 312 0
284 285 -312 0
-284 285 312 0
-284 -285 -312 0
285 -286 309 0
285 286 -309 0
-285 286 309 0
-285 -286 -309 0
286 -287 306 0
286 287 -306 0
-286 287 306 0
-286 -287 -306 0
287 -288 303 0
287 288 -303 0
-287 288 303 0
-287 -288 -303 0
288 289 -298 0
288 -289 298 0
-288 -289 -298 0
-288 289 298 0
289 -290 295 0
289 290 -295 0
-289 290 295 0
-289 -290 -295 0
290 291 -294 0
290 -291 294 0
-290 -291 -294 0
-290 291 294 0
291 292 -293 0
291 -292 293 0
-291 -292 -293 0
-291 292 293 0
292 -453 -467 0
-292 453 0
-292 467 0
293 -454 -466 0
-293 454 0
-293 466 0
294 -455 -465 0
-294 455 0
-294 465 0
-295 296 297 0
295 -296 0
295 -297 0
296 -452 -453 -466 -467 0
-296 467 0
-296 452 0
-296 466 0
-296 453 0
297 -454 -465 -247 0
-297 454 0
-297 465 0
-297 247 0
298 299 -302 0
298 -299 302 0
-298 -299 -302 0
-298 299 302 0
299 300 -301 0
299 -300 301 0
-299 -300 -301 0
-299 300 301 0
300 -456 -464 0
-300 456 0
-300 464 0
301 -457 -463 0
-301 457 0
-301 463 0
302 -458 -462 0
-302 458 0
-302 462 0
-303 304 305 0
303 -304 0
303 -305 0
304 -246 -251 0
-304 246 0
-304 251 0
305 -245 -254 0
-305 245 0
-305 254 0
-306 307 308 0
306 -307 0
306 -308 0
307 -455 -456 -463 -464 0
-307 464 0
-307 455 0
-307 463 0
-307 456 0
308 -457 -462 -255 0
-308 457 0
-308 462 0
-308 255 0
-309 310 311 0
309 -310 0
309 -311 0
310 -244 -259 0
-310 244 0
-310 259 0
311 -243 -262 0
-311 243 0
-311 262 0
-312 313 314 0
312 -313 0
312 -314 0
313 -458 -461 -265 0
-313 458 0
-313 461 0
-313 265 0
314 -263 -264 0
-314 263 0
-314 264 0
-315 316 317 0
315 -316 0
315 -317 0
316 -242 -269 0
-316 242 0
-316 269 0
317 -241 -272 0
-317 241 0
-317 272 0
-318 319 320 0
318 -319 0
318 -320 0
319 -240 -275 0
-319 240 0
-319 275 0
320 -239 -278 0
-320 239 0
-320 278 0
321 -322 351 0
321 322 -351 0
-321 322 351 0
-321 -322 -351 0
322 -323 348 0
322 323 -348 0
-322 323 348 0
-322 -323 -348 0
323 -324 345 0
323 324 -345 0
-323 324 345 0
-323 -324 -345 0
324 -325 342 0
324 325 -342 0
-324 325 342 0
-324 -325 -342 0
325 -326 339 0
325 326 -339 0
-325 326 339 0
-325 -326 -339 0
326 327 -336 0
326 -327 336 0
-326 -327 -336 0
-326 327 336 0
327 -328 333 0
327 328 -333 0
-327 328 333 0
-327 -328 -333 0
328 329 -332 0
328 -329 332 0
-328 -329 -332 0
-328 329 332 0
329 330 -331 0
329 -330 331 0
-329 -330 -331 0
-329 330 331 0
330 -454 -467 0
-330 454 0
-330 467 0
331 -455 -466 0
-331 455 0
-331 466 0
332 -456 -465 0
-332 456 0
-332 465 0
-333 334 335 0
333 -334 0
333 -335 0
334 -453 -454 -466 -467 0
-334 467 0
-334 453 0
-334 466 0
-334 454 0
335 -455 -465 -291 0
-335 455 0
-335 465 0
-335 291 0
336 337 -338 0
336 -337 338 0
-336 -337 -338 0
-336 337 338 0
337 -457 -464 0
-337 457 0
-337 464 0
338 -458 -463 0
-338 458 0
-338 463 0
-339 340 341 0
339 -340 0
339 -341 0
340 -290 -295 0
-340 290 0
-340 295 0
341 -289 -298 0
-341 289 0
-341 298 0
-342 343 344 0
342 -343 0
342 -344 0
343 -456 -457 -463 -464 0
-343 464 0
-343 456 0
-343 463 0
-343 457 0
344 -458 -462 -299 0
-344 458 0
-344 462 0
-344 299 0
-345 346 347 0
345 -346 0
345 -347 0
346 -288 -303 0
-346 288 0
-346 303 0
347 -287 -306 0
-347 287 0
-347 306 0
-348 349 350 0
348 -349 0
348 -350 0
349 -286 -309 0
-349 286 0
-349 309 0
350 -285 -312 0
-350 285 0
-350 312 0
-351 188 352 0
-351 352 356 0
351 -352 0
351 -188 -356 0
-352 319 353 354 0
-352 353 283 354 0
352 -354 0
352 -353 0
352 -319 -283 0
353 -284 -315 0
-353 284 0
-353 315 0
354 -279 -355 0
-354 279 0
-354 355 0
355 -239 -283 0
-355 239 0
-355 283 0
356 -281 -355 0
-356 281 0
-356 355 0
357 -358 381 0
357 358 -381 0
-357 358 381 0
-357 -358 -381 0
358 359 -360 0
358 -359 360 0
-358 -359 -360 0
-358 359 360 0
359 -324 -345 0
-359 324 0
-359 345 0
360 -361 378 0
360 361 -378 0
-360 361 378 0
-360 -361 -378 0
361 362 -363 0
361 -362 363 0
-361 -362 -363 0
-361 362 363 0
362 -457 -458 -463 -464 0
-362 464 0
-362 457 0
-362 463 0
-362 458 0
363 -364 375 0
363 364 -375 0
-363 364 375 0
-363 -364 -375 0
364 365 -374 0
364 -365 374 0
-364 -365 -374 0
-364 365 374 0
365 -366 371 0
365 366 -371 0
-365 366 371 0
-365 -366 -371 0
366 367 -370 0
366 -367 370 0
-366 -367 -370 0
-366 367 370 0
367 368 -369 0
367 -368 369 0
-367 -368 -369 0
-367 368 369 0
368 -455 -467 0
-368 455 0
-368 467 0
369 -456 -466 0
-369 456 0
-369 466 0
370 -457 -465 0
-370 457 0
-370 465 0
-371 372 373 0
371 -372 0
371 -373 0
372 -454 -455 -466 -467 0
-372 467 0
-372 454 0
-372 466 0
-372 455 0
373 -456 -465 -329 0
-373 456 0
-373 465 0
-373 329 0
374 -458 -464 0
-374 458 0
-374 464 0
-375 376 377 0
375 -376 0
375 -377 0
376 -328 -333 0
-376 328 0
-376 333 0
377 -327 -336 0
-377 327 0
-377 336 0
-378 379 380 0
378 -379 0
378 -380 0
379 -326 -339 0
-379 326 0
-379 339 0
380 -325 -342 0
-380 325 0
-380 342 0
-381 382 383 0
381 -382 0
381 -383 0
382 -323 -348 0
-382 323 0
-382 348 0
383 -322 -351 0
-383 322 0
-383 351 0
384 -385 404 0
384 385 -404 0
-384 385 404 0
-384 -385 -404 0
385 386 -387 0
385 -386 387 0
-385 -386 -387 0
-385 386 387 0
386 -361 -378 0
-386 361 0
-386 378 0
387 -388 401 0
387 388 -401 0
-387 388 401 0
-387 -388 -401 0
388 -389 398 0
388 389 -398 0
-388 389 398 0
-388 -389 -398 0
389 -390 395 0
389 390 -395 0
-389 390 395 0
-389 -390 -395 0
390 391 -394 0
390 -391 394 0
-390 -391 -394 0
-390 391 394 0
391 392 -393 0
391 -392 393 0
-391 -392 -393 0
-391 392 393 0
392 -456 -467 0
-392 456 0
-392 467 0
393 -457 -466 0
-393 457 0
-393 466 0
394 -458 -465 0
-394 458 0
-394 465 0
-395 396 397 0
395 -396 0
395 -397 0
396 -455 -456 -466 -467 0
-396 467 0
-396 455 0
-396 466 0
-396 456 0
397 -457 -465 -367 0
-397 457 0
-397 465 0
-397 367 0
-398 399 400 0
398 -399 0
398 -400 0
399 -366 -371 0
-399 366 0
-399 371 0
400 -458 -464 -365 0
-400 458 0
-400 464 0
-400 365 0
-401 402 403 0
401 -402 0
401 -403 0
402 -364 -375 0
-402 364 0
-402 375 0
403 -362 -363 0
-403 362 0
-403 363 0
-404 351 405 0
-404 405 407 0
404 -405 0
404 -351 -407 0
-405 406 358 0
-405 382 406 0
405 -406 0
405 -382 -358 0
406 -359 -360 0
-406 359 0
-406 360 0
407 -322 -358 0
-407 322 0
-407 358 0
408 -409 422 0
408 409 -422 0
-408 409 422 0
-408 -409 -422 0
409 410 -411 0
409 -410 411 0
-409 -410 -411 0
-409 410 411 0
410 -388 -401 0
-410 388 0
-410 401 0
411 412 -413 0
411 -412 413 0
-411 -412 -413 0
-411 412 413 0
412 -389 -398 0
-412 389 0
-412 398 0
413 414 -415 0
413 -414 415 0
-413 -414 -415 0
-413 414 415 0
414 -390 -395 0
-414 390 0
-414 395 0
415 -416 419 0
415 416 -419 0
-415 416 419 0
-415 -416 -419 0
416 417 -418 0
416 -417 418 0
-416 -417 -418 0
-416 417 418 0
417 -457 -467 0
-417 457 0
-417 467 0
418 -458 -466 0
-418 458 0
-418 466 0
-419 420 421 0
419 -420 0
419 -421 0
420 -456 -457 -466 -467 0
-420 467 0
-420 456 0
-420 466 0
-420 457 0
421 -458 -465 -391 0
-421 458 0
-421 465 0
-421 391 0
-422 423 424 0
422 -423 0
422 -424 0
423 -386 -387 0
-423 386 0
-423 387 0
424 -385 -404 0
-424 385 0
-424 404 0
425 -426 433 0
425 426 -433 0
-425 426 433 0
-425 -426 -433 0
426 427 -428 0
426 -427 428 0
-426 -427 -428 0
-426 427 428 0
427 -412 -413 0
-427 412 0
-427 413 0
428 429 -430 0
428 -429 430 0
-428 -429 -430 0
-428 429 430 0
429 -414 -415 0
-429 414 0
-429 415 0
430 431 -432 0
430 -431 432 0
-430 -431 -432 0
-430 431 432 0
431 -416 -419 0
-431 416 0
-431 419 0
432 457 -458 -467 0
432 -458 466 -467 0
-432 467 0
-432 458 0
-432 -457 -466 0
-433 356 436 0
-433 434 436 0
-433 188 436 0
433 -436 0
433 -188 -356 -434 0
434 -407 -435 0
-434 407 0
-434 435 0
435 -385 -409 0
-435 385 0
-435 409 0
-436 352 437 439 0
-436 437 439 434 0
436 -437 0
436 -439 0
436 -352 -434 0
-437 438 409 0
-437 423 438 0
437 -438 0
437 -423 -409 0
438 -410 -411 0
-438 410 0
-438 411 0
439 -405 -435 0
-439 405 0
-439 435 0
440 -441 447 0
440 441 -447 0
-440 441 447 0
-440 -441 -447 0
441 442 -443 0
441 -442 443 0
-441 -442 -443 0
-441 442 443 0
442 -429 -430 0
-442 429 0
-442 430 0
443 -444 0
-443 444 0
-444 445 446 0
444 -445 0
444 -446 0
445 -457 -458 -466 -467 0
-445 467 0
-445 457 0
-445 466 0
-445 458 0
446 -431 -432 0
-446 431 0
-446 432 0
-447 448 449 0
447 -448 0
447 -449 0
448 -427 -428 0
-448 427 0
-448 428 0
449 -426 -433 0
-449 426 0
-449 433 0
-468 0
2 0
3 0
6 0
13 0
26 0
45 0
72 0
107 0
146 0
191 0
238 0
282 0
321 0
357 0
384 0
408 0
425 0
440 0

