c Result of efficient AIG-to-CNF conversion using package CNF
p cnf 1113 4205
-2 3 108 474 904 0
2 -904 0
2 -3 0
2 -474 0
2 -108 0
-3 4 -25 -36 42 0
-3 4 25 36 42 0
3 -42 0
3 25 -36 0
3 -4 0
3 -25 36 0
-4 -5 -6 14 23 0
-4 5 6 -14 -23 0
-4 -5 -6 -14 -23 0
-4 5 6 14 23 0
4 -5 6 0
4 5 -6 0
4 -14 23 0
4 14 -23 0
5 -1093 -1103 0
-5 1093 0
-5 1103 0
-6 7 0
6 -7 0
-7 8 0
7 -8 0
-8 9 0
8 -9 0
-9 10 0
9 -10 0
-10 11 0
10 -11 0
-11 12 0
11 -12 0
-12 13 0
12 -13 0
-13 5 0
13 -5 0
-14 15 0
14 -15 0
-15 16 0
15 -16 0
-16 17 0
16 -17 0
-17 18 0
17 -18 0
-18 19 0
18 -19 0
-19 20 0
19 -20 0
-20 21 0
20 -21 0
-21 1093 22 0
-21 1104 22 0
-21 -1093 -1104 -22 0
21 1093 -22 0
21 -1093 -1104 22 0
21 1104 -22 0
22 -1094 -1103 0
-22 1094 0
-22 1103 0
23 22 -24 0
23 -22 24 0
-23 -22 -24 0
-23 22 24 0
24 -1093 -1104 0
-24 1093 0
-24 1104 0
-25 26 0
25 -26 0
-26 27 0
26 -27 0
-27 28 0
27 -28 0
-28 29 0
28 -29 0
-29 30 0
29 -30 0
-30 31 0
30 -31 0
-31 1093 32 0
-31 -1093 -1105 -32 0
-31 1105 32 0
31 1093 -32 0
31 1105 -32 0
31 -1093 -1105 32 0
-32 1104 34 0
-32 -1104 -33 -35 0
-32 -1104 33 35 0
32 1104 -34 0
32 -1104 -33 35 0
32 -1104 33 -35 0
33 -1093 -22 0
-33 1093 0
-33 22 0
34 -1095 -1103 0
-34 1095 0
-34 1103 0
35 1094 -34 0
35 -1094 34 0
-35 -1094 -34 0
-35 1094 34 0
36 37 -38 0
36 -37 38 0
-36 -37 -38 0
-36 37 38 0
37 -1093 -1104 -22 0
-37 1093 0
-37 1104 0
-37 22 0
38 34 -39 0
38 -34 39 0
-38 -34 -39 0
-38 34 39 0
39 40 -41 0
39 -40 41 0
-39 -40 -41 0
-39 40 41 0
40 -1093 -1105 0
-40 1093 0
-40 1105 0
41 -1094 -1104 0
-41 1094 0
-41 1104 0
-42 43 57 69 88 0
-42 -43 -57 -69 -88 0
-42 43 57 -69 -88 0
-42 -43 -57 69 88 0
42 43 -57 0
42 -43 57 0
42 -69 88 0
42 69 -88 0
-43 44 0
43 -44 0
-44 45 0
44 -45 0
-45 46 0
45 -46 0
-46 47 0
46 -47 0
-47 48 0
47 -48 0
-48 49 0
48 -49 0
-49 1093 50 0
-49 -1093 -1106 -50 0
-49 1106 50 0
49 1093 -50 0
49 1106 -50 0
49 -1093 -1106 50 0
-50 1105 52 0
-50 -1105 -51 -56 0
-50 -1105 51 56 0
50 1105 -52 0
50 -1105 -51 56 0
50 -1105 51 -56 0
51 -1093 -32 0
-51 1093 0
-51 32 0
-52 1104 53 0
-52 -1104 54 55 0
-52 -1104 -54 -55 0
52 1104 -53 0
52 -1104 54 -55 0
52 -1104 -54 55 0
53 -1096 -1103 0
-53 1096 0
-53 1103 0
54 1095 -53 0
54 -1095 53 0
-54 -1095 -53 0
-54 1095 53 0
-55 1103 0
-55 1094 0
-55 1093 1095 0
55 -1093 -1094 -1103 0
55 -1094 -1095 -1103 0
56 -1094 52 0
56 1094 -52 0
-56 1094 52 0
-56 -1094 -52 0
57 58 -59 0
57 -58 59 0
-57 -58 -59 0
-57 58 59 0
58 -37 -38 0
-58 37 0
-58 38 0
59 60 -61 0
59 -60 61 0
-59 -60 -61 0
-59 60 61 0
60 -34 -39 0
-60 34 0
-60 39 0
61 53 -62 0
61 -53 62 0
-61 -53 -62 0
-61 53 62 0
62 63 -64 0
62 -63 64 0
-62 -63 -64 0
-62 63 64 0
63 -1093 -1094 -1104 -1105 0
-63 1105 0
-63 1093 0
-63 1104 0
-63 1094 0
64 65 -68 0
64 -65 68 0
-64 -65 -68 0
-64 65 68 0
65 66 -67 0
65 -66 67 0
-65 -66 -67 0
-65 66 67 0
66 -1093 -1106 0
-66 1093 0
-66 1106 0
67 -1094 -1105 0
-67 1094 0
-67 1105 0
68 -1095 -1104 0
-68 1095 0
-68 1104 0
-69 70 0
69 -70 0
-70 71 0
70 -71 0
-71 72 0
71 -72 0
-72 73 0
72 -73 0
-73 74 0
73 -74 0
-74 1093 75 0
-74 -1093 -1107 -75 0
-74 1107 75 0
74 1093 -75 0
74 1107 -75 0
74 -1093 -1107 75 0
-75 1106 77 0
-75 -1106 -76 -87 0
-75 -1106 76 87 0
75 1106 -77 0
75 -1106 -76 87 0
75 -1106 76 -87 0
76 -1093 -50 0
-76 1093 0
-76 50 0
-77 1105 78 0
-77 -1105 83 84 0
-77 -1105 -83 -84 0
77 1105 -78 0
77 -1105 83 -84 0
77 -1105 -83 84 0
-78 1104 79 0
-78 -1104 80 81 0
-78 -1104 -80 -81 0
78 1104 -79 0
78 -1104 80 -81 0
78 -1104 -80 81 0
79 -1097 -1103 0
-79 1097 0
-79 1103 0
80 1096 -79 0
80 -1096 79 0
-80 -1096 -79 0
-80 1096 79 0
-81 35 82 0
-81 33 82 0
-81 54 82 0
81 -82 0
81 -33 -35 -54 0
-82 1103 0
-82 1095 0
-82 1094 1096 0
82 -1094 -1095 -1103 0
82 -1095 -1096 -1103 0
83 -1095 78 0
83 1095 -78 0
-83 1095 78 0
-83 -1095 -78 0
-84 85 86 0
84 -85 0
84 -86 0
85 -1094 -52 0
-85 1094 0
-85 52 0
86 -51 -56 0
-86 51 0
-86 56 0
87 -1094 77 0
87 1094 -77 0
-87 1094 77 0
-87 -1094 -77 0
88 -89 105 0
88 89 -105 0
-88 89 105 0
-88 -89 -105 0
89 90 -91 0
89 -90 91 0
-89 -90 -91 0
-89 90 91 0
90 -53 -62 0
-90 53 0
-90 62 0
91 79 -92 0
91 -79 92 0
-91 -79 -92 0
-91 79 92 0
92 93 -94 0
92 -93 94 0
-92 -93 -94 0
-92 93 94 0
93 -63 -64 0
-93 63 0
-93 64 0
94 95 -96 0
94 -95 96 0
-94 -95 -96 0
-94 95 96 0
95 -1093 -1107 0
-95 1093 0
-95 1107 0
96 -97 102 0
96 97 -102 0
-96 97 102 0
-96 -97 -102 0
97 98 -101 0
97 -98 101 0
-97 -98 -101 0
-97 98 101 0
98 99 -100 0
98 -99 100 0
-98 -99 -100 0
-98 99 100 0
99 -1094 -1106 0
-99 1094 0
-99 1106 0
100 -1095 -1105 0
-100 1095 0
-100 1105 0
101 -1096 -1104 0
-101 1096 0
-101 1104 0
-102 103 104 0
102 -103 0
102 -104 0
103 -1093 -1094 -1105 -1106 0
-103 1106 0
-103 1093 0
-103 1105 0
-103 1094 0
104 -1095 -1104 -65 0
-104 1095 0
-104 1104 0
-104 65 0
-105 106 107 0
105 -106 0
105 -107 0
106 -60 -61 0
-106 60 0
-106 61 0
107 -58 -59 0
-107 58 0
-107 59 0
-108 109 -224 -256 296 0
-108 109 224 256 296 0
108 -296 0
108 224 -256 0
108 -109 0
108 -224 256 0
-109 110 133 159 189 0
-109 -110 -133 -159 -189 0
-109 110 133 -159 -189 0
-109 -110 -133 159 189 0
109 110 -133 0
109 -110 133 0
109 -159 189 0
109 159 -189 0
-110 111 0
110 -111 0
-111 112 0
111 -112 0
-112 113 0
112 -113 0
-113 114 0
113 -114 0
-114 1093 115 0
-114 -1093 -1108 -115 0
-114 1108 115 0
114 1093 -115 0
114 1108 -115 0
114 -1093 -1108 115 0
-115 1107 117 0
-115 1094 116 117 0
-115 -1094 -116 117 0
-115 1094 -1107 -116 -117 0
-115 -1094 -1107 116 -117 0
115 1107 -117 0
115 -1094 -116 -117 0
115 1094 116 -117 0
115 1094 -1107 -116 117 0
115 -1094 -1107 116 117 0
116 -1093 -75 0
-116 1093 0
-116 75 0
-117 1106 118 0
-117 -1106 129 130 0
-117 -1106 -129 -130 0
117 1106 -118 0
117 -1106 129 -130 0
117 -1106 -129 130 0
-118 1105 119 0
-118 -1105 125 126 0
-118 -1105 -125 -126 0
118 1105 -119 0
118 -1105 125 -126 0
118 -1105 -125 126 0
-119 1104 120 0
-119 -1104 121 122 0
-119 -1104 -121 -122 0
119 1104 -120 0
119 -1104 121 -122 0
119 -1104 -121 122 0
120 -1098 -1103 0
-120 1098 0
-120 1103 0
121 1097 -120 0
121 -1097 120 0
-121 -1097 -120 0
-121 1097 120 0
-122 123 124 0
122 -123 0
122 -124 0
123 -1096 -79 0
-123 1096 0
-123 79 0
124 -80 -81 0
-124 80 0
-124 81 0
125 -1096 119 0
125 1096 -119 0
-125 1096 119 0
-125 -1096 -119 0
-126 127 128 0
126 -127 0
126 -128 0
127 -1095 -78 0
-127 1095 0
-127 78 0
128 -83 -84 0
-128 83 0
-128 84 0
129 -1095 118 0
129 1095 -118 0
-129 1095 118 0
-129 -1095 -118 0
-130 131 132 0
130 -131 0
130 -132 0
131 -1094 -77 0
-131 1094 0
-131 77 0
132 -76 -87 0
-132 76 0
-132 87 0
133 -134 156 0
133 134 -156 0
-133 134 156 0
-133 -134 -156 0
134 135 -136 0
134 -135 136 0
-134 -135 -136 0
-134 135 136 0
135 -79 -92 0
-135 79 0
-135 92 0
136 120 -137 0
136 -120 137 0
-136 -120 -137 0
-136 120 137 0
137 138 -139 0
137 -138 139 0
-137 -138 -139 0
-137 138 139 0
138 -93 -94 0
-138 93 0
-138 94 0
139 140 -141 0
139 -140 141 0
-139 -140 -141 0
-139 140 141 0
140 -97 -102 0
-140 97 0
-140 102 0
141 142 -143 0
141 -142 143 0
-141 -142 -143 0
-141 142 143 0
142 -1093 -1107 -96 0
-142 1093 0
-142 1107 0
-142 96 0
143 144 -147 0
143 -144 147 0
-143 -144 -147 0
-143 144 147 0
144 145 -146 0
144 -145 146 0
-144 -145 -146 0
-144 145 146 0
145 -1093 -1108 0
-145 1093 0
-145 1108 0
146 -1094 -1107 0
-146 1094 0
-146 1107 0
147 -148 153 0
147 148 -153 0
-147 148 153 0
-147 -148 -153 0
148 149 -152 0
148 -149 152 0
-148 -149 -152 0
-148 149 152 0
149 150 -151 0
149 -150 151 0
-149 -150 -151 0
-149 150 151 0
150 -1095 -1106 0
-150 1095 0
-150 1106 0
151 -1096 -1105 0
-151 1096 0
-151 1105 0
152 -1097 -1104 0
-152 1097 0
-152 1104 0
-153 154 155 0
153 -154 0
153 -155 0
154 -1094 -1095 -1105 -1106 0
-154 1106 0
-154 1094 0
-154 1105 0
-154 1095 0
155 -1096 -1104 -98 0
-155 1096 0
-155 1104 0
-155 98 0
-156 157 158 0
156 -157 0
156 -158 0
157 -90 -91 0
-157 90 0
-157 91 0
158 -89 -105 0
-158 89 0
-158 105 0
-159 160 0
159 -160 0
-160 161 0
160 -161 0
-161 162 0
161 -162 0
-162 1093 163 0
-162 -1093 -1109 -163 0
-162 1109 163 0
162 1093 -163 0
162 1109 -163 0
162 -1093 -1109 163 0
-163 1108 165 0
-163 -1108 -164 -188 0
-163 -1108 164 188 0
163 1108 -165 0
163 -1108 -164 188 0
163 -1108 164 -188 0
164 -1093 -115 0
-164 1093 0
-164 115 0
-165 1107 166 0
-165 -1095 166 -184 0
-165 1095 166 184 0
-165 -1095 -1107 -166 184 0
-165 1095 -1107 -166 -184 0
165 1107 -166 0
165 1095 -1107 166 -184 0
165 1095 -166 184 0
165 -1095 -166 -184 0
165 -1095 -1107 166 184 0
-166 1106 167 0
-166 -1106 179 180 0
-166 -1106 -179 -180 0
166 1106 -167 0
166 -1106 179 -180 0
166 -1106 -179 180 0
-167 1105 168 0
-167 -1105 174 175 0
-167 -1105 -174 -175 0
167 1105 -168 0
167 -1105 174 -175 0
167 -1105 -174 175 0
-168 1104 169 0
-168 -1104 170 171 0
-168 -1104 -170 -171 0
168 1104 -169 0
168 -1104 170 -171 0
168 -1104 -170 171 0
169 -1099 -1103 0
-169 1099 0
-169 1103 0
170 1098 -169 0
170 -1098 169 0
-170 -1098 -169 0
-170 1098 169 0
-171 81 172 0
-171 172 173 0
171 -172 0
171 -81 -173 0
-172 1103 0
-172 1097 0
-172 1096 1098 0
172 -1096 -1097 -1103 0
172 -1097 -1098 -1103 0
173 -80 -121 0
-173 80 0
-173 121 0
174 -1097 168 0
174 1097 -168 0
-174 1097 168 0
-174 -1097 -168 0
-175 84 176 0
-175 176 178 0
175 -176 0
175 -84 -178 0
-176 177 125 0
-176 127 177 0
176 -177 0
176 -127 -125 0
177 -1096 -119 0
-177 1096 0
-177 119 0
178 -83 -125 0
-178 83 0
-178 125 0
179 -1096 167 0
179 1096 -167 0
-179 1096 167 0
-179 -1096 -167 0
-180 76 181 0
-180 181 183 0
180 -181 0
180 -76 -183 0
-181 182 129 0
-181 131 182 0
181 -182 0
181 -131 -129 0
182 -1095 -118 0
-182 1095 0
-182 118 0
183 -87 -129 0
-183 87 0
-183 129 0
-184 185 186 0
184 -185 0
184 -186 0
185 -1094 -117 0
-185 1094 0
-185 117 0
186 -116 -187 0
-186 116 0
-186 187 0
187 -1094 117 0
187 1094 -117 0
-187 1094 117 0
-187 -1094 -117 0
188 -1094 165 0
188 1094 -165 0
-188 1094 165 0
-188 -1094 -165 0
189 -190 220 0
189 190 -220 0
-189 190 220 0
-189 -190 -220 0
190 -191 217 0
190 191 -217 0
-190 191 217 0
-190 -191 -217 0
191 169 -192 0
191 -169 192 0
-191 -169 -192 0
-191 169 192 0
192 -193 214 0
192 193 -214 0
-192 193 214 0
-192 -193 -214 0
193 194 -195 0
193 -194 195 0
-193 -194 -195 0
-193 194 195 0
194 -148 -153 0
-194 148 0
-194 153 0
195 196 -197 0
195 -196 197 0
-195 -196 -197 0
-195 196 197 0
196 -144 -147 0
-196 144 0
-196 147 0
197 198 -203 0
197 -198 203 0
-197 -198 -203 0
-197 198 203 0
198 199 -202 0
198 -199 202 0
-198 -199 -202 0
-198 199 202 0
199 200 -201 0
199 -200 201 0
-199 -200 -201 0
-199 200 201 0
200 -1093 -1109 0
-200 1093 0
-200 1109 0
201 -1094 -1108 0
-201 1094 0
-201 1108 0
202 -1095 -1107 0
-202 1095 0
-202 1107 0
203 -204 211 0
203 204 -211 0
-203 204 211 0
-203 -204 -211 0
204 205 -206 0
204 -205 206 0
-204 -205 -206 0
-204 205 206 0
205 -1093 -1094 -1107 -1108 0
-205 1108 0
-205 1093 0
-205 1107 0
-205 1094 0
206 207 -210 0
206 -207 210 0
-206 -207 -210 0
-206 207 210 0
207 208 -209 0
207 -208 209 0
-207 -208 -209 0
-207 208 209 0
208 -1096 -1106 0
-208 1096 0
-208 1106 0
209 -1097 -1105 0
-209 1097 0
-209 1105 0
210 -1098 -1104 0
-210 1098 0
-210 1104 0
-211 212 213 0
211 -212 0
211 -213 0
212 -1095 -1096 -1105 -1106 0
-212 1106 0
-212 1095 0
-212 1105 0
-212 1096 0
213 -1097 -1104 -149 0
-213 1097 0
-213 1104 0
-213 149 0
-214 215 216 0
214 -215 0
214 -216 0
215 -142 -143 0
-215 142 0
-215 143 0
216 -140 -143 0
-216 140 0
-216 143 0
-217 218 219 0
217 -218 0
217 -219 0
218 -138 -139 0
-218 138 0
-218 139 0
219 -120 -137 0
-219 120 0
-219 137 0
-220 105 221 0
-220 221 223 0
220 -221 0
220 -105 -223 0
-221 222 134 0
-221 157 222 0
221 -222 0
221 -157 -134 0
222 -135 -136 0
-222 135 0
-222 136 0
223 -89 -134 0
-223 89 0
-223 134 0
-224 225 0
224 -225 0
-225 226 0
225 -226 0
-226 1093 227 0
-226 -1093 -1110 -227 0
-226 1110 227 0
226 1093 -227 0
226 1110 -227 0
226 -1093 -1110 227 0
-227 1109 229 0
-227 1094 228 229 0
-227 -1094 -228 229 0
-227 1094 -1109 -228 -229 0
-227 -1094 -1109 228 -229 0
227 1109 -229 0
227 -1094 -228 -229 0
227 1094 228 -229 0
227 1094 -1109 -228 229 0
227 -1094 -1109 228 229 0
228 -1093 -163 0
-228 1093 0
-228 163 0
-229 1108 230 0
-229 -1108 252 253 0
-229 -1108 -252 -253 0
229 1108 -230 0
229 -1108 252 -253 0
229 -1108 -252 253 0
-230 1107 231 0
-230 -1107 247 248 0
-230 -1107 -247 -248 0
230 1107 -231 0
230 -1107 247 -248 0
230 -1107 -247 248 0
-231 1106 232 0
-231 -1106 243 244 0
-231 -1106 -243 -244 0
231 1106 -232 0
231 -1106 243 -244 0
231 -1106 -243 244 0
-232 1105 233 0
-232 -1105 239 240 0
-232 -1105 -239 -240 0
232 1105 -233 0
232 -1105 239 -240 0
232 -1105 -239 240 0
-233 1104 234 0
-233 -1104 235 236 0
-233 -1104 -235 -236 0
233 1104 -234 0
233 -1104 235 -236 0
233 -1104 -235 236 0
234 -1100 -1103 0
-234 1100 0
-234 1103 0
235 1099 -234 0
235 -1099 234 0
-235 -1099 -234 0
-235 1099 234 0
-236 237 238 0
236 -237 0
236 -238 0
237 -1098 -169 0
-237 1098 0
-237 169 0
238 -170 -171 0
-238 170 0
-238 171 0
239 -1098 233 0
239 1098 -233 0
-239 1098 233 0
-239 -1098 -233 0
-240 241 242 0
240 -241 0
240 -242 0
241 -1097 -168 0
-241 1097 0
-241 168 0
242 -174 -175 0
-242 174 0
-242 175 0
243 -1097 232 0
243 1097 -232 0
-243 1097 232 0
-243 -1097 -232 0
-244 245 246 0
244 -245 0
244 -246 0
245 -1096 -167 0
-245 1096 0
-245 167 0
246 -179 -180 0
-246 179 0
-246 180 0
247 -1096 231 0
247 1096 -231 0
-247 1096 231 0
-247 -1096 -231 0
-248 249 250 0
248 -249 0
248 -250 0
249 -1095 -166 0
-249 1095 0
-249 166 0
250 -251 -184 0
-250 251 0
-250 184 0
251 -1095 166 0
251 1095 -166 0
-251 1095 166 0
-251 -1095 -166 0
252 -1095 230 0
252 1095 -230 0
-252 1095 230 0
-252 -1095 -230 0
-253 254 255 0
253 -254 0
253 -255 0
254 -1094 -165 0
-254 1094 0
-254 165 0
255 -164 -188 0
-255 164 0
-255 188 0
256 -257 293 0
256 257 -293 0
-256 257 293 0
-256 -257 -293 0
257 -258 290 0
257 258 -290 0
-257 258 290 0
-257 -258 -290 0
258 234 -259 0
258 -234 259 0
-258 -234 -259 0
-258 234 259 0
259 -260 287 0
259 260 -287 0
-259 260 287 0
-259 -260 -287 0
260 -261 284 0
260 261 -284 0
-260 261 284 0
-260 -261 -284 0
261 262 -263 0
261 -262 263 0
-261 -262 -263 0
-261 262 263 0
262 -198 -203 0
-262 198 0
-262 203 0
263 264 -271 0
263 -264 271 0
-263 -264 -271 0
-263 264 271 0
264 265 -266 0
264 -265 266 0
-264 -265 -266 0
-264 265 266 0
265 -1093 -1110 0
-265 1093 0
-265 1110 0
266 267 -270 0
266 -267 270 0
-266 -267 -270 0
-266 267 270 0
267 268 -269 0
267 -268 269 0
-267 -268 -269 0
-267 268 269 0
268 -1094 -1109 0
-268 1094 0
-268 1109 0
269 -1095 -1108 0
-269 1095 0
-269 1108 0
270 -1096 -1107 0
-270 1096 0
-270 1107 0
271 -272 281 0
271 272 -281 0
-271 272 281 0
-271 -272 -281 0
272 273 -276 0
272 -273 276 0
-272 -273 -276 0
-272 273 276 0
-273 274 275 0
273 -274 0
273 -275 0
274 -1093 -1094 -1108 -1109 0
-274 1109 0
-274 1093 0
-274 1108 0
-274 1094 0
275 -1095 -1107 -199 0
-275 1095 0
-275 1107 0
-275 199 0
276 277 -280 0
276 -277 280 0
-276 -277 -280 0
-276 277 280 0
277 278 -279 0
277 -278 279 0
-277 -278 -279 0
-277 278 279 0
278 -1097 -1106 0
-278 1097 0
-278 1106 0
279 -1098 -1105 0
-279 1098 0
-279 1105 0
280 -1099 -1104 0
-280 1099 0
-280 1104 0
-281 282 283 0
281 -282 0
281 -283 0
282 -1096 -1097 -1105 -1106 0
-282 1106 0
-282 1096 0
-282 1105 0
-282 1097 0
283 -1098 -1104 -207 0
-283 1098 0
-283 1104 0
-283 207 0
-284 285 286 0
284 -285 0
284 -286 0
285 -205 -206 0
-285 205 0
-285 206 0
286 -204 -211 0
-286 204 0
-286 211 0
-287 288 289 0
287 -288 0
287 -289 0
288 -196 -197 0
-288 196 0
-288 197 0
289 -194 -195 0
-289 194 0
-289 195 0
-290 291 292 0
290 -291 0
290 -292 0
291 -193 -214 0
-291 193 0
-291 214 0
292 -169 -192 0
-292 169 0
-292 192 0
-293 294 295 0
293 -294 0
293 -295 0
294 -191 -217 0
-294 191 0
-294 217 0
295 -190 -220 0
-295 190 0
-295 220 0
-296 297 335 381 424 0
-296 -297 -335 -381 -424 0
-296 297 335 -381 -424 0
-296 -297 -335 381 424 0
296 297 -335 0
296 -297 335 0
296 -381 424 0
296 381 -424 0
-297 298 0
297 -298 0
-298 1093 299 0
-298 -1093 -1111 -299 0
-298 1111 299 0
298 1093 -299 0
298 1111 -299 0
298 -1093 -1111 299 0
-299 1110 301 0
-299 -1110 -300 -334 0
-299 -1110 300 334 0
299 1110 -301 0
299 -1110 -300 334 0
299 -1110 300 -334 0
300 -1093 -227 0
-300 1093 0
-300 227 0
-301 1109 302 0
-301 -1095 302 -330 0
-301 1095 302 330 0
-301 -1095 -1109 -302 330 0
-301 1095 -1109 -302 -330 0
301 1109 -302 0
301 1095 -1109 302 -330 0
301 1095 -302 330 0
301 -1095 -302 -330 0
301 -1095 -1109 302 330 0
-302 1108 303 0
-302 -1096 303 -327 0
-302 1096 303 327 0
-302 -1096 -1108 -303 327 0
-302 1096 -1108 -303 -327 0
302 1108 -303 0
302 1096 -1108 303 -327 0
302 1096 -303 327 0
302 -1096 -303 -327 0
302 -1096 -1108 303 327 0
-303 1107 304 0
-303 -1097 304 -324 0
-303 1097 304 324 0
-303 -1097 -1107 -304 324 0
-303 1097 -1107 -304 -324 0
303 1107 -304 0
303 1097 -1107 304 -324 0
303 1097 -304 324 0
303 -1097 -304 -324 0
303 -1097 -1107 304 324 0
-304 1106 305 0
-304 -1098 305 -319 0
-304 1098 305 319 0
-304 -1098 -1106 -305 319 0
-304 1098 -1106 -305 -319 0
304 1106 -305 0
304 1098 -1106 305 -319 0
304 1098 -305 319 0
304 -1098 -305 -319 0
304 -1098 -1106 305 319 0
-305 1105 306 0
-305 -1105 313 314 0
-305 -1105 -313 -314 0
305 1105 -306 0
305 -1105 313 -314 0
305 -1105 -313 314 0
-306 1104 307 0
-306 -1104 308 309 0
-306 -1104 -308 -309 0
306 1104 -307 0
306 -1104 308 -309 0
306 -1104 -308 309 0
307 -1101 -1103 0
-307 1101 0
-307 1103 0
308 1100 -307 0
308 -1100 307 0
-308 -1100 -307 0
-308 1100 307 0
-309 173 311 0
-309 310 311 0
-309 81 311 0
309 -311 0
309 -81 -173 -310 0
310 -170 -235 0
-310 170 0
-310 235 0
-311 172 312 0
-311 312 310 0
311 -312 0
311 -172 -310 0
-312 1103 0
-312 1099 0
-312 1098 1100 0
312 -1098 -1099 -1103 0
312 -1099 -1100 -1103 0
313 -1099 306 0
313 1099 -306 0
-313 1099 306 0
-313 -1099 -306 0
-314 178 316 0
-314 315 316 0
-314 84 316 0
314 -316 0
314 -84 -178 -315 0
315 -174 -239 0
-315 174 0
-315 239 0
-316 176 317 318 0
-316 317 318 315 0
316 -318 0
316 -317 0
316 -176 -315 0
317 -1098 -233 0
-317 1098 0
-317 233 0
318 -241 -239 0
-318 241 0
-318 239 0
-319 183 321 0
-319 76 321 0
-319 320 321 0
319 -321 0
319 -76 -183 -320 0
320 -179 -243 0
-320 179 0
-320 243 0
-321 245 322 323 0
-321 322 243 323 0
321 -323 0
321 -322 0
321 -245 -243 0
322 -1097 -232 0
-322 1097 0
-322 232 0
323 -181 -320 0
-323 181 0
-323 320 0
-324 251 325 0
-324 184 325 0
-324 247 325 0
324 -325 0
324 -251 -184 -247 0
-325 326 247 0
-325 249 326 0
325 -326 0
325 -249 -247 0
326 -1096 -231 0
-326 1096 0
-326 231 0
-327 188 328 0
-327 164 328 0
-327 252 328 0
327 -328 0
327 -164 -188 -252 0
-328 329 252 0
-328 254 329 0
328 -329 0
328 -254 -252 0
329 -1095 -230 0
-329 1095 0
-329 230 0
-330 331 332 0
330 -331 0
330 -332 0
331 -1094 -229 0
-331 1094 0
-331 229 0
332 -228 -333 0
-332 228 0
-332 333 0
333 -1094 229 0
333 1094 -229 0
-333 1094 229 0
-333 -1094 -229 0
334 -1094 301 0
334 1094 -301 0
-334 1094 301 0
-334 -1094 -301 0
335 -336 376 0
335 336 -376 0
-335 336 376 0
-335 -336 -376 0
336 -337 373 0
336 337 -373 0
-336 337 373 0
-336 -337 -373 0
337 307 -338 0
337 -307 338 0
-337 -307 -338 0
-337 307 338 0
338 -339 370 0
338 339 -370 0
-338 339 370 0
-338 -339 -370 0
339 -340 367 0
339 340 -367 0
-339 340 367 0
-339 -340 -367 0
340 341 -342 0
340 -341 342 0
-340 -341 -342 0
-340 341 342 0
341 -264 -271 0
-341 264 0
-341 271 0
342 343 -354 0
342 -343 354 0
-342 -343 -354 0
-342 343 354 0
343 344 -345 0
343 -344 345 0
-343 -344 -345 0
-343 344 345 0
344 -1093 -1110 -266 0
-344 1093 0
-344 1110 0
-344 266 0
345 346 -349 0
345 -346 349 0
-345 -346 -349 0
-345 346 349 0
346 347 -348 0
346 -347 348 0
-346 -347 -348 0
-346 347 348 0
347 -1093 -1111 0
-347 1093 0
-347 1111 0
348 -1094 -1110 0
-348 1094 0
-348 1110 0
349 350 -353 0
349 -350 353 0
-349 -350 -353 0
-349 350 353 0
350 351 -352 0
350 -351 352 0
-350 -351 -352 0
-350 351 352 0
351 -1095 -1109 0
-351 1095 0
-351 1109 0
352 -1096 -1108 0
-352 1096 0
-352 1108 0
353 -1097 -1107 0
-353 1097 0
-353 1107 0
354 -355 364 0
354 355 -364 0
-354 355 364 0
-354 -355 -364 0
355 356 -359 0
355 -356 359 0
-355 -356 -359 0
-355 356 359 0
-356 357 358 0
356 -357 0
356 -358 0
357 -1094 -1095 -1108 -1109 0
-357 1109 0
-357 1094 0
-357 1108 0
-357 1095 0
358 -1096 -1107 -267 0
-358 1096 0
-358 1107 0
-358 267 0
359 360 -363 0
359 -360 363 0
-359 -360 -363 0
-359 360 363 0
360 361 -362 0
360 -361 362 0
-360 -361 -362 0
-360 361 362 0
361 -1098 -1106 0
-361 1098 0
-361 1106 0
362 -1099 -1105 0
-362 1099 0
-362 1105 0
363 -1100 -1104 0
-363 1100 0
-363 1104 0
-364 365 366 0
364 -365 0
364 -366 0
365 -1097 -1098 -1105 -1106 0
-365 1106 0
-365 1097 0
-365 1105 0
-365 1098 0
366 -1099 -1104 -277 0
-366 1099 0
-366 1104 0
-366 277 0
-367 368 369 0
367 -368 0
367 -369 0
368 -273 -276 0
-368 273 0
-368 276 0
369 -272 -281 0
-369 272 0
-369 281 0
-370 371 372 0
370 -371 0
370 -372 0
371 -262 -263 0
-371 262 0
-371 263 0
372 -261 -284 0
-372 261 0
-372 284 0
-373 374 375 0
373 -374 0
373 -375 0
374 -260 -287 0
-374 260 0
-374 287 0
375 -234 -259 0
-375 234 0
-375 259 0
-376 223 378 0
-376 377 378 0
-376 105 378 0
376 -378 0
376 -105 -223 -377 0
377 -190 -257 0
-377 190 0
-377 257 0
-378 294 379 380 0
-378 379 257 380 0
378 -380 0
378 -379 0
378 -294 -257 0
379 -258 -290 0
-379 258 0
-379 290 0
380 -221 -377 0
-380 221 0
-380 377 0
-381 1093 382 0
-381 -1093 -1112 -382 0
-381 1112 382 0
381 1093 -382 0
381 1112 -382 0
381 -1093 -1112 382 0
-382 1111 384 0
-382 1094 383 384 0
-382 -1094 -383 384 0
-382 1094 -1111 -383 -384 0
-382 -1094 -1111 383 -384 0
382 1111 -384 0
382 -1094 -383 -384 0
382 1094 383 -384 0
382 1094 -1111 -383 384 0
382 -1094 -1111 383 384 0
383 -1093 -299 0
-383 1093 0
-383 299 0
-384 1110 385 0
-384 -1110 420 421 0
-384 -1110 -420 -421 0
384 1110 -385 0
384 -1110 420 -421 0
384 -1110 -420 421 0
-385 1109 386 0
-385 -1109 415 416 0
-385 -1109 -415 -416 0
385 1109 -386 0
385 -1109 415 -416 0
385 -1109 -415 416 0
-386 1108 387 0
-386 -1108 410 411 0
-386 -1108 -410 -411 0
386 1108 -387 0
386 -1108 410 -411 0
386 -1108 -410 411 0
-387 1107 388 0
-387 -1107 405 406 0
-387 -1107 -405 -406 0
387 1107 -388 0
387 -1107 405 -406 0
387 -1107 -405 406 0
-388 1106 389 0
-388 -1106 400 401 0
-388 -1106 -400 -401 0
388 1106 -389 0
388 -1106 400 -401 0
388 -1106 -400 401 0
-389 1105 390 0
-389 -1105 396 397 0
-389 -1105 -396 -397 0
389 1105 -390 0
389 -1105 396 -397 0
389 -1105 -396 397 0
-390 1104 391 0
-390 -1104 392 393 0
-390 -1104 -392 -393 0
390 1104 -391 0
390 -1104 392 -393 0
390 -1104 -392 393 0
391 -1102 -1103 0
-391 1102 0
-391 1103 0
392 1101 -391 0
392 -1101 391 0
-392 -1101 -391 0
-392 1101 391 0
-393 394 395 0
393 -394 0
393 -395 0
394 -1100 -307 0
-394 1100 0
-394 307 0
395 -308 -309 0
-395 308 0
-395 309 0
396 -1100 390 0
396 1100 -390 0
-396 1100 390 0
-396 -1100 -390 0
-397 398 399 0
397 -398 0
397 -399 0
398 -1099 -306 0
-398 1099 0
-398 306 0
399 -313 -314 0
-399 313 0
-399 314 0
400 -1099 389 0
400 1099 -389 0
-400 1099 389 0
-400 -1099 -389 0
-401 402 403 0
401 -402 0
401 -403 0
402 -1098 -305 0
-402 1098 0
-402 305 0
403 -404 -319 0
-403 404 0
-403 319 0
404 -1098 305 0
404 1098 -305 0
-404 1098 305 0
-404 -1098 -305 0
405 -1098 388 0
405 1098 -388 0
-405 1098 388 0
-405 -1098 -388 0
-406 407 408 0
406 -407 0
406 -408 0
407 -1097 -304 0
-407 1097 0
-407 304 0
408 -409 -324 0
-408 409 0
-408 324 0
409 -1097 304 0
409 1097 -304 0
-409 1097 304 0
-409 -1097 -304 0
410 -1097 387 0
410 1097 -387 0
-410 1097 387 0
-410 -1097 -387 0
-411 412 413 0
411 -412 0
411 -413 0
412 -1096 -303 0
-412 1096 0
-412 303 0
413 -414 -327 0
-413 414 0
-413 327 0
414 -1096 303 0
414 1096 -303 0
-414 1096 303 0
-414 -1096 -303 0
415 -1096 386 0
415 1096 -386 0
-415 1096 386 0
-415 -1096 -386 0
-416 417 418 0
416 -417 0
416 -418 0
417 -1095 -302 0
-417 1095 0
-417 302 0
418 -419 -330 0
-418 419 0
-418 330 0
419 -1095 302 0
419 1095 -302 0
-419 1095 302 0
-419 -1095 -302 0
420 -1095 385 0
420 1095 -385 0
-420 1095 385 0
-420 -1095 -385 0
-421 422 423 0
421 -422 0
421 -423 0
422 -1094 -301 0
-422 1094 0
-422 301 0
423 -300 -334 0
-423 300 0
-423 334 0
424 -425 471 0
424 425 -471 0
-424 425 471 0
-424 -425 -471 0
425 -426 468 0
425 426 -468 0
-425 426 468 0
-425 -426 -468 0
426 391 -427 0
426 -391 427 0
-426 -391 -427 0
-426 391 427 0
427 -428 465 0
427 428 -465 0
-427 428 465 0
-427 -428 -465 0
428 -429 462 0
428 429 -462 0
-428 429 462 0
-428 -429 -462 0
429 -430 459 0
429 430 -459 0
-429 430 459 0
-429 -430 -459 0
430 431 -446 0
430 -431 446 0
-430 -431 -446 0
-430 431 446 0
431 432 -433 0
431 -432 433 0
-431 -432 -433 0
-431 432 433 0
432 -346 -349 0
-432 346 0
-432 349 0
433 434 -441 0
433 -434 441 0
-433 -434 -441 0
-433 434 441 0
434 435 -436 0
434 -435 436 0
-434 -435 -436 0
-434 435 436 0
435 -1093 -1094 -1110 -1111 0
-435 1111 0
-435 1093 0
-435 1110 0
-435 1094 0
436 437 -440 0
436 -437 440 0
-436 -437 -440 0
-436 437 440 0
437 438 -439 0
437 -438 439 0
-437 -438 -439 0
-437 438 439 0
438 -1093 -1112 0
-438 1093 0
-438 1112 0
439 -1094 -1111 0
-439 1094 0
-439 1111 0
440 -1095 -1110 0
-440 1095 0
-440 1110 0
441 442 -445 0
441 -442 445 0
-441 -442 -445 0
-441 442 445 0
442 443 -444 0
442 -443 444 0
-442 -443 -444 0
-442 443 444 0
443 -1096 -1109 0
-443 1096 0
-443 1109 0
444 -1097 -1108 0
-444 1097 0
-444 1108 0
445 -1098 -1107 0
-445 1098 0
-445 1107 0
446 -447 456 0
446 447 -456 0
-446 447 456 0
-446 -447 -456 0
447 448 -451 0
447 -448 451 0
-447 -448 -451 0
-447 448 451 0
-448 449 450 0
448 -449 0
448 -450 0
449 -1095 -1096 -1108 -1109 0
-449 1109 0
-449 1095 0
-449 1108 0
-449 1096 0
450 -1097 -1107 -350 0
-450 1097 0
-450 1107 0
-450 350 0
451 452 -455 0
451 -452 455 0
-451 -452 -455 0
-451 452 455 0
452 453 -454 0
452 -453 454 0
-452 -453 -454 0
-452 453 454 0
453 -1099 -1106 0
-453 1099 0
-453 1106 0
454 -1100 -1105 0
-454 1100 0
-454 1105 0
455 -1101 -1104 0
-455 1101 0
-455 1104 0
-456 457 458 0
456 -457 0
456 -458 0
457 -1098 -1099 -1105 -1106 0
-457 1106 0
-457 1098 0
-457 1105 0
-457 1099 0
458 -1100 -1104 -360 0
-458 1100 0
-458 1104 0
-458 360 0
-459 460 461 0
459 -460 0
459 -461 0
460 -344 -345 0
-460 344 0
-460 345 0
461 -343 -354 0
-461 343 0
-461 354 0
-462 463 464 0
462 -463 0
462 -464 0
463 -356 -359 0
-463 356 0
-463 359 0
464 -355 -364 0
-464 355 0
-464 364 0
-465 466 467 0
465 -466 0
465 -467 0
466 -341 -342 0
-466 341 0
-466 342 0
467 -340 -367 0
-467 340 0
-467 367 0
-468 469 470 0
468 -469 0
468 -470 0
469 -339 -370 0
-469 339 0
-469 370 0
470 -307 -338 0
-470 307 0
-470 338 0
-471 472 473 0
471 -472 0
471 -473 0
472 -337 -373 0
-472 337 0
-472 373 0
473 -336 -376 0
-473 336 0
-473 376 0
-474 475 -669 -712 760 0
-474 475 669 712 760 0
474 -760 0
474 669 -712 0
474 -475 0
474 -669 712 0
-475 476 516 570 620 0
-475 -476 -516 -570 -620 0
-475 476 516 -570 -620 0
-475 -476 -516 570 620 0
475 476 -516 0
475 -476 516 0
475 -570 620 0
475 570 -620 0
-476 1112 478 0
-476 1094 477 478 0
-476 -1094 -477 478 0
-476 1094 -1112 -477 -478 0
-476 -1094 -1112 477 -478 0
476 1112 -478 0
476 -1094 -477 -478 0
476 1094 477 -478 0
476 1094 -1112 -477 478 0
476 -1094 -1112 477 478 0
477 -1093 -382 0
-477 1093 0
-477 382 0
-478 1111 479 0
-478 -1095 479 -512 0
-478 1095 479 512 0
-478 -1095 -1111 -479 512 0
-478 1095 -1111 -479 -512 0
478 1111 -479 0
478 1095 -1111 479 -512 0
478 1095 -479 512 0
478 -1095 -479 -512 0
478 -1095 -1111 479 512 0
-479 1110 480 0
-479 -1096 480 -508 0
-479 1096 480 508 0
-479 -1096 -1110 -480 508 0
-479 1096 -1110 -480 -508 0
479 1110 -480 0
479 1096 -1110 480 -508 0
479 1096 -480 508 0
479 -1096 -480 -508 0
479 -1096 -1110 480 508 0
-480 1109 481 0
-480 -1097 481 -505 0
-480 1097 481 505 0
-480 -1097 -1109 -481 505 0
-480 1097 -1109 -481 -505 0
480 1109 -481 0
480 1097 -1109 481 -505 0
480 1097 -481 505 0
480 -1097 -481 -505 0
480 -1097 -1109 481 505 0
-481 1108 482 0
-481 -1098 482 -501 0
-481 1098 482 501 0
-481 -1098 -1108 -482 501 0
-481 1098 -1108 -482 -501 0
481 1108 -482 0
481 1098 -1108 482 -501 0
481 1098 -482 501 0
481 -1098 -482 -501 0
481 -1098 -1108 482 501 0
-482 1107 483 0
-482 -1099 483 -497 0
-482 1099 483 497 0
-482 -1099 -1107 -483 497 0
-482 1099 -1107 -483 -497 0
482 1107 -483 0
482 1099 -1107 483 -497 0
482 1099 -483 497 0
482 -1099 -483 -497 0
482 -1099 -1107 483 497 0
-483 1106 484 0
-483 -1100 484 -493 0
-483 1100 484 493 0
-483 -1100 -1106 -484 493 0
-483 1100 -1106 -484 -493 0
483 1106 -484 0
483 1100 -1106 484 -493 0
483 1100 -484 493 0
483 -1100 -484 -493 0
483 -1100 -1106 484 493 0
-484 1105 485 0
-484 -1105 488 489 0
-484 -1105 -488 -489 0
484 1105 -485 0
484 -1105 488 -489 0
484 -1105 -488 489 0
485 1102 -1104 -486 0
485 -1102 -1104 486 0
-485 1104 0
-485 -1102 -486 0
-485 1102 486 0
-486 308 487 0
-486 309 487 0
-486 392 487 0
486 -487 0
486 -308 -309 -392 0
-487 1103 0
-487 1101 0
-487 1100 1102 0
487 -1100 -1101 -1103 0
487 -1101 -1102 -1103 0
488 1101 -485 0
488 -1101 485 0
-488 -1101 -485 0
-488 1101 485 0
-489 314 490 0
-489 490 492 0
489 -490 0
489 -314 -492 0
-490 491 396 0
-490 398 491 0
490 -491 0
490 -398 -396 0
491 -1100 -390 0
-491 1100 0
-491 390 0
492 -313 -396 0
-492 313 0
-492 396 0
-493 319 494 0
-493 494 496 0
493 -494 0
493 -319 -496 0
-494 495 400 0
-494 402 495 0
494 -495 0
494 -402 -400 0
495 -1099 -389 0
-495 1099 0
-495 389 0
496 -404 -400 0
-496 404 0
-496 400 0
-497 324 498 0
-497 498 500 0
497 -498 0
497 -324 -500 0
-498 499 405 0
-498 407 499 0
498 -499 0
498 -407 -405 0
499 -1098 -388 0
-499 1098 0
-499 388 0
500 -409 -405 0
-500 409 0
-500 405 0
-501 327 502 0
-501 502 504 0
501 -502 0
501 -327 -504 0
-502 503 410 0
-502 412 503 0
502 -503 0
502 -412 -410 0
503 -1097 -387 0
-503 1097 0
-503 387 0
504 -414 -410 0
-504 414 0
-504 410 0
-505 330 506 0
-505 506 507 0
505 -506 0
505 -330 -507 0
-506 417 386 0
-506 1096 417 0
-506 1096 386 0
506 -1096 -417 0
506 -417 -386 0
506 -1096 -386 0
507 -419 -415 0
-507 419 0
-507 415 0
-508 300 509 0
-508 509 511 0
508 -509 0
508 -300 -511 0
-509 510 420 0
-509 422 510 0
509 -510 0
509 -422 -420 0
510 -1095 -385 0
-510 1095 0
-510 385 0
511 -334 -420 0
-511 334 0
-511 420 0
-512 513 514 0
512 -513 0
512 -514 0
513 -1094 -384 0
-513 1094 0
-513 384 0
514 -383 -515 0
-514 383 0
-514 515 0
515 -1094 384 0
515 1094 -384 0
-515 1094 384 0
-515 -1094 -384 0
516 -517 566 0
516 517 -566 0
-516 517 566 0
-516 -517 -566 0
517 -518 563 0
517 518 -563 0
-517 518 563 0
-517 -518 -563 0
518 -519 560 0
518 519 -560 0
-518 519 560 0
-518 -519 -560 0
519 -520 557 0
519 520 -557 0
-519 520 557 0
-519 -520 -557 0
520 -521 554 0
520 521 -554 0
-520 521 554 0
-520 -521 -554 0
521 522 -541 0
521 -522 541 0
-521 -522 -541 0
-521 522 541 0
522 -523 538 0
522 523 -538 0
-522 523 538 0
-522 -523 -538 0
523 524 -533 0
523 -524 533 0
-523 -524 -533 0
-523 524 533 0
524 -525 530 0
524 525 -530 0
-524 525 530 0
-524 -525 -530 0
525 526 -529 0
525 -526 529 0
-525 -526 -529 0
-525 526 529 0
526 527 -528 0
526 -527 528 0
-526 -527 -528 0
-526 527 528 0
527 -1094 -1112 0
-527 1094 0
-527 1112 0
528 -1095 -1111 0
-528 1095 0
-528 1111 0
529 -1096 -1110 0
-529 1096 0
-529 1110 0
-530 531 532 0
530 -531 0
530 -532 0
531 -1093 -1094 -1111 -1112 0
-531 1112 0
-531 1093 0
-531 1111 0
-531 1094 0
532 -1095 -1110 -437 0
-532 1095 0
-532 1110 0
-532 437 0
533 534 -537 0
533 -534 537 0
-533 -534 -537 0
-533 534 537 0
534 535 -536 0
534 -535 536 0
-534 -535 -536 0
-534 535 536 0
535 -1097 -1109 0
-535 1097 0
-535 1109 0
536 -1098 -1108 0
-536 1098 0
-536 1108 0
537 -1099 -1107 0
-537 1099 0
-537 1107 0
-538 539 540 0
538 -539 0
538 -540 0
539 -435 -436 0
-539 435 0
-539 436 0
540 -434 -441 0
-540 434 0
-540 441 0
541 -542 551 0
541 542 -551 0
-541 542 551 0
-541 -542 -551 0
542 543 -546 0
542 -543 546 0
-542 -543 -546 0
-542 543 546 0
-543 544 545 0
543 -544 0
543 -545 0
544 -1096 -1097 -1108 -1109 0
-544 1109 0
-544 1096 0
-544 1108 0
-544 1097 0
545 -1098 -1107 -442 0
-545 1098 0
-545 1107 0
-545 442 0
546 547 -550 0
546 -547 550 0
-546 -547 -550 0
-546 547 550 0
547 548 -549 0
547 -548 549 0
-547 -548 -549 0
-547 548 549 0
548 -1100 -1106 0
-548 1100 0
-548 1106 0
549 -1101 -1105 0
-549 1101 0
-549 1105 0
550 -1102 -1104 0
-550 1102 0
-550 1104 0
-551 552 553 0
551 -552 0
551 -553 0
552 -1099 -1100 -1105 -1106 0
-552 1106 0
-552 1099 0
-552 1105 0
-552 1100 0
553 -1101 -1104 -452 0
-553 1101 0
-553 1104 0
-553 452 0
-554 555 556 0
554 -555 0
554 -556 0
555 -432 -433 0
-555 432 0
-555 433 0
556 -431 -446 0
-556 431 0
-556 446 0
-557 558 559 0
557 -558 0
557 -559 0
558 -448 -451 0
-558 448 0
-558 451 0
559 -447 -456 0
-559 447 0
-559 456 0
-560 561 562 0
560 -561 0
560 -562 0
561 -430 -459 0
-561 430 0
-561 459 0
562 -429 -462 0
-562 429 0
-562 462 0
-563 564 565 0
563 -564 0
563 -565 0
564 -428 -465 0
-564 428 0
-564 465 0
565 -391 -427 0
-565 391 0
-565 427 0
-566 376 567 0
-566 567 569 0
566 -567 0
566 -376 -569 0
-567 568 425 0
-567 472 568 0
567 -568 0
567 -472 -425 0
568 -426 -468 0
-568 426 0
-568 468 0
569 -336 -425 0
-569 336 0
-569 425 0
-570 1112 571 0
-570 -1112 615 616 0
-570 -1112 -615 -616 0
570 1112 -571 0
570 -1112 615 -616 0
570 -1112 -615 616 0
-571 1111 572 0
-571 -1111 610 611 0
-571 -1111 -610 -611 0
571 1111 -572 0
571 -1111 610 -611 0
571 -1111 -610 611 0
-572 1110 573 0
-572 -1110 605 606 0
-572 -1110 -605 -606 0
572 1110 -573 0
572 -1110 605 -606 0
572 -1110 -605 606 0
-573 1109 574 0
-573 -1109 600 601 0
-573 -1109 -600 -601 0
573 1109 -574 0
573 -1109 600 -601 0
573 -1109 -600 601 0
-574 1108 575 0
-574 -1108 595 596 0
-574 -1108 -595 -596 0
574 1108 -575 0
574 -1108 595 -596 0
574 -1108 -595 596 0
-575 1107 576 0
-575 -1107 590 591 0
-575 -1107 -590 -591 0
575 1107 -576 0
575 -1107 590 -591 0
575 -1107 -590 591 0
-576 1106 577 0
-576 -1106 585 586 0
-576 -1106 -585 -586 0
576 1106 -577 0
576 -1106 585 -586 0
576 -1106 -585 586 0
-577 1105 578 0
-577 -1105 580 582 0
-577 -1105 -580 -582 0
577 1105 -578 0
577 -1105 580 -582 0
577 -1105 -580 582 0
578 -1104 -579 0
-578 1104 0
-578 579 0
579 -1102 -486 0
-579 1102 0
-579 486 0
580 -1102 581 0
-580 1102 0
-580 -581 0
581 -1102 -578 0
-581 1102 0
-581 578 0
-582 583 584 0
582 -583 0
582 -584 0
583 -1101 -485 0
-583 1101 0
-583 485 0
584 -488 -489 0
-584 488 0
-584 489 0
585 -1101 577 0
585 1101 -577 0
-585 1101 577 0
-585 -1101 -577 0
-586 587 588 0
586 -587 0
586 -588 0
587 -1100 -484 0
-587 1100 0
-587 484 0
588 -589 -493 0
-588 589 0
-588 493 0
589 -1100 484 0
589 1100 -484 0
-589 1100 484 0
-589 -1100 -484 0
590 -1100 576 0
590 1100 -576 0
-590 1100 576 0
-590 -1100 -576 0
-591 592 593 0
591 -592 0
591 -593 0
592 -1099 -483 0
-592 1099 0
-592 483 0
593 -594 -497 0
-593 594 0
-593 497 0
594 -1099 483 0
594 1099 -483 0
-594 1099 483 0
-594 -1099 -483 0
595 -1099 575 0
595 1099 -575 0
-595 1099 575 0
-595 -1099 -575 0
-596 597 598 0
596 -597 0
596 -598 0
597 -1098 -482 0
-597 1098 0
-597 482 0
598 -599 -501 0
-598 599 0
-598 501 0
599 -1098 482 0
599 1098 -482 0
-599 1098 482 0
-599 -1098 -482 0
600 -1098 574 0
600 1098 -574 0
-600 1098 574 0
-600 -1098 -574 0
-601 602 603 0
601 -602 0
601 -603 0
602 -1097 -481 0
-602 1097 0
-602 481 0
603 -604 -505 0
-603 604 0
-603 505 0
604 -1097 481 0
604 1097 -481 0
-604 1097 481 0
-604 -1097 -481 0
605 -1097 573 0
605 1097 -573 0
-605 1097 573 0
-605 -1097 -573 0
-606 607 608 0
606 -607 0
606 -608 0
607 -1096 -480 0
-607 1096 0
-607 480 0
608 -609 -508 0
-608 609 0
-608 508 0
609 -1096 480 0
609 1096 -480 0
-609 1096 480 0
-609 -1096 -480 0
610 -1096 572 0
610 1096 -572 0
-610 1096 572 0
-610 -1096 -572 0
-611 612 613 0
611 -612 0
611 -613 0
612 -1095 -479 0
-612 1095 0
-612 479 0
613 -614 -512 0
-613 614 0
-613 512 0
614 -1095 479 0
614 1095 -479 0
-614 1095 479 0
-614 -1095 -479 0
615 -1095 571 0
615 1095 -571 0
-615 1095 571 0
-615 -1095 -571 0
-616 617 618 0
616 -617 0
616 -618 0
617 -1094 -478 0
-617 1094 0
-617 478 0
618 -477 -619 0
-618 477 0
-618 619 0
619 -1094 478 0
619 1094 -478 0
-619 1094 478 0
-619 -1094 -478 0
620 -621 666 0
620 621 -666 0
-620 621 666 0
-620 -621 -666 0
621 622 -623 0
621 -622 623 0
-621 -622 -623 0
-621 622 623 0
622 -519 -560 0
-622 519 0
-622 560 0
623 -624 663 0
623 624 -663 0
-623 624 663 0
-623 -624 -663 0
624 -625 660 0
624 625 -660 0
-624 625 660 0
-624 -625 -660 0
625 -626 657 0
625 626 -657 0
-625 626 657 0
-625 -626 -657 0
626 627 -646 0
626 -627 646 0
-626 -627 -646 0
-626 627 646 0
627 -628 643 0
627 628 -643 0
-627 628 643 0
-627 -628 -643 0
628 629 -638 0
628 -629 638 0
-628 -629 -638 0
-628 629 638 0
629 -630 635 0
629 630 -635 0
-629 630 635 0
-629 -630 -635 0
630 631 -634 0
630 -631 634 0
-630 -631 -634 0
-630 631 634 0
631 632 -633 0
631 -632 633 0
-631 -632 -633 0
-631 632 633 0
632 -1095 -1112 0
-632 1095 0
-632 1112 0
633 -1096 -1111 0
-633 1096 0
-633 1111 0
634 -1097 -1110 0
-634 1097 0
-634 1110 0
-635 636 637 0
635 -636 0
635 -637 0
636 -1094 -1095 -1111 -1112 0
-636 1112 0
-636 1094 0
-636 1111 0
-636 1095 0
637 -1096 -1110 -526 0
-637 1096 0
-637 1110 0
-637 526 0
638 639 -642 0
638 -639 642 0
-638 -639 -642 0
-638 639 642 0
639 640 -641 0
639 -640 641 0
-639 -640 -641 0
-639 640 641 0
640 -1098 -1109 0
-640 1098 0
-640 1109 0
641 -1099 -1108 0
-641 1099 0
-641 1108 0
642 -1100 -1107 0
-642 1100 0
-642 1107 0
-643 644 645 0
643 -644 0
643 -645 0
644 -525 -530 0
-644 525 0
-644 530 0
645 -524 -533 0
-645 524 0
-645 533 0
646 -647 654 0
646 647 -654 0
-646 647 654 0
-646 -647 -654 0
647 648 -651 0
647 -648 651 0
-647 -648 -651 0
-647 648 651 0
-648 649 650 0
648 -649 0
648 -650 0
649 -1097 -1098 -1108 -1109 0
-649 1109 0
-649 1097 0
-649 1108 0
-649 1098 0
650 -1099 -1107 -534 0
-650 1099 0
-650 1107 0
-650 534 0
651 652 -653 0
651 -652 653 0
-651 -652 -653 0
-651 652 653 0
652 -1101 -1106 0
-652 1101 0
-652 1106 0
653 -1102 -1105 0
-653 1102 0
-653 1105 0
-654 655 656 0
654 -655 0
654 -656 0
655 -1100 -1101 -1105 -1106 0
-655 1106 0
-655 1100 0
-655 1105 0
-655 1101 0
656 -1102 -1104 -547 0
-656 1102 0
-656 1104 0
-656 547 0
-657 658 659 0
657 -658 0
657 -659 0
658 -523 -538 0
-658 523 0
-658 538 0
659 -522 -541 0
-659 522 0
-659 541 0
-660 661 662 0
660 -661 0
660 -662 0
661 -543 -546 0
-661 543 0
-661 546 0
662 -542 -551 0
-662 542 0
-662 551 0
-663 664 665 0
663 -664 0
663 -665 0
664 -521 -554 0
-664 521 0
-664 554 0
665 -520 -557 0
-665 520 0
-665 557 0
-666 667 668 0
666 -667 0
666 -668 0
667 -518 -563 0
-667 518 0
-667 563 0
668 -517 -566 0
-668 517 0
-668 566 0
-669 1112 670 0
-669 -1096 670 -710 0
-669 1096 670 710 0
-669 -1096 -1112 -670 710 0
-669 1096 -1112 -670 -710 0
669 1112 -670 0
669 1096 -1112 670 -710 0
669 1096 -670 710 0
669 -1096 -670 -710 0
669 -1096 -1112 670 710 0
-670 1111 671 0
-670 -1097 671 -708 0
-670 1097 671 708 0
-670 -1097 -1111 -671 708 0
-670 1097 -1111 -671 -708 0
670 1111 -671 0
670 1097 -1111 671 -708 0
670 1097 -671 708 0
670 -1097 -671 -708 0
670 -1097 -1111 671 708 0
-671 1110 672 0
-671 -1098 672 -702 0
-671 1098 672 702 0
-671 -1098 -1110 -672 702 0
-671 1098 -1110 -672 -702 0
671 1110 -672 0
671 1098 -1110 672 -702 0
671 1098 -672 702 0
671 -1098 -672 -702 0
671 -1098 -1110 672 702 0
-672 1109 673 0
-672 -1099 673 -696 0
-672 1099 673 696 0
-672 -1099 -1109 -673 696 0
-672 1099 -1109 -673 -696 0
672 1109 -673 0
672 1099 -1109 673 -696 0
672 1099 -673 696 0
672 -1099 -673 -696 0
672 -1099 -1109 673 696 0
-673 1108 674 0
-673 -1100 674 -691 0
-673 1100 674 691 0
-673 -1100 -1108 -674 691 0
-673 1100 -1108 -674 -691 0
673 1108 -674 0
673 1100 -1108 674 -691 0
673 1100 -674 691 0
673 -1100 -674 -691 0
673 -1100 -1108 674 691 0
-674 1107 675 0
-674 -1101 675 -686 0
-674 1101 675 686 0
-674 -1101 -1107 -675 686 0
-674 1101 -1107 -675 -686 0
674 1107 -675 0
674 1101 -1107 675 -686 0
674 1101 -675 686 0
674 -1101 -675 -686 0
674 -1101 -1107 675 686 0
-675 1106 676 0
-675 1102 -1106 -676 -681 0
-675 1102 676 681 0
-675 -1102 676 -681 0
-675 -1102 -1106 -676 681 0
675 1106 -676 0
675 -1102 -676 -681 0
675 1102 -676 681 0
675 -1102 -1106 676 681 0
675 1102 -1106 676 -681 0
676 -1105 -677 0
676 -1105 -314 -680 0
-676 1105 0
-676 314 677 0
-676 677 680 0
-677 490 581 678 0
-677 581 678 679 0
677 -678 0
677 -581 0
677 -490 -679 0
678 -583 -580 0
-678 583 0
-678 580 0
679 -488 -580 0
-679 488 0
-679 580 0
680 -492 -679 0
-680 492 0
-680 679 0
-681 496 683 0
-681 682 683 0
-681 319 683 0
681 -683 0
681 -319 -496 -682 0
682 -589 -585 0
-682 589 0
-682 585 0
-683 494 684 685 0
-683 684 685 682 0
683 -685 0
683 -684 0
683 -494 -682 0
684 -1101 -577 0
-684 1101 0
-684 577 0
685 -587 -585 0
-685 587 0
-685 585 0
-686 500 688 0
-686 687 688 0
-686 324 688 0
686 -688 0
686 -324 -500 -687 0
687 -594 -590 0
-687 594 0
-687 590 0
-688 498 689 690 0
-688 689 690 687 0
688 -690 0
688 -689 0
688 -498 -687 0
689 -1100 -576 0
-689 1100 0
-689 576 0
690 -592 -590 0
-690 592 0
-690 590 0
-691 504 693 0
-691 692 693 0
-691 327 693 0
691 -693 0
691 -327 -504 -692 0
692 -599 -595 0
-692 599 0
-692 595 0
-693 597 694 695 0
-693 694 595 695 0
693 -695 0
693 -694 0
693 -597 -595 0
694 -1099 -575 0
-694 1099 0
-694 575 0
695 -502 -692 0
-695 502 0
-695 692 0
-696 330 697 0
-696 697 701 0
696 -697 0
696 -330 -701 0
-697 602 698 699 0
-697 698 600 699 0
697 -699 0
697 -698 0
697 -602 -600 0
698 -1098 -574 0
-698 1098 0
-698 574 0
699 -506 -700 0
-699 506 0
-699 700 0
700 -604 -600 0
-700 604 0
-700 600 0
701 -507 -700 0
-701 507 0
-701 700 0
-702 300 703 0
-702 703 707 0
702 -703 0
702 -300 -707 0
-703 607 704 705 0
-703 704 605 705 0
703 -705 0
703 -704 0
703 -607 -605 0
704 -1097 -573 0
-704 1097 0
-704 573 0
705 -509 -706 0
-705 509 0
-705 706 0
706 -609 -605 0
-706 609 0
-706 605 0
707 -511 -706 0
-707 511 0
-707 706 0
-708 1096 612 709 0
-708 612 572 709 0
-708 1096 572 709 0
708 -1096 -612 0
708 -612 -572 0
708 -709 0
708 -1096 -572 0
709 -614 -512 -610 0
-709 614 0
-709 512 0
-709 610 0
-710 1095 617 711 0
-710 617 571 711 0
-710 1095 571 711 0
710 -1095 -617 0
710 -617 -571 0
710 -711 0
710 -1095 -571 0
711 -477 -619 -615 0
-711 477 0
-711 619 0
-711 615 0
712 -713 754 0
712 713 -754 0
-712 713 754 0
-712 -713 -754 0
713 714 -715 0
713 -714 715 0
-713 -714 -715 0
-713 714 715 0
714 -624 -663 0
-714 624 0
-714 663 0
715 -716 751 0
715 716 -751 0
-715 716 751 0
-715 -716 -751 0
716 -717 748 0
716 717 -748 0
-716 717 748 0
-716 -717 -748 0
717 -718 745 0
717 718 -745 0
-717 718 745 0
-717 -718 -745 0
718 719 -738 0
718 -719 738 0
-718 -719 -738 0
-718 719 738 0
719 -720 735 0
719 720 -735 0
-719 720 735 0
-719 -720 -735 0
720 721 -730 0
720 -721 730 0
-720 -721 -730 0
-720 721 730 0
721 -722 727 0
721 722 -727 0
-721 722 727 0
-721 -722 -727 0
722 723 -726 0
722 -723 726 0
-722 -723 -726 0
-722 723 726 0
723 724 -725 0
723 -724 725 0
-723 -724 -725 0
-723 724 725 0
724 -1096 -1112 0
-724 1096 0
-724 1112 0
725 -1097 -1111 0
-725 1097 0
-725 1111 0
726 -1098 -1110 0
-726 1098 0
-726 1110 0
-727 728 729 0
727 -728 0
727 -729 0
728 -1095 -1096 -1111 -1112 0
-728 1112 0
-728 1095 0
-728 1111 0
-728 1096 0
729 -1097 -1110 -631 0
-729 1097 0
-729 1110 0
-729 631 0
730 731 -734 0
730 -731 734 0
-730 -731 -734 0
-730 731 734 0
731 732 -733 0
731 -732 733 0
-731 -732 -733 0
-731 732 733 0
732 -1099 -1109 0
-732 1099 0
-732 1109 0
733 -1100 -1108 0
-733 1100 0
-733 1108 0
734 -1101 -1107 0
-734 1101 0
-734 1107 0
-735 736 737 0
735 -736 0
735 -737 0
736 -630 -635 0
-736 630 0
-736 635 0
737 -629 -638 0
-737 629 0
-737 638 0
738 739 -740 0
738 -739 740 0
-738 -739 -740 0
-738 739 740 0
739 -1101 -1102 -1105 -1106 0
-739 1106 0
-739 1101 0
-739 1105 0
-739 1102 0
740 741 -744 0
740 -741 744 0
-740 -741 -744 0
-740 741 744 0
-741 742 743 0
741 -742 0
741 -743 0
742 -1098 -1099 -1108 -1109 0
-742 1109 0
-742 1098 0
-742 1108 0
-742 1099 0
743 -1100 -1107 -639 0
-743 1100 0
-743 1107 0
-743 639 0
744 -1102 -1106 0
-744 1102 0
-744 1106 0
-745 746 747 0
745 -746 0
745 -747 0
746 -628 -643 0
-746 628 0
-746 643 0
747 -627 -646 0
-747 627 0
-747 646 0
-748 749 750 0
748 -749 0
748 -750 0
749 -648 -651 0
-749 648 0
-749 651 0
750 -647 -654 0
-750 647 0
-750 654 0
-751 752 753 0
751 -752 0
751 -753 0
752 -626 -657 0
-752 626 0
-752 657 0
753 -625 -660 0
-753 625 0
-753 660 0
-754 376 755 0
-754 755 759 0
754 -755 0
754 -376 -759 0
-755 667 756 757 0
-755 756 621 757 0
755 -757 0
755 -756 0
755 -667 -621 0
756 -622 -623 0
-756 622 0
-756 623 0
757 -567 -758 0
-757 567 0
-757 758 0
758 -517 -621 0
-758 517 0
-758 621 0
759 -569 -758 0
-759 569 0
-759 758 0
-760 761 801 842 868 0
-760 -761 -801 -842 -868 0
-760 761 801 -842 -868 0
-760 -761 -801 842 868 0
760 761 -801 0
760 -761 801 0
760 -842 868 0
760 842 -868 0
-761 1112 762 0
-761 -1112 796 797 0
-761 -1112 -796 -797 0
761 1112 -762 0
761 -1112 796 -797 0
761 -1112 -796 797 0
-762 1111 763 0
-762 -1111 791 792 0
-762 -1111 -791 -792 0
762 1111 -763 0
762 -1111 791 -792 0
762 -1111 -791 792 0
-763 1110 764 0
-763 -1110 786 787 0
-763 -1110 -786 -787 0
763 1110 -764 0
763 -1110 786 -787 0
763 -1110 -786 787 0
-764 1109 765 0
-764 -1109 781 782 0
-764 -1109 -781 -782 0
764 1109 -765 0
764 -1109 781 -782 0
764 -1109 -781 782 0
-765 1108 766 0
-765 -1108 776 777 0
-765 -1108 -776 -777 0
765 1108 -766 0
765 -1108 776 -777 0
765 -1108 -776 777 0
-766 1107 767 0
-766 -1107 771 772 0
-766 -1107 -771 -772 0
766 1107 -767 0
766 -1107 771 -772 0
766 -1107 -771 772 0
767 -1106 -768 0
767 -1106 -769 0
-767 1106 0
-767 768 769 0
768 -1102 -676 0
-768 1102 0
-768 676 0
769 -770 -681 0
-769 770 0
-769 681 0
770 1102 -676 0
770 -1102 676 0
-770 -1102 -676 0
-770 1102 676 0
771 1102 -767 0
771 -1102 767 0
-771 -1102 -767 0
-771 1102 767 0
-772 773 774 0
772 -773 0
772 -774 0
773 -1101 -675 0
-773 1101 0
-773 675 0
774 -775 -686 0
-774 775 0
-774 686 0
775 -1101 675 0
775 1101 -675 0
-775 1101 675 0
-775 -1101 -675 0
776 -1101 766 0
776 1101 -766 0
-776 1101 766 0
-776 -1101 -766 0
-777 778 779 0
777 -778 0
777 -779 0
778 -1100 -674 0
-778 1100 0
-778 674 0
779 -780 -691 0
-779 780 0
-779 691 0
780 -1100 674 0
780 1100 -674 0
-780 1100 674 0
-780 -1100 -674 0
781 -1100 765 0
781 1100 -765 0
-781 1100 765 0
-781 -1100 -765 0
-782 783 784 0
782 -783 0
782 -784 0
783 -1099 -673 0
-783 1099 0
-783 673 0
784 -785 -696 0
-784 785 0
-784 696 0
785 -1099 673 0
785 1099 -673 0
-785 1099 673 0
-785 -1099 -673 0
786 -1099 764 0
786 1099 -764 0
-786 1099 764 0
-786 -1099 -764 0
-787 788 789 0
787 -788 0
787 -789 0
788 -1098 -672 0
-788 1098 0
-788 672 0
789 -790 -702 0
-789 790 0
-789 702 0
790 -1098 672 0
790 1098 -672 0
-790 1098 672 0
-790 -1098 -672 0
791 -1098 763 0
791 1098 -763 0
-791 1098 763 0
-791 -1098 -763 0
-792 793 794 0
792 -793 0
792 -794 0
793 -1097 -671 0
-793 1097 0
-793 671 0
794 -795 -708 0
-794 795 0
-794 708 0
795 -1097 671 0
795 1097 -671 0
-795 1097 671 0
-795 -1097 -671 0
796 -1097 762 0
796 1097 -762 0
-796 1097 762 0
-796 -1097 -762 0
-797 798 799 0
797 -798 0
797 -799 0
798 -1096 -670 0
-798 1096 0
-798 670 0
799 -800 -710 0
-799 800 0
-799 710 0
800 -1096 670 0
800 1096 -670 0
-800 1096 670 0
-800 -1096 -670 0
801 -802 839 0
801 802 -839 0
-801 802 839 0
-801 -802 -839 0
802 803 -804 0
802 -803 804 0
-802 -803 -804 0
-802 803 804 0
803 -716 -751 0
-803 716 0
-803 751 0
804 -805 836 0
804 805 -836 0
-804 805 836 0
-804 -805 -836 0
805 -806 833 0
805 806 -833 0
-805 806 833 0
-805 -806 -833 0
806 -807 830 0
806 807 -830 0
-806 807 830 0
-806 -807 -830 0
807 -808 827 0
807 808 -827 0
-807 808 827 0
-807 -808 -827 0
808 -809 824 0
808 809 -824 0
-808 809 824 0
-808 -809 -824 0
809 810 -819 0
809 -810 819 0
-809 -810 -819 0
-809 810 819 0
810 -811 816 0
810 811 -816 0
-810 811 816 0
-810 -811 -816 0
811 812 -815 0
811 -812 815 0
-811 -812 -815 0
-811 812 815 0
812 813 -814 0
812 -813 814 0
-812 -813 -814 0
-812 813 814 0
813 -1097 -1112 0
-813 1097 0
-813 1112 0
814 -1098 -1111 0
-814 1098 0
-814 1111 0
815 -1099 -1110 0
-815 1099 0
-815 1110 0
-816 817 818 0
816 -817 0
816 -818 0
817 -1096 -1097 -1111 -1112 0
-817 1112 0
-817 1096 0
-817 1111 0
-817 1097 0
818 -1098 -1110 -723 0
-818 1098 0
-818 1110 0
-818 723 0
819 820 -823 0
819 -820 823 0
-819 -820 -823 0
-819 820 823 0
820 821 -822 0
820 -821 822 0
-820 -821 -822 0
-820 821 822 0
821 -1100 -1109 0
-821 1100 0
-821 1109 0
822 -1101 -1108 0
-822 1101 0
-822 1108 0
823 -1102 -1107 0
-823 1102 0
-823 1107 0
-824 825 826 0
824 -825 0
824 -826 0
825 -722 -727 0
-825 722 0
-825 727 0
826 -721 -730 0
-826 721 0
-826 730 0
-827 828 829 0
827 -828 0
827 -829 0
828 -1099 -1100 -1108 -1109 0
-828 1109 0
-828 1099 0
-828 1108 0
-828 1100 0
829 -1101 -1107 -731 0
-829 1101 0
-829 1107 0
-829 731 0
-830 831 832 0
830 -831 0
830 -832 0
831 -720 -735 0
-831 720 0
-831 735 0
832 -719 -738 0
-832 719 0
-832 738 0
-833 834 835 0
833 -834 0
833 -835 0
834 -1102 -1106 -741 0
-834 1102 0
-834 1106 0
-834 741 0
835 -739 -740 0
-835 739 0
-835 740 0
-836 837 838 0
836 -837 0
836 -838 0
837 -718 -745 0
-837 718 0
-837 745 0
838 -717 -748 0
-838 717 0
-838 748 0
-839 840 841 0
839 -840 0
839 -841 0
840 -714 -715 0
-840 714 0
-840 715 0
841 -713 -754 0
-841 713 0
-841 754 0
-842 1112 843 0
-842 -1098 843 -865 0
-842 1098 843 865 0
-842 -1098 -1112 -843 865 0
-842 1098 -1112 -843 -865 0
842 1112 -843 0
842 1098 -1112 843 -865 0
842 1098 -843 865 0
842 -1098 -843 -865 0
842 -1098 -1112 843 865 0
-843 1111 844 0
-843 -1099 844 -862 0
-843 1099 844 862 0
-843 -1099 -1111 -844 862 0
-843 1099 -1111 -844 -862 0
843 1111 -844 0
843 1099 -1111 844 -862 0
843 1099 -844 862 0
843 -1099 -844 -862 0
843 -1099 -1111 844 862 0
-844 1110 845 0
-844 -1100 845 -858 0
-844 1100 845 858 0
-844 -1100 -1110 -845 858 0
-844 1100 -1110 -845 -858 0
844 1110 -845 0
844 1100 -1110 845 -858 0
844 1100 -845 858 0
844 -1100 -845 -858 0
844 -1100 -1110 845 858 0
-845 1109 846 0
-845 -1101 846 -854 0
-845 1101 846 854 0
-845 -1101 -1109 -846 854 0
-845 1101 -1109 -846 -854 0
845 1109 -846 0
845 1101 -1109 846 -854 0
845 1101 -846 854 0
845 -1101 -846 -854 0
845 -1101 -1109 846 854 0
-846 1108 847 0
-846 1102 -1108 -847 -851 0
-846 1102 847 851 0
-846 -1102 847 -851 0
-846 -1102 -1108 -847 851 0
846 1108 -847 0
846 -1102 -847 -851 0
846 1102 -847 851 0
846 -1102 -1108 847 851 0
846 1102 -1108 847 -851 0
847 -1107 -848 0
847 -1107 -850 0
847 -1107 -849 0
-847 1107 0
-847 848 849 850 0
848 -1102 -767 0
-848 1102 0
-848 767 0
849 -773 -771 0
-849 773 0
-849 771 0
850 -775 -686 -771 0
-850 775 0
-850 686 0
-850 771 0
-851 780 852 0
-851 691 852 0
-851 776 852 0
851 -852 0
851 -780 -691 -776 0
-852 853 776 0
-852 778 853 0
852 -853 0
852 -778 -776 0
853 -1101 -766 0
-853 1101 0
-853 766 0
-854 696 855 0
-854 855 857 0
854 -855 0
854 -696 -857 0
-855 856 781 0
-855 783 856 0
855 -856 0
855 -783 -781 0
856 -1100 -765 0
-856 1100 0
-856 765 0
857 -785 -781 0
-857 785 0
-857 781 0
-858 702 859 0
-858 859 861 0
858 -859 0
858 -702 -861 0
-859 860 786 0
-859 788 860 0
859 -860 0
859 -788 -786 0
860 -1099 -764 0
-860 1099 0
-860 764 0
861 -790 -786 0
-861 790 0
-861 786 0
-862 708 863 0
-862 863 864 0
862 -863 0
862 -708 -864 0
-863 793 763 0
-863 1098 793 0
-863 1098 763 0
863 -1098 -793 0
863 -793 -763 0
863 -1098 -763 0
864 -795 -791 0
-864 795 0
-864 791 0
-865 710 866 0
-865 866 867 0
865 -866 0
865 -710 -867 0
-866 798 762 0
-866 1097 798 0
-866 1097 762 0
866 -1097 -798 0
866 -798 -762 0
866 -1097 -762 0
867 -800 -796 0
-867 800 0
-867 796 0
868 -869 900 0
868 869 -900 0
-868 869 900 0
-868 -869 -900 0
869 870 -871 0
869 -870 871 0
-869 -870 -871 0
-869 870 871 0
870 -805 -836 0
-870 805 0
-870 836 0
871 -872 897 0
871 872 -897 0
-871 872 897 0
-871 -872 -897 0
872 -873 894 0
872 873 -894 0
-872 873 894 0
-872 -873 -894 0
873 -874 891 0
873 874 -891 0
-873 874 891 0
-873 -874 -891 0
874 -875 888 0
874 875 -888 0
-874 875 888 0
-874 -875 -888 0
875 876 -885 0
875 -876 885 0
-875 -876 -885 0
-875 876 885 0
876 -877 882 0
876 877 -882 0
-876 877 882 0
-876 -877 -882 0
877 878 -881 0
877 -878 881 0
-877 -878 -881 0
-877 878 881 0
878 879 -880 0
878 -879 880 0
-878 -879 -880 0
-878 879 880 0
879 -1098 -1112 0
-879 1098 0
-879 1112 0
880 -1099 -1111 0
-880 1099 0
-880 1111 0
881 -1100 -1110 0
-881 1100 0
-881 1110 0
-882 883 884 0
882 -883 0
882 -884 0
883 -1097 -1098 -1111 -1112 0
-883 1112 0
-883 1097 0
-883 1111 0
-883 1098 0
884 -1099 -1110 -812 0
-884 1099 0
-884 1110 0
-884 812 0
885 886 -887 0
885 -886 887 0
-885 -886 -887 0
-885 886 887 0
886 -1101 -1109 0
-886 1101 0
-886 1109 0
887 -1102 -1108 0
-887 1102 0
-887 1108 0
-888 889 890 0
888 -889 0
888 -890 0
889 -811 -816 0
-889 811 0
-889 816 0
890 -810 -819 0
-890 810 0
-890 819 0
-891 892 893 0
891 -892 0
891 -893 0
892 -1100 -1101 -1108 -1109 0
-892 1109 0
-892 1100 0
-892 1108 0
-892 1101 0
893 -1102 -1107 -820 0
-893 1102 0
-893 1107 0
-893 820 0
-894 895 896 0
894 -895 0
894 -896 0
895 -809 -824 0
-895 809 0
-895 824 0
896 -808 -827 0
-896 808 0
-896 827 0
-897 898 899 0
897 -898 0
897 -899 0
898 -807 -830 0
-898 807 0
-898 830 0
899 -806 -833 0
-899 806 0
-899 833 0
-900 754 901 0
-900 901 903 0
900 -901 0
900 -754 -903 0
-901 902 802 0
-901 840 902 0
901 -902 0
901 -840 -802 0
902 -803 -804 0
-902 803 0
-902 804 0
903 -713 -802 0
-903 713 0
-903 802 0
-904 905 -1020 -1034 1053 0
-904 905 1020 1034 1053 0
904 -1053 0
904 1020 -1034 0
904 -905 0
904 -1020 1034 0
-905 906 933 962 991 0
-905 -906 -933 -962 -991 0
-905 906 933 -962 -991 0
-905 -906 -933 962 991 0
905 906 -933 0
905 -906 933 0
905 -962 991 0
905 962 -991 0
-906 1112 907 0
-906 -1112 928 929 0
-906 -1112 -928 -929 0
906 1112 -907 0
906 -1112 928 -929 0
906 -1112 -928 929 0
-907 1111 908 0
-907 -1111 923 924 0
-907 -1111 -923 -924 0
907 1111 -908 0
907 -1111 923 -924 0
907 -1111 -923 924 0
-908 1110 909 0
-908 -1110 918 919 0
-908 -1110 -918 -919 0
908 1110 -909 0
908 -1110 918 -919 0
908 -1110 -918 919 0
-909 1109 910 0
-909 1102 -1109 -910 -914 0
-909 1102 910 914 0
-909 -1102 910 -914 0
-909 -1102 -1109 -910 914 0
909 1109 -910 0
909 -1102 -910 -914 0
909 1102 -910 914 0
909 -1102 -1109 910 914 0
909 1102 -1109 910 -914 0
910 -1108 -911 0
910 -1108 -912 0
-910 1108 0
-910 911 912 0
911 -1102 -847 0
-911 1102 0
-911 847 0
912 -913 -851 0
-912 913 0
-912 851 0
913 1102 -847 0
913 -1102 847 0
-913 -1102 -847 0
-913 1102 847 0
-914 915 916 0
914 -915 0
914 -916 0
915 -1101 -846 0
-915 1101 0
-915 846 0
916 -917 -854 0
-916 917 0
-916 854 0
917 -1101 846 0
917 1101 -846 0
-917 1101 846 0
-917 -1101 -846 0
918 -1101 909 0
918 1101 -909 0
-918 1101 909 0
-918 -1101 -909 0
-919 920 921 0
919 -920 0
919 -921 0
920 -1100 -845 0
-920 1100 0
-920 845 0
921 -922 -858 0
-921 922 0
-921 858 0
922 -1100 845 0
922 1100 -845 0
-922 1100 845 0
-922 -1100 -845 0
923 -1100 908 0
923 1100 -908 0
-923 1100 908 0
-923 -1100 -908 0
-924 925 926 0
924 -925 0
924 -926 0
925 -1099 -844 0
-925 1099 0
-925 844 0
926 -927 -862 0
-926 927 0
-926 862 0
927 -1099 844 0
927 1099 -844 0
-927 1099 844 0
-927 -1099 -844 0
928 -1099 907 0
928 1099 -907 0
-928 1099 907 0
-928 -1099 -907 0
-929 930 931 0
929 -930 0
929 -931 0
930 -1098 -843 0
-930 1098 0
-930 843 0
931 -932 -865 0
-931 932 0
-931 865 0
932 -1098 843 0
932 1098 -843 0
-932 1098 843 0
-932 -1098 -843 0
933 -934 959 0
933 934 -959 0
-933 934 959 0
-933 -934 -959 0
934 935 -936 0
934 -935 936 0
-934 -935 -936 0
-934 935 936 0
935 -872 -897 0
-935 872 0
-935 897 0
936 937 -938 0
936 -937 938 0
-936 -937 -938 0
-936 937 938 0
937 -873 -894 0
-937 873 0
-937 894 0
938 -939 956 0
938 939 -956 0
-938 939 956 0
-938 -939 -956 0
939 940 -941 0
939 -940 941 0
-939 -940 -941 0
-939 940 941 0
940 -1101 -1102 -1108 -1109 0
-940 1109 0
-940 1101 0
-940 1108 0
-940 1102 0
941 -942 953 0
941 942 -953 0
-941 942 953 0
-941 -942 -953 0
942 943 -952 0
942 -943 952 0
-942 -943 -952 0
-942 943 952 0
943 -944 949 0
943 944 -949 0
-943 944 949 0
-943 -944 -949 0
944 945 -948 0
944 -945 948 0
-944 -945 -948 0
-944 945 948 0
945 946 -947 0
945 -946 947 0
-945 -946 -947 0
-945 946 947 0
946 -1099 -1112 0
-946 1099 0
-946 1112 0
947 -1100 -1111 0
-947 1100 0
-947 1111 0
948 -1101 -1110 0
-948 1101 0
-948 1110 0
-949 950 951 0
949 -950 0
949 -951 0
950 -1098 -1099 -1111 -1112 0
-950 1112 0
-950 1098 0
-950 1111 0
-950 1099 0
951 -1100 -1110 -878 0
-951 1100 0
-951 1110 0
-951 878 0
952 -1102 -1109 0
-952 1102 0
-952 1109 0
-953 954 955 0
953 -954 0
953 -955 0
954 -877 -882 0
-954 877 0
-954 882 0
955 -876 -885 0
-955 876 0
-955 885 0
-956 957 958 0
956 -957 0
956 -958 0
957 -875 -888 0
-957 875 0
-957 888 0
958 -874 -891 0
-958 874 0
-958 891 0
-959 960 961 0
959 -960 0
959 -961 0
960 -870 -871 0
-960 870 0
-960 871 0
961 -869 -900 0
-961 869 0
-961 900 0
-962 1112 963 0
-962 -1100 963 -986 0
-962 1100 963 986 0
-962 -1100 -1112 -963 986 0
-962 1100 -1112 -963 -986 0
962 1112 -963 0
962 1100 -1112 963 -986 0
962 1100 -963 986 0
962 -1100 -963 -986 0
962 -1100 -1112 963 986 0
-963 1111 964 0
-963 -1101 964 -981 0
-963 1101 964 981 0
-963 -1101 -1111 -964 981 0
-963 1101 -1111 -964 -981 0
963 1111 -964 0
963 1101 -1111 964 -981 0
963 1101 -964 981 0
963 -1101 -964 -981 0
963 -1101 -1111 964 981 0
-964 1110 965 0
-964 1102 -1110 -965 -974 0
-964 1102 965 974 0
-964 -1102 965 -974 0
-964 -1102 -1110 -965 974 0
964 1110 -965 0
964 -1102 -965 -974 0
964 1102 -965 974 0
964 -1102 -1110 965 974 0
964 1102 -1110 965 -974 0
965 -1109 -966 0
965 -1109 -330 -973 0
-965 1109 0
-965 330 966 0
-965 966 973 0
-966 697 967 970 0
-966 967 970 972 0
966 -967 0
966 -970 0
966 -697 -972 0
-967 968 969 0
-967 915 968 0
967 -968 0
967 -915 -969 0
968 -1102 -910 0
-968 1102 0
-968 910 0
969 1102 -910 0
969 -1102 910 0
-969 -1102 -910 0
-969 1102 910 0
970 -855 -971 0
-970 855 0
-970 971 0
971 -917 -969 0
-971 917 0
-971 969 0
972 -857 -971 0
-972 857 0
-972 971 0
973 -701 -972 0
-973 701 0
-973 972 0
-974 707 977 0
-974 300 977 0
-974 975 977 0
974 -977 0
974 -300 -707 -975 0
975 -861 -976 0
-975 861 0
-975 976 0
976 -922 -918 0
-976 922 0
-976 918 0
-977 703 978 980 0
-977 978 980 975 0
977 -978 0
977 -980 0
977 -703 -975 0
-978 979 918 0
-978 920 979 0
978 -979 0
978 -920 -918 0
979 -1101 -909 0
-979 1101 0
-979 909 0
980 -859 -976 0
-980 859 0
-980 976 0
-981 864 983 0
-981 982 983 0
-981 708 983 0
981 -983 0
981 -708 -864 -982 0
982 -927 -923 0
-982 927 0
-982 923 0
-983 925 984 985 0
-983 984 923 985 0
983 -985 0
983 -984 0
983 -925 -923 0
984 -1100 -908 0
-984 1100 0
-984 908 0
985 -863 -982 0
-985 863 0
-985 982 0
-986 867 988 0
-986 987 988 0
-986 710 988 0
986 -988 0
986 -710 -867 -987 0
987 -932 -928 0
-987 932 0
-987 928 0
-988 930 989 990 0
-988 989 928 990 0
988 -990 0
988 -989 0
988 -930 -928 0
989 -1099 -907 0
-989 1099 0
-989 907 0
990 -866 -987 0
-990 866 0
-990 987 0
991 -992 1013 0
991 992 -1013 0
-991 992 1013 0
-991 -992 -1013 0
992 993 -994 0
992 -993 994 0
-992 -993 -994 0
-992 993 994 0
993 -937 -938 0
-993 937 0
-993 938 0
994 995 -996 0
994 -995 996 0
-994 -995 -996 0
-994 995 996 0
995 -939 -956 0
-995 939 0
-995 956 0
996 -997 1010 0
996 997 -1010 0
-996 997 1010 0
-996 -997 -1010 0
997 -998 1007 0
997 998 -1007 0
-997 998 1007 0
-997 -998 -1007 0
998 -999 1004 0
998 999 -1004 0
-998 999 1004 0
-998 -999 -1004 0
999 1000 -1003 0
999 -1000 1003 0
-999 -1000 -1003 0
-999 1000 1003 0
1000 1001 -1002 0
1000 -1001 1002 0
-1000 -1001 -1002 0
-1000 1001 1002 0
1001 -1100 -1112 0
-1001 1100 0
-1001 1112 0
1002 -1101 -1111 0
-1002 1101 0
-1002 1111 0
1003 -1102 -1110 0
-1003 1102 0
-1003 1110 0
-1004 1005 1006 0
1004 -1005 0
1004 -1006 0
1005 -1099 -1100 -1111 -1112 0
-1005 1112 0
-1005 1099 0
-1005 1111 0
-1005 1100 0
1006 -1101 -1110 -945 0
-1006 1101 0
-1006 1110 0
-1006 945 0
-1007 1008 1009 0
1007 -1008 0
1007 -1009 0
1008 -944 -949 0
-1008 944 0
-1008 949 0
1009 -1102 -1109 -943 0
-1009 1102 0
-1009 1109 0
-1009 943 0
-1010 1011 1012 0
1010 -1011 0
1010 -1012 0
1011 -942 -953 0
-1011 942 0
-1011 953 0
1012 -940 -941 0
-1012 940 0
-1012 941 0
-1013 759 1016 0
-1013 1014 1016 0
-1013 376 1016 0
1013 -1016 0
1013 -376 -759 -1014 0
1014 -903 -1015 0
-1014 903 0
-1014 1015 0
1015 -869 -934 0
-1015 869 0
-1015 934 0
-1016 755 1017 1019 0
-1016 1017 1019 1014 0
1016 -1017 0
1016 -1019 0
1016 -755 -1014 0
-1017 1018 934 0
-1017 960 1018 0
1017 -1018 0
1017 -960 -934 0
1018 -935 -936 0
-1018 935 0
-1018 936 0
1019 -901 -1015 0
-1019 901 0
-1019 1015 0
-1020 1112 1021 0
-1020 -1101 1021 -1030 0
-1020 1101 1021 1030 0
-1020 -1101 -1112 -1021 1030 0
-1020 1101 -1112 -1021 -1030 0
1020 1112 -1021 0
1020 1101 -1112 1021 -1030 0
1020 1101 -1021 1030 0
1020 -1101 -1021 -1030 0
1020 -1101 -1112 1021 1030 0
-1021 1111 1022 0
-1021 1102 -1111 -1022 -1026 0
-1021 1102 1022 1026 0
-1021 -1102 1022 -1026 0
-1021 -1102 -1111 -1022 1026 0
1021 1111 -1022 0
1021 -1102 -1022 -1026 0
1021 1102 -1022 1026 0
1021 -1102 -1111 1022 1026 0
1021 1102 -1111 1022 -1026 0
1022 -1110 -1023 0
1022 -1110 -1024 0
-1022 1110 0
-1022 1023 1024 0
1023 -1102 -965 0
-1023 1102 0
-1023 965 0
1024 -1025 -974 0
-1024 1025 0
-1024 974 0
1025 1102 -965 0
1025 -1102 965 0
-1025 -1102 -965 0
-1025 1102 965 0
-1026 1027 1028 0
1026 -1027 0
1026 -1028 0
1027 -1101 -964 0
-1027 1101 0
-1027 964 0
1028 -1029 -981 0
-1028 1029 0
-1028 981 0
1029 -1101 964 0
1029 1101 -964 0
-1029 1101 964 0
-1029 -1101 -964 0
-1030 1031 1032 0
1030 -1031 0
1030 -1032 0
1031 -1100 -963 0
-1031 1100 0
-1031 963 0
1032 -1033 -986 0
-1032 1033 0
-1032 986 0
1033 -1100 963 0
1033 1100 -963 0
-1033 1100 963 0
-1033 -1100 -963 0
1034 -1035 1050 0
1034 1035 -1050 0
-1034 1035 1050 0
-1034 -1035 -1050 0
1035 1036 -1037 0
1035 -1036 1037 0
-1035 -1036 -1037 0
-1035 1036 1037 0
1036 -995 -996 0
-1036 995 0
-1036 996 0
1037 1038 -1039 0
1037 -1038 1039 0
-1037 -1038 -1039 0
-1037 1038 1039 0
1038 -997 -1010 0
-1038 997 0
-1038 1010 0
1039 1040 -1041 0
1039 -1040 1041 0
-1039 -1040 -1041 0
-1039 1040 1041 0
1040 -998 -1007 0
-1040 998 0
-1040 1007 0
1041 1042 -1043 0
1041 -1042 1043 0
-1041 -1042 -1043 0
-1041 1042 1043 0
1042 -999 -1004 0
-1042 999 0
-1042 1004 0
1043 -1044 1047 0
1043 1044 -1047 0
-1043 1044 1047 0
-1043 -1044 -1047 0
1044 1045 -1046 0
1044 -1045 1046 0
-1044 -1045 -1046 0
-1044 1045 1046 0
1045 -1101 -1112 0
-1045 1101 0
-1045 1112 0
1046 -1102 -1111 0
-1046 1102 0
-1046 1111 0
-1047 1048 1049 0
1047 -1048 0
1047 -1049 0
1048 -1100 -1101 -1111 -1112 0
-1048 1112 0
-1048 1100 0
-1048 1111 0
-1048 1101 0
1049 -1102 -1110 -1000 0
-1049 1102 0
-1049 1110 0
-1049 1000 0
-1050 1051 1052 0
1050 -1051 0
1050 -1052 0
1051 -993 -994 0
-1051 993 0
-1051 994 0
1052 -992 -1013 0
-1052 992 0
-1052 1013 0
-1053 -1054 -1064 -1077 -1081 0
-1053 1054 1064 -1077 -1081 0
-1053 -1054 -1064 1077 1081 0
-1053 1054 1064 1077 1081 0
1053 1077 -1081 0
1053 -1077 1081 0
1053 1054 -1064 0
1053 -1054 1064 0
-1054 1112 1055 0
-1054 1102 -1112 -1055 -1060 0
-1054 1102 1055 1060 0
-1054 -1102 1055 -1060 0
-1054 -1102 -1112 -1055 1060 0
1054 1112 -1055 0
1054 -1102 -1055 -1060 0
1054 1102 -1055 1060 0
1054 -1102 -1112 1055 1060 0
1054 1102 -1112 1055 -1060 0
1055 -1111 -1056 0
1055 -1111 -981 -1059 0
-1055 1111 0
-1055 981 1056 0
-1055 1056 1059 0
-1056 1057 1058 0
-1056 1027 1057 0
1056 -1057 0
1056 -1027 -1058 0
1057 -1102 -1022 0
-1057 1102 0
-1057 1022 0
1058 1102 -1022 0
1058 -1102 1022 0
-1058 -1102 -1022 0
-1058 1102 1022 0
1059 -1029 -1058 0
-1059 1029 0
-1059 1058 0
-1060 1033 1062 0
-1060 986 1062 0
-1060 1061 1062 0
1060 -1062 0
1060 -1033 -986 -1061 0
1061 -1101 1021 0
1061 1101 -1021 0
-1061 1101 1021 0
-1061 -1101 -1021 0
-1062 1063 1061 0
-1062 1031 1063 0
1062 -1063 0
1062 -1031 -1061 0
1063 -1101 -1021 0
-1063 1101 0
-1063 1021 0
1064 -1065 1074 0
1064 1065 -1074 0
-1064 1065 1074 0
-1064 -1065 -1074 0
1065 1066 -1067 0
1065 -1066 1067 0
-1065 -1066 -1067 0
-1065 1066 1067 0
1066 -1038 -1039 0
-1066 1038 0
-1066 1039 0
1067 1068 -1069 0
1067 -1068 1069 0
-1067 -1068 -1069 0
-1067 1068 1069 0
1068 -1040 -1041 0
-1068 1040 0
-1068 1041 0
1069 1070 -1071 0
1069 -1070 1071 0
-1069 -1070 -1071 0
-1069 1070 1071 0
1070 -1042 -1043 0
-1070 1042 0
-1070 1043 0
1071 1072 -1073 0
1071 -1072 1073 0
-1071 -1072 -1073 0
-1071 1072 1073 0
1072 -1044 -1047 0
-1072 1044 0
-1072 1047 0
1073 1101 -1102 -1112 0
1073 -1102 1111 -1112 0
-1073 1112 0
-1073 1102 0
-1073 -1101 -1111 0
-1074 992 1075 0
-1074 1013 1075 0
-1074 1035 1075 0
1074 -1075 0
1074 -992 -1013 -1035 0
-1075 1076 1035 0
-1075 1051 1076 0
1075 -1076 0
1075 -1051 -1035 0
1076 -1036 -1037 0
-1076 1036 0
-1076 1037 0
1077 -1112 -1078 0
1077 -1112 -1079 0
-1077 1112 0
-1077 1078 1079 0
1078 -1102 -1055 0
-1078 1102 0
-1078 1055 0
1079 -1080 -1060 0
-1079 1080 0
-1079 1060 0
1080 1102 -1055 0
1080 -1102 1055 0
-1080 -1102 -1055 0
-1080 1102 1055 0
1081 -1082 1090 0
1081 1082 -1090 0
-1081 1082 1090 0
-1081 -1082 -1090 0
1082 1083 -1084 0
1082 -1083 1084 0
-1082 -1083 -1084 0
-1082 1083 1084 0
1083 -1068 -1069 0
-1083 1068 0
-1083 1069 0
1084 1085 -1086 0
1084 -1085 1086 0
-1084 -1085 -1086 0
-1084 1085 1086 0
1085 -1070 -1071 0
-1085 1070 0
-1085 1071 0
1086 -1087 0
-1086 1087 0
-1087 1088 1089 0
1087 -1088 0
1087 -1089 0
1088 -1101 -1102 -1111 -1112 0
-1088 1112 0
-1088 1101 0
-1088 1111 0
-1088 1102 0
1089 -1072 -1073 0
-1089 1072 0
-1089 1073 0
-1090 1091 1092 0
1090 -1091 0
1090 -1092 0
1091 -1066 -1067 0
-1091 1066 0
-1091 1067 0
1092 -1065 -1074 0
-1092 1065 0
-1092 1074 0
-1113 0
2 0

