c Result of efficient AIG-to-CNF conversion using package CNF
p cnf 512 1915
-2 3 35 95 201 0
2 -201 0
2 -3 0
2 -95 0
2 -35 0
-3 4 5 11 0
-3 -4 -5 11 0
3 -11 0
3 4 -5 0
3 -4 5 0
4 -498 -505 0
-4 498 0
-4 505 0
-5 6 0
5 -6 0
-6 7 0
6 -7 0
-7 8 0
7 -8 0
-8 9 0
8 -9 0
-9 10 0
9 -10 0
-10 4 0
10 -4 0
-11 12 18 20 29 0
-11 -12 -18 -20 -29 0
-11 12 18 -20 -29 0
-11 -12 -18 20 29 0
11 12 -18 0
11 -12 18 0
11 -20 29 0
11 20 -29 0
-12 13 0
12 -13 0
-13 14 0
13 -14 0
-14 15 0
14 -15 0
-15 16 0
15 -16 0
-16 498 17 0
-16 506 17 0
-16 -498 -506 -17 0
16 498 -17 0
16 -498 -506 17 0
16 506 -17 0
17 -499 -505 0
-17 499 0
-17 505 0
18 17 -19 0
18 -17 19 0
-18 -17 -19 0
-18 17 19 0
19 -498 -506 0
-19 498 0
-19 506 0
-20 21 0
20 -21 0
-21 22 0
21 -22 0
-22 23 0
22 -23 0
-23 24 0
23 -24 0
-24 498 25 0
-24 -498 -507 -25 0
-24 507 25 0
24 498 -25 0
24 507 -25 0
24 -498 -507 25 0
-25 506 27 0
-25 -506 -26 -28 0
-25 -506 26 28 0
25 506 -27 0
25 -506 -26 28 0
25 -506 26 -28 0
26 -498 -17 0
-26 498 0
-26 17 0
27 -500 -505 0
-27 500 0
-27 505 0
28 499 -27 0
28 -499 27 0
-28 -499 -27 0
-28 499 27 0
29 30 -31 0
29 -30 31 0
-29 -30 -31 0
-29 30 31 0
30 -498 -506 -17 0
-30 498 0
-30 506 0
-30 17 0
31 27 -32 0
31 -27 32 0
-31 -27 -32 0
-31 27 32 0
32 33 -34 0
32 -33 34 0
-32 -33 -34 0
-32 33 34 0
33 -498 -507 0
-33 498 0
-33 507 0
34 -499 -506 0
-34 499 0
-34 506 0
-35 36 47 59 75 0
-35 -36 -47 -59 -75 0
-35 36 47 -59 -75 0
-35 -36 -47 59 75 0
35 36 -47 0
35 -36 47 0
35 -59 75 0
35 59 -75 0
-36 37 0
36 -37 0
-37 38 0
37 -38 0
-38 39 0
38 -39 0
-39 498 40 0
-39 -498 -508 -40 0
-39 508 40 0
39 498 -40 0
39 508 -40 0
39 -498 -508 40 0
-40 507 42 0
-40 -507 -41 -46 0
-40 -507 41 46 0
40 507 -42 0
40 -507 -41 46 0
40 -507 41 -46 0
41 -498 -25 0
-41 498 0
-41 25 0
-42 506 43 0
-42 -506 44 45 0
-42 -506 -44 -45 0
42 506 -43 0
42 -506 44 -45 0
42 -506 -44 45 0
43 -501 -505 0
-43 501 0
-43 505 0
44 500 -43 0
44 -500 43 0
-44 -500 -43 0
-44 500 43 0
-45 505 0
-45 499 0
-45 498 500 0
45 -498 -499 -505 0
45 -499 -500 -505 0
46 -499 42 0
46 499 -42 0
-46 499 42 0
-46 -499 -42 0
47 48 -49 0
47 -48 49 0
-47 -48 -49 0
-47 48 49 0
48 -30 -31 0
-48 30 0
-48 31 0
49 50 -51 0
49 -50 51 0
-49 -50 -51 0
-49 50 51 0
50 -27 -32 0
-50 27 0
-50 32 0
51 43 -52 0
51 -43 52 0
-51 -43 -52 0
-51 43 52 0
52 53 -54 0
52 -53 54 0
-52 -53 -54 0
-52 53 54 0
53 -498 -499 -506 -507 0
-53 507 0
-53 498 0
-53 506 0
-53 499 0
54 55 -58 0
54 -55 58 0
-54 -55 -58 0
-54 55 58 0
55 56 -57 0
55 -56 57 0
-55 -56 -57 0
-55 56 57 0
56 -498 -508 0
-56 498 0
-56 508 0
57 -499 -507 0
-57 499 0
-57 507 0
58 -500 -506 0
-58 500 0
-58 506 0
-59 60 0
59 -60 0
-60 61 0
60 -61 0
-61 498 62 0
-61 -498 -509 -62 0
-61 509 62 0
61 498 -62 0
61 509 -62 0
61 -498 -509 62 0
-62 508 64 0
-62 -508 -63 -74 0
-62 -508 63 74 0
62 508 -64 0
62 -508 -63 74 0
62 -508 63 -74 0
63 -498 -40 0
-63 498 0
-63 40 0
-64 507 65 0
-64 -507 70 71 0
-64 -507 -70 -71 0
64 507 -65 0
64 -507 70 -71 0
64 -507 -70 71 0
-65 506 66 0
-65 -506 67 68 0
-65 -506 -67 -68 0
65 506 -66 0
65 -506 67 -68 0
65 -506 -67 68 0
66 -502 -505 0
-66 502 0
-66 505 0
67 501 -66 0
67 -501 66 0
-67 -501 -66 0
-67 501 66 0
-68 28 69 0
-68 26 69 0
-68 44 69 0
68 -69 0
68 -26 -28 -44 0
-69 505 0
-69 500 0
-69 499 501 0
69 -499 -500 -505 0
69 -500 -501 -505 0
70 -500 65 0
70 500 -65 0
-70 500 65 0
-70 -500 -65 0
-71 72 73 0
71 -72 0
71 -73 0
72 -499 -42 0
-72 499 0
-72 42 0
73 -41 -46 0
-73 41 0
-73 46 0
74 -499 64 0
74 499 -64 0
-74 499 64 0
-74 -499 -64 0
75 -76 92 0
75 76 -92 0
-75 76 92 0
-75 -76 -92 0
76 77 -78 0
76 -77 78 0
-76 -77 -78 0
-76 77 78 0
77 -43 -52 0
-77 43 0
-77 52 0
78 66 -79 0
78 -66 79 0
-78 -66 -79 0
-78 66 79 0
79 80 -81 0
79 -80 81 0
-79 -80 -81 0
-79 80 81 0
80 -53 -54 0
-80 53 0
-80 54 0
81 -82 89 0
81 82 -89 0
-81 82 89 0
-81 -82 -89 0
82 83 -84 0
82 -83 84 0
-82 -83 -84 0
-82 83 84 0
83 -498 -509 0
-83 498 0
-83 509 0
84 85 -88 0
84 -85 88 0
-84 -85 -88 0
-84 85 88 0
85 86 -87 0
85 -86 87 0
-85 -86 -87 0
-85 86 87 0
86 -499 -508 0
-86 499 0
-86 508 0
87 -500 -507 0
-87 500 0
-87 507 0
88 -501 -506 0
-88 501 0
-88 506 0
-89 90 91 0
89 -90 0
89 -91 0
90 -498 -499 -507 -508 0
-90 508 0
-90 498 0
-90 507 0
-90 499 0
91 -500 -506 -55 0
-91 500 0
-91 506 0
-91 55 0
-92 93 94 0
92 -93 0
92 -94 0
93 -50 -51 0
-93 50 0
-93 51 0
94 -48 -49 0
-94 48 0
-94 49 0
-95 96 116 142 168 0
-95 -96 -116 -142 -168 0
-95 96 116 -142 -168 0
-95 -96 -116 142 168 0
95 96 -116 0
95 -96 116 0
95 -142 168 0
95 142 -168 0
-96 97 0
96 -97 0
-97 498 98 0
-97 -498 -510 -98 0
-97 510 98 0
97 498 -98 0
97 510 -98 0
97 -498 -510 98 0
-98 509 100 0
-98 499 99 100 0
-98 -499 -99 100 0
-98 499 -509 -99 -100 0
-98 -499 -509 99 -100 0
98 509 -100 0
98 -499 -99 -100 0
98 499 99 -100 0
98 499 -509 -99 100 0
98 -499 -509 99 100 0
99 -498 -62 0
-99 498 0
-99 62 0
-100 508 101 0
-100 -508 112 113 0
-100 -508 -112 -113 0
100 508 -101 0
100 -508 112 -113 0
100 -508 -112 113 0
-101 507 102 0
-101 -507 108 109 0
-101 -507 -108 -109 0
101 507 -102 0
101 -507 108 -109 0
101 -507 -108 109 0
-102 506 103 0
-102 -506 104 105 0
-102 -506 -104 -105 0
102 506 -103 0
102 -506 104 -105 0
102 -506 -104 105 0
103 -503 -505 0
-103 503 0
-103 505 0
104 502 -103 0
104 -502 103 0
-104 -502 -103 0
-104 502 103 0
-105 106 107 0
105 -106 0
105 -107 0
106 -501 -66 0
-106 501 0
-106 66 0
107 -67 -68 0
-107 67 0
-107 68 0
108 -501 102 0
108 501 -102 0
-108 501 102 0
-108 -501 -102 0
-109 110 111 0
109 -110 0
109 -111 0
110 -500 -65 0
-110 500 0
-110 65 0
111 -70 -71 0
-111 70 0
-111 71 0
112 -500 101 0
112 500 -101 0
-112 500 101 0
-112 -500 -101 0
-113 114 115 0
113 -114 0
113 -115 0
114 -499 -64 0
-114 499 0
-114 64 0
115 -63 -74 0
-115 63 0
-115 74 0
116 -117 139 0
116 117 -139 0
-116 117 139 0
-116 -117 -139 0
117 -118 136 0
117 118 -136 0
-117 118 136 0
-117 -118 -136 0
118 103 -119 0
118 -103 119 0
-118 -103 -119 0
-118 103 119 0
119 120 -121 0
119 -120 121 0
-119 -120 -121 0
-119 120 121 0
120 -82 -89 0
-120 82 0
-120 89 0
121 -122 133 0
121 122 -133 0
-121 122 133 0
-121 -122 -133 0
122 123 -124 0
122 -123 124 0
-122 -123 -124 0
-122 123 124 0
123 -498 -509 -84 0
-123 498 0
-123 509 0
-123 84 0
124 125 -128 0
124 -125 128 0
-124 -125 -128 0
-124 125 128 0
125 126 -127 0
125 -126 127 0
-125 -126 -127 0
-125 126 127 0
126 -498 -510 0
-126 498 0
-126 510 0
127 -499 -509 0
-127 499 0
-127 509 0
128 129 -132 0
128 -129 132 0
-128 -129 -132 0
-128 129 132 0
129 130 -131 0
129 -130 131 0
-129 -130 -131 0
-129 130 131 0
130 -500 -508 0
-130 500 0
-130 508 0
131 -501 -507 0
-131 501 0
-131 507 0
132 -502 -506 0
-132 502 0
-132 506 0
-133 134 135 0
133 -134 0
133 -135 0
134 -499 -500 -507 -508 0
-134 508 0
-134 499 0
-134 507 0
-134 500 0
135 -501 -506 -85 0
-135 501 0
-135 506 0
-135 85 0
-136 137 138 0
136 -137 0
136 -138 0
137 -80 -81 0
-137 80 0
-137 81 0
138 -66 -79 0
-138 66 0
-138 79 0
-139 140 141 0
139 -140 0
139 -141 0
140 -77 -78 0
-140 77 0
-140 78 0
141 -76 -92 0
-141 76 0
-141 92 0
-142 498 143 0
-142 -498 -511 -143 0
-142 511 143 0
142 498 -143 0
142 511 -143 0
142 -498 -511 143 0
-143 510 145 0
-143 -510 -144 -167 0
-143 -510 144 167 0
143 510 -145 0
143 -510 -144 167 0
143 -510 144 -167 0
144 -498 -98 0
-144 498 0
-144 98 0
-145 509 146 0
-145 -500 146 -163 0
-145 500 146 163 0
-145 -500 -509 -146 163 0
-145 500 -509 -146 -163 0
145 509 -146 0
145 500 -509 146 -163 0
145 500 -146 163 0
145 -500 -146 -163 0
145 -500 -509 146 163 0
-146 508 147 0
-146 -508 159 160 0
-146 -508 -159 -160 0
146 508 -147 0
146 -508 159 -160 0
146 -508 -159 160 0
-147 507 148 0
-147 -507 154 155 0
-147 -507 -154 -155 0
147 507 -148 0
147 -507 154 -155 0
147 -507 -154 155 0
-148 506 149 0
-148 -506 150 151 0
-148 -506 -150 -151 0
148 506 -149 0
148 -506 150 -151 0
148 -506 -150 151 0
149 -504 -505 0
-149 504 0
-149 505 0
150 503 -149 0
150 -503 149 0
-150 -503 -149 0
-150 503 149 0
-151 68 152 0
-151 152 153 0
151 -152 0
151 -68 -153 0
-152 505 0
-152 502 0
-152 501 503 0
152 -501 -502 -505 0
152 -502 -503 -505 0
153 -67 -104 0
-153 67 0
-153 104 0
154 -502 148 0
154 502 -148 0
-154 502 148 0
-154 -502 -148 0
-155 71 156 0
-155 156 158 0
155 -156 0
155 -71 -158 0
-156 157 108 0
-156 110 157 0
156 -157 0
156 -110 -108 0
157 -501 -102 0
-157 501 0
-157 102 0
158 -70 -108 0
-158 70 0
-158 108 0
159 -501 147 0
159 501 -147 0
-159 501 147 0
-159 -501 -147 0
-160 63 161 0
-160 161 162 0
160 -161 0
160 -63 -162 0
-161 114 101 0
-161 500 114 0
-161 500 101 0
161 -500 -114 0
161 -114 -101 0
161 -500 -101 0
162 -74 -112 0
-162 74 0
-162 112 0
-163 164 165 0
163 -164 0
163 -165 0
164 -499 -100 0
-164 499 0
-164 100 0
165 -99 -166 0
-165 99 0
-165 166 0
166 -499 100 0
166 499 -100 0
-166 499 100 0
-166 -499 -100 0
167 -499 145 0
167 499 -145 0
-167 499 145 0
-167 -499 -145 0
168 -169 197 0
168 169 -197 0
-168 169 197 0
-168 -169 -197 0
169 -170 194 0
169 170 -194 0
-169 170 194 0
-169 -170 -194 0
170 149 -171 0
170 -149 171 0
-170 -149 -171 0
-170 149 171 0
171 -172 191 0
171 172 -191 0
-171 172 191 0
-171 -172 -191 0
172 -173 188 0
172 173 -188 0
-172 173 188 0
-172 -173 -188 0
173 174 -175 0
173 -174 175 0
-173 -174 -175 0
-173 174 175 0
174 -125 -128 0
-174 125 0
-174 128 0
175 176 -183 0
175 -176 183 0
-175 -176 -183 0
-175 176 183 0
176 177 -178 0
176 -177 178 0
-176 -177 -178 0
-176 177 178 0
177 -498 -499 -509 -510 0
-177 510 0
-177 498 0
-177 509 0
-177 499 0
178 179 -182 0
178 -179 182 0
-178 -179 -182 0
-178 179 182 0
179 180 -181 0
179 -180 181 0
-179 -180 -181 0
-179 180 181 0
180 -498 -511 0
-180 498 0
-180 511 0
181 -499 -510 0
-181 499 0
-181 510 0
182 -500 -509 0
-182 500 0
-182 509 0
183 184 -187 0
183 -184 187 0
-183 -184 -187 0
-183 184 187 0
184 185 -186 0
184 -185 186 0
-184 -185 -186 0
-184 185 186 0
185 -501 -508 0
-185 501 0
-185 508 0
186 -502 -507 0
-186 502 0
-186 507 0
187 -503 -506 0
-187 503 0
-187 506 0
-188 189 190 0
188 -189 0
188 -190 0
189 -500 -501 -507 -508 0
-189 508 0
-189 500 0
-189 507 0
-189 501 0
190 -502 -506 -129 0
-190 502 0
-190 506 0
-190 129 0
-191 192 193 0
191 -192 0
191 -193 0
192 -123 -124 0
-192 123 0
-192 124 0
193 -122 -133 0
-193 122 0
-193 133 0
-194 195 196 0
194 -195 0
194 -196 0
195 -120 -121 0
-195 120 0
-195 121 0
196 -103 -119 0
-196 103 0
-196 119 0
-197 92 198 0
-197 198 200 0
197 -198 0
197 -92 -200 0
-198 199 117 0
-198 140 199 0
198 -199 0
198 -140 -117 0
199 -118 -136 0
-199 118 0
-199 136 0
200 -76 -117 0
-200 76 0
-200 117 0
-201 -202 -229 264 382 0
-201 202 229 264 382 0
201 -382 0
201 -202 229 0
201 -264 0
201 202 -229 0
-202 511 204 0
-202 499 203 204 0
-202 -499 -203 204 0
-202 499 -511 -203 -204 0
-202 -499 -511 203 -204 0
202 511 -204 0
202 -499 -203 -204 0
202 499 203 -204 0
202 499 -511 -203 204 0
202 -499 -511 203 204 0
203 -498 -143 0
-203 498 0
-203 143 0
-204 510 205 0
-204 -510 225 226 0
-204 -510 -225 -226 0
204 510 -205 0
204 -510 225 -226 0
204 -510 -225 226 0
-205 509 206 0
-205 -509 220 221 0
-205 -509 -220 -221 0
205 509 -206 0
205 -509 220 -221 0
205 -509 -220 221 0
-206 508 207 0
-206 -508 216 217 0
-206 -508 -216 -217 0
206 508 -207 0
206 -508 216 -217 0
206 -508 -216 217 0
-207 507 208 0
-207 -507 212 213 0
-207 -507 -212 -213 0
207 507 -208 0
207 -507 212 -213 0
207 -507 -212 213 0
208 504 -506 -209 0
208 -504 -506 209 0
-208 506 0
-208 -504 -209 0
-208 504 209 0
-209 210 211 0
209 -210 0
209 -211 0
210 -503 -149 0
-210 503 0
-210 149 0
211 -150 -151 0
-211 150 0
-211 151 0
212 503 -208 0
212 -503 208 0
-212 -503 -208 0
-212 503 208 0
-213 214 215 0
213 -214 0
213 -215 0
214 -502 -148 0
-214 502 0
-214 148 0
215 -154 -155 0
-215 154 0
-215 155 0
216 -502 207 0
216 502 -207 0
-216 502 207 0
-216 -502 -207 0
-217 218 219 0
217 -218 0
217 -219 0
218 -501 -147 0
-218 501 0
-218 147 0
219 -159 -160 0
-219 159 0
-219 160 0
220 -501 206 0
220 501 -206 0
-220 501 206 0
-220 -501 -206 0
-221 222 223 0
221 -222 0
221 -223 0
222 -500 -146 0
-222 500 0
-222 146 0
223 -224 -163 0
-223 224 0
-223 163 0
224 -500 146 0
224 500 -146 0
-224 500 146 0
-224 -500 -146 0
225 -500 205 0
225 500 -205 0
-225 500 205 0
-225 -500 -205 0
-226 227 228 0
226 -227 0
226 -228 0
227 -499 -145 0
-227 499 0
-227 145 0
228 -144 -167 0
-228 144 0
-228 167 0
229 -230 261 0
229 230 -261 0
-229 230 261 0
-229 -230 -261 0
230 -231 258 0
230 231 -258 0
-230 231 258 0
-230 -231 -258 0
231 -232 255 0
231 232 -255 0
-231 232 255 0
-231 -232 -255 0
232 -233 252 0
232 233 -252 0
-232 233 252 0
-232 -233 -252 0
233 -234 249 0
233 234 -249 0
-233 234 249 0
-233 -234 -249 0
234 235 -244 0
234 -235 244 0
-234 -235 -244 0
-234 235 244 0
235 -236 241 0
235 236 -241 0
-235 236 241 0
-235 -236 -241 0
236 237 -240 0
236 -237 240 0
-236 -237 -240 0
-236 237 240 0
237 238 -239 0
237 -238 239 0
-237 -238 -239 0
-237 238 239 0
238 -499 -511 0
-238 499 0
-238 511 0
239 -500 -510 0
-239 500 0
-239 510 0
240 -501 -509 0
-240 501 0
-240 509 0
-241 242 243 0
241 -242 0
241 -243 0
242 -498 -499 -510 -511 0
-242 511 0
-242 498 0
-242 510 0
-242 499 0
243 -500 -509 -179 0
-243 500 0
-243 509 0
-243 179 0
244 245 -248 0
244 -245 248 0
-244 -245 -248 0
-244 245 248 0
245 246 -247 0
245 -246 247 0
-245 -246 -247 0
-245 246 247 0
246 -502 -508 0
-246 502 0
-246 508 0
247 -503 -507 0
-247 503 0
-247 507 0
248 -504 -506 0
-248 504 0
-248 506 0
-249 250 251 0
249 -250 0
249 -251 0
250 -177 -178 0
-250 177 0
-250 178 0
251 -176 -183 0
-251 176 0
-251 183 0
-252 253 254 0
252 -253 0
252 -254 0
253 -501 -502 -507 -508 0
-253 508 0
-253 501 0
-253 507 0
-253 502 0
254 -503 -506 -184 0
-254 503 0
-254 506 0
-254 184 0
-255 256 257 0
255 -256 0
255 -257 0
256 -174 -175 0
-256 174 0
-256 175 0
257 -173 -188 0
-257 173 0
-257 188 0
-258 259 260 0
258 -259 0
258 -260 0
259 -172 -191 0
-259 172 0
-259 191 0
260 -149 -171 0
-260 149 0
-260 171 0
-261 262 263 0
261 -262 0
261 -263 0
262 -170 -194 0
-262 170 0
-262 194 0
263 -169 -197 0
-263 169 0
-263 197 0
-264 265 294 327 355 0
-264 -265 -294 -327 -355 0
-264 265 294 -327 -355 0
-264 -265 -294 327 355 0
264 265 -294 0
264 -265 294 0
264 -327 355 0
264 327 -355 0
-265 511 266 0
-265 -500 266 -290 0
-265 500 266 290 0
-265 -500 -511 -266 290 0
-265 500 -511 -266 -290 0
265 511 -266 0
265 500 -511 266 -290 0
265 500 -266 290 0
265 -500 -266 -290 0
265 -500 -511 266 290 0
-266 510 267 0
-266 -501 267 -287 0
-266 501 267 287 0
-266 -501 -510 -267 287 0
-266 501 -510 -267 -287 0
266 510 -267 0
266 501 -510 267 -287 0
266 501 -267 287 0
266 -501 -267 -287 0
266 -501 -510 267 287 0
-267 509 268 0
-267 -502 268 -284 0
-267 502 268 284 0
-267 -502 -509 -268 284 0
-267 502 -509 -268 -284 0
267 509 -268 0
267 502 -509 268 -284 0
267 502 -268 284 0
267 -502 -268 -284 0
267 -502 -509 268 284 0
-268 508 269 0
-268 -503 269 -279 0
-268 503 269 279 0
-268 -503 -508 -269 279 0
-268 503 -508 -269 -279 0
268 508 -269 0
268 503 -508 269 -279 0
268 503 -269 279 0
268 -503 -269 -279 0
268 -503 -508 269 279 0
-269 507 270 0
-269 504 -507 -270 -274 0
-269 504 270 274 0
-269 -504 270 -274 0
-269 -504 -507 -270 274 0
269 507 -270 0
269 -504 -270 -274 0
269 504 -270 274 0
269 -504 -507 270 274 0
269 504 -507 270 -274 0
270 -506 -271 0
270 -506 -68 -272 0
-270 506 0
-270 68 271 0
-270 271 272 0
-271 503 152 0
-271 505 152 0
-271 504 0
-271 503 505 0
271 -503 -504 -152 0
271 -504 -505 -152 0
271 -503 -504 -505 0
272 -153 -273 0
-272 153 0
-272 273 0
273 -504 -150 0
-273 504 0
-273 150 0
-274 158 276 0
-274 275 276 0
-274 71 276 0
274 -276 0
274 -71 -158 -275 0
275 -154 -212 0
-275 154 0
-275 212 0
-276 214 277 278 0
-276 277 212 278 0
276 -278 0
276 -277 0
276 -214 -212 0
277 -503 -208 0
-277 503 0
-277 208 0
278 -156 -275 0
-278 156 0
-278 275 0
-279 162 281 0
-279 63 281 0
-279 280 281 0
279 -281 0
279 -63 -162 -280 0
280 -159 -216 0
-280 159 0
-280 216 0
-281 218 282 283 0
-281 282 216 283 0
281 -283 0
281 -282 0
281 -218 -216 0
282 -502 -207 0
-282 502 0
-282 207 0
283 -161 -280 0
-283 161 0
-283 280 0
-284 224 285 0
-284 163 285 0
-284 220 285 0
284 -285 0
284 -224 -163 -220 0
-285 286 220 0
-285 222 286 0
285 -286 0
285 -222 -220 0
286 -501 -206 0
-286 501 0
-286 206 0
-287 167 288 0
-287 144 288 0
-287 225 288 0
287 -288 0
287 -144 -167 -225 0
-288 289 225 0
-288 227 289 0
288 -289 0
288 -227 -225 0
289 -500 -205 0
-289 500 0
-289 205 0
-290 291 292 0
290 -291 0
290 -292 0
291 -499 -204 0
-291 499 0
-291 204 0
292 -203 -293 0
-292 203 0
-292 293 0
293 -499 204 0
293 499 -204 0
-293 499 204 0
-293 -499 -204 0
294 -295 322 0
294 295 -322 0
-294 295 322 0
-294 -295 -322 0
295 296 -297 0
295 -296 297 0
-295 -296 -297 0
-295 296 297 0
296 -232 -255 0
-296 232 0
-296 255 0
297 -298 319 0
297 298 -319 0
-297 298 319 0
-297 -298 -319 0
298 -299 316 0
298 299 -316 0
-298 299 316 0
-298 -299 -316 0
299 -300 313 0
299 300 -313 0
-299 300 313 0
-299 -300 -313 0
300 301 -310 0
300 -301 310 0
-300 -301 -310 0
-300 301 310 0
301 -302 307 0
301 302 -307 0
-301 302 307 0
-301 -302 -307 0
302 303 -306 0
302 -303 306 0
-302 -303 -306 0
-302 303 306 0
303 304 -305 0
303 -304 305 0
-303 -304 -305 0
-303 304 305 0
304 -500 -511 0
-304 500 0
-304 511 0
305 -501 -510 0
-305 501 0
-305 510 0
306 -502 -509 0
-306 502 0
-306 509 0
-307 308 309 0
307 -308 0
307 -309 0
308 -499 -500 -510 -511 0
-308 511 0
-308 499 0
-308 510 0
-308 500 0
309 -501 -509 -237 0
-309 501 0
-309 509 0
-309 237 0
310 311 -312 0
310 -311 312 0
-310 -311 -312 0
-310 311 312 0
311 -503 -508 0
-311 503 0
-311 508 0
312 -504 -507 0
-312 504 0
-312 507 0
-313 314 315 0
313 -314 0
313 -315 0
314 -236 -241 0
-314 236 0
-314 241 0
315 -235 -244 0
-315 235 0
-315 244 0
-316 317 318 0
316 -317 0
316 -318 0
317 -502 -503 -507 -508 0
-317 508 0
-317 502 0
-317 507 0
-317 503 0
318 -504 -506 -245 0
-318 504 0
-318 506 0
-318 245 0
-319 320 321 0
319 -320 0
319 -321 0
320 -234 -249 0
-320 234 0
-320 249 0
321 -233 -252 0
-321 233 0
-321 252 0
-322 200 324 0
-322 323 324 0
-322 92 324 0
322 -324 0
322 -92 -200 -323 0
323 -169 -230 0
-323 169 0
-323 230 0
-324 262 325 326 0
-324 325 230 326 0
324 -326 0
324 -325 0
324 -262 -230 0
325 -231 -258 0
-325 231 0
-325 258 0
326 -198 -323 0
-326 198 0
-326 323 0
-327 511 328 0
-327 -511 350 351 0
-327 -511 -350 -351 0
327 511 -328 0
327 -511 350 -351 0
327 -511 -350 351 0
-328 510 329 0
-328 -510 345 346 0
-328 -510 -345 -346 0
328 510 -329 0
328 -510 345 -346 0
328 -510 -345 346 0
-329 509 330 0
-329 -509 340 341 0
-329 -509 -340 -341 0
329 509 -330 0
329 -509 340 -341 0
329 -509 -340 341 0
-330 508 331 0
-330 -508 335 336 0
-330 -508 -335 -336 0
330 508 -331 0
330 -508 335 -336 0
330 -508 -335 336 0
331 -507 -332 0
331 -507 -333 0
-331 507 0
-331 332 333 0
332 -504 -270 0
-332 504 0
-332 270 0
333 -334 -274 0
-333 334 0
-333 274 0
334 504 -270 0
334 -504 270 0
-334 -504 -270 0
-334 504 270 0
335 504 -331 0
335 -504 331 0
-335 -504 -331 0
-335 504 331 0
-336 337 338 0
336 -337 0
336 -338 0
337 -503 -269 0
-337 503 0
-337 269 0
338 -339 -279 0
-338 339 0
-338 279 0
339 -503 269 0
339 503 -269 0
-339 503 269 0
-339 -503 -269 0
340 -503 330 0
340 503 -330 0
-340 503 330 0
-340 -503 -330 0
-341 342 343 0
341 -342 0
341 -343 0
342 -502 -268 0
-342 502 0
-342 268 0
343 -344 -284 0
-343 344 0
-343 284 0
344 -502 268 0
344 502 -268 0
-344 502 268 0
-344 -502 -268 0
345 -502 329 0
345 502 -329 0
-345 502 329 0
-345 -502 -329 0
-346 347 348 0
346 -347 0
346 -348 0
347 -501 -267 0
-347 501 0
-347 267 0
348 -349 -287 0
-348 349 0
-348 287 0
349 -501 267 0
349 501 -267 0
-349 501 267 0
-349 -501 -267 0
350 -501 328 0
350 501 -328 0
-350 501 328 0
-350 -501 -328 0
-351 352 353 0
351 -352 0
351 -353 0
352 -500 -266 0
-352 500 0
-352 266 0
353 -354 -290 0
-353 354 0
-353 290 0
354 -500 266 0
354 500 -266 0
-354 500 266 0
-354 -500 -266 0
355 -356 379 0
355 356 -379 0
-355 356 379 0
-355 -356 -379 0
356 357 -358 0
356 -357 358 0
-356 -357 -358 0
-356 357 358 0
357 -298 -319 0
-357 298 0
-357 319 0
358 -359 376 0
358 359 -376 0
-358 359 376 0
-358 -359 -376 0
359 360 -361 0
359 -360 361 0
-359 -360 -361 0
-359 360 361 0
360 -503 -504 -507 -508 0
-360 508 0
-360 503 0
-360 507 0
-360 504 0
361 -362 373 0
361 362 -373 0
-361 362 373 0
-361 -362 -373 0
362 363 -372 0
362 -363 372 0
-362 -363 -372 0
-362 363 372 0
363 -364 369 0
363 364 -369 0
-363 364 369 0
-363 -364 -369 0
364 365 -368 0
364 -365 368 0
-364 -365 -368 0
-364 365 368 0
365 366 -367 0
365 -366 367 0
-365 -366 -367 0
-365 366 367 0
366 -501 -511 0
-366 501 0
-366 511 0
367 -502 -510 0
-367 502 0
-367 510 0
368 -503 -509 0
-368 503 0
-368 509 0
-369 370 371 0
369 -370 0
369 -371 0
370 -500 -501 -510 -511 0
-370 511 0
-370 500 0
-370 510 0
-370 501 0
371 -502 -509 -303 0
-371 502 0
-371 509 0
-371 303 0
372 -504 -508 0
-372 504 0
-372 508 0
-373 374 375 0
373 -374 0
373 -375 0
374 -302 -307 0
-374 302 0
-374 307 0
375 -301 -310 0
-375 301 0
-375 310 0
-376 377 378 0
376 -377 0
376 -378 0
377 -300 -313 0
-377 300 0
-377 313 0
378 -299 -316 0
-378 299 0
-378 316 0
-379 380 381 0
379 -380 0
379 -381 0
380 -296 -297 0
-380 296 0
-380 297 0
381 -295 -322 0
-381 295 0
-381 322 0
-382 383 -458 -470 483 0
-382 383 458 470 483 0
382 -483 0
382 458 -470 0
382 -383 0
382 -458 470 0
-383 384 401 425 441 0
-383 -384 -401 -425 -441 0
-383 384 401 -425 -441 0
-383 -384 -401 425 441 0
383 384 -401 0
383 -384 401 0
383 -425 441 0
383 425 -441 0
-384 511 385 0
-384 -502 385 -397 0
-384 502 385 397 0
-384 -502 -511 -385 397 0
-384 502 -511 -385 -397 0
384 511 -385 0
384 502 -511 385 -397 0
384 502 -385 397 0
384 -502 -385 -397 0
384 -502 -511 385 397 0
-385 510 386 0
-385 -503 386 -393 0
-385 503 386 393 0
-385 -503 -510 -386 393 0
-385 503 -510 -386 -393 0
385 510 -386 0
385 503 -510 386 -393 0
385 503 -386 393 0
385 -503 -386 -393 0
385 -503 -510 386 393 0
-386 509 387 0
-386 504 -509 -387 -391 0
-386 504 387 391 0
-386 -504 387 -391 0
-386 -504 -509 -387 391 0
386 509 -387 0
386 -504 -387 -391 0
386 504 -387 391 0
386 -504 -509 387 391 0
386 504 -509 387 -391 0
387 -508 -388 0
387 -508 -390 0
387 -508 -389 0
-387 508 0
-387 388 389 390 0
388 -504 -331 0
-388 504 0
-388 331 0
389 -337 -335 0
-389 337 0
-389 335 0
390 -339 -279 -335 0
-390 339 0
-390 279 0
-390 335 0
-391 503 342 392 0
-391 342 330 392 0
-391 503 330 392 0
391 -503 -342 0
391 -342 -330 0
391 -392 0
391 -503 -330 0
392 -344 -284 -340 0
-392 344 0
-392 284 0
-392 340 0
-393 287 394 0
-393 394 396 0
393 -394 0
393 -287 -396 0
-394 395 345 0
-394 347 395 0
394 -395 0
394 -347 -345 0
395 -502 -329 0
-395 502 0
-395 329 0
396 -349 -345 0
-396 349 0
-396 345 0
-397 290 398 0
-397 398 400 0
397 -398 0
397 -290 -400 0
-398 399 350 0
-398 352 399 0
398 -399 0
398 -352 -350 0
399 -501 -328 0
-399 501 0
-399 328 0
400 -354 -350 0
-400 354 0
-400 350 0
401 -402 421 0
401 402 -421 0
-401 402 421 0
-401 -402 -421 0
402 403 -404 0
402 -403 404 0
-402 -403 -404 0
-402 403 404 0
403 -359 -376 0
-403 359 0
-403 376 0
404 -405 418 0
404 405 -418 0
-404 405 418 0
-404 -405 -418 0
405 -406 415 0
405 406 -415 0
-405 406 415 0
-405 -406 -415 0
406 -407 412 0
406 407 -412 0
-406 407 412 0
-406 -407 -412 0
407 408 -411 0
407 -408 411 0
-407 -408 -411 0
-407 408 411 0
408 409 -410 0
408 -409 410 0
-408 -409 -410 0
-408 409 410 0
409 -502 -511 0
-409 502 0
-409 511 0
410 -503 -510 0
-410 503 0
-410 510 0
411 -504 -509 0
-411 504 0
-411 509 0
-412 413 414 0
412 -413 0
412 -414 0
413 -501 -502 -510 -511 0
-413 511 0
-413 501 0
-413 510 0
-413 502 0
414 -503 -509 -365 0
-414 503 0
-414 509 0
-414 365 0
-415 416 417 0
415 -416 0
415 -417 0
416 -364 -369 0
-416 364 0
-416 369 0
417 -504 -508 -363 0
-417 504 0
-417 508 0
-417 363 0
-418 419 420 0
418 -419 0
418 -420 0
419 -362 -373 0
-419 362 0
-419 373 0
420 -360 -361 0
-420 360 0
-420 361 0
-421 322 422 0
-421 422 424 0
421 -422 0
421 -322 -424 0
-422 423 356 0
-422 380 423 0
422 -423 0
422 -380 -356 0
423 -357 -358 0
-423 357 0
-423 358 0
424 -295 -356 0
-424 295 0
-424 356 0
-425 511 426 0
-425 -511 436 437 0
-425 -511 -436 -437 0
425 511 -426 0
425 -511 436 -437 0
425 -511 -436 437 0
-426 510 427 0
-426 -510 431 432 0
-426 -510 -431 -432 0
426 510 -427 0
426 -510 431 -432 0
426 -510 -431 432 0
427 -509 -428 0
427 -509 -429 0
-427 509 0
-427 428 429 0
428 -504 -387 0
-428 504 0
-428 387 0
429 -430 -391 0
-429 430 0
-429 391 0
430 504 -387 0
430 -504 387 0
-430 -504 -387 0
-430 504 387 0
431 504 -427 0
431 -504 427 0
-431 -504 -427 0
-431 504 427 0
-432 433 434 0
432 -433 0
432 -434 0
433 -503 -386 0
-433 503 0
-433 386 0
434 -435 -393 0
-434 435 0
-434 393 0
435 -503 386 0
435 503 -386 0
-435 503 386 0
-435 -503 -386 0
436 -503 426 0
436 503 -426 0
-436 503 426 0
-436 -503 -426 0
-437 438 439 0
437 -438 0
437 -439 0
438 -502 -385 0
-438 502 0
-438 385 0
439 -440 -397 0
-439 440 0
-439 397 0
440 -502 385 0
440 502 -385 0
-440 502 385 0
-440 -502 -385 0
441 -442 455 0
441 442 -455 0
-441 442 455 0
-441 -442 -455 0
442 443 -444 0
442 -443 444 0
-442 -443 -444 0
-442 443 444 0
443 -405 -418 0
-443 405 0
-443 418 0
444 445 -446 0
444 -445 446 0
-444 -445 -446 0
-444 445 446 0
445 -406 -415 0
-445 406 0
-445 415 0
446 447 -448 0
446 -447 448 0
-446 -447 -448 0
-446 447 448 0
447 -407 -412 0
-447 407 0
-447 412 0
448 -449 452 0
448 449 -452 0
-448 449 452 0
-448 -449 -452 0
449 450 -451 0
449 -450 451 0
-449 -450 -451 0
-449 450 451 0
450 -503 -511 0
-450 503 0
-450 511 0
451 -504 -510 0
-451 504 0
-451 510 0
-452 453 454 0
452 -453 0
452 -454 0
453 -502 -503 -510 -511 0
-453 511 0
-453 502 0
-453 510 0
-453 503 0
454 -504 -509 -408 0
-454 504 0
-454 509 0
-454 408 0
-455 456 457 0
455 -456 0
455 -457 0
456 -403 -404 0
-456 403 0
-456 404 0
457 -402 -421 0
-457 402 0
-457 421 0
-458 511 459 0
-458 504 -511 -459 -465 0
-458 504 459 465 0
-458 -504 459 -465 0
-458 -504 -511 -459 465 0
458 511 -459 0
458 -504 -459 -465 0
458 504 -459 465 0
458 -504 -511 459 465 0
458 504 -511 459 -465 0
459 -510 -460 0
459 -510 -287 -464 0
-459 510 0
-459 287 460 0
-459 460 464 0
-460 394 461 462 0
-460 461 462 463 0
460 -462 0
460 -461 0
460 -394 -463 0
461 -504 -427 0
-461 504 0
-461 427 0
462 -433 -431 0
-462 433 0
-462 431 0
463 -435 -431 0
-463 435 0
-463 431 0
464 -396 -463 0
-464 396 0
-464 463 0
-465 400 467 0
-465 466 467 0
-465 290 467 0
465 -467 0
465 -290 -400 -466 0
466 -440 -436 0
-466 440 0
-466 436 0
-467 398 468 469 0
-467 468 469 466 0
467 -469 0
467 -468 0
467 -398 -466 0
468 -503 -426 0
-468 503 0
-468 426 0
469 -438 -436 0
-469 438 0
-469 436 0
470 -471 478 0
470 471 -478 0
-470 471 478 0
-470 -471 -478 0
471 472 -473 0
471 -472 473 0
-471 -472 -473 0
-471 472 473 0
472 -445 -446 0
-472 445 0
-472 446 0
473 474 -475 0
473 -474 475 0
-473 -474 -475 0
-473 474 475 0
474 -447 -448 0
-474 447 0
-474 448 0
475 476 -477 0
475 -476 477 0
-475 -476 -477 0
-475 476 477 0
476 -449 -452 0
-476 449 0
-476 452 0
477 503 -504 -511 0
477 -504 510 -511 0
-477 511 0
-477 504 0
-477 -503 -510 0
-478 424 480 0
-478 479 480 0
-478 322 480 0
478 -480 0
478 -322 -424 -479 0
479 -402 -442 0
-479 402 0
-479 442 0
-480 456 481 482 0
-480 481 442 482 0
480 -482 0
480 -481 0
480 -456 -442 0
481 -443 -444 0
-481 443 0
-481 444 0
482 -422 -479 0
-482 422 0
-482 479 0
-483 -484 -488 0
-483 484 488 0
483 484 -488 0
483 -484 488 0
484 -511 -485 0
484 -511 -486 0
-484 511 0
-484 485 486 0
485 -504 -459 0
-485 504 0
-485 459 0
486 -487 -465 0
-486 487 0
-486 465 0
487 504 -459 0
487 -504 459 0
-487 -504 -459 0
-487 504 459 0
488 -489 495 0
488 489 -495 0
-488 489 495 0
-488 -489 -495 0
489 490 -491 0
489 -490 491 0
-489 -490 -491 0
-489 490 491 0
490 -474 -475 0
-490 474 0
-490 475 0
491 -492 0
-491 492 0
-492 493 494 0
492 -493 0
492 -494 0
493 -503 -504 -510 -511 0
-493 511 0
-493 503 0
-493 510 0
-493 504 0
494 -476 -477 0
-494 476 0
-494 477 0
-495 496 497 0
495 -496 0
495 -497 0
496 -472 -473 0
-496 472 0
-496 473 0
497 -471 -478 0
-497 471 0
-497 478 0
-512 0
2 0

