c Result of efficient AIG-to-CNF conversion using package CNF
p cnf 1368 5184
-2 3 111 584 1080 0
2 -1080 0
2 -3 0
2 -584 0
2 -111 0
-3 4 -27 -39 45 0
-3 4 27 39 45 0
3 -45 0
3 27 -39 0
3 -4 0
3 -27 39 0
-4 -5 -6 15 25 0
-4 5 6 -15 -25 0
-4 -5 -6 -15 -25 0
-4 5 6 15 25 0
4 -5 6 0
4 5 -6 0
4 -15 25 0
4 15 -25 0
5 -1346 -1357 0
-5 1346 0
-5 1357 0
-6 7 0
6 -7 0
-7 8 0
7 -8 0
-8 9 0
8 -9 0
-9 10 0
9 -10 0
-10 11 0
10 -11 0
-11 12 0
11 -12 0
-12 13 0
12 -13 0
-13 14 0
13 -14 0
-14 5 0
14 -5 0
-15 16 0
15 -16 0
-16 17 0
16 -17 0
-17 18 0
17 -18 0
-18 19 0
18 -19 0
-19 20 0
19 -20 0
-20 21 0
20 -21 0
-21 22 0
21 -22 0
-22 23 0
22 -23 0
-23 1346 24 0
-23 1358 24 0
-23 -1346 -1358 -24 0
23 1346 -24 0
23 -1346 -1358 24 0
23 1358 -24 0
24 -1347 -1357 0
-24 1347 0
-24 1357 0
25 24 -26 0
25 -24 26 0
-25 -24 -26 0
-25 24 26 0
26 -1346 -1358 0
-26 1346 0
-26 1358 0
-27 28 0
27 -28 0
-28 29 0
28 -29 0
-29 30 0
29 -30 0
-30 31 0
30 -31 0
-31 32 0
31 -32 0
-32 33 0
32 -33 0
-33 34 0
33 -34 0
-34 1346 35 0
-34 -1346 -1359 -35 0
-34 1359 35 0
34 1346 -35 0
34 1359 -35 0
34 -1346 -1359 35 0
-35 1358 37 0
-35 -1358 -36 -38 0
-35 -1358 36 38 0
35 1358 -37 0
35 -1358 -36 38 0
35 -1358 36 -38 0
36 -1346 -24 0
-36 1346 0
-36 24 0
37 -1348 -1357 0
-37 1348 0
-37 1357 0
38 1347 -37 0
38 -1347 37 0
-38 -1347 -37 0
-38 1347 37 0
39 40 -41 0
39 -40 41 0
-39 -40 -41 0
-39 40 41 0
40 -1346 -1358 -24 0
-40 1346 0
-40 1358 0
-40 24 0
41 42 -43 0
41 -42 43 0
-41 -42 -43 0
-41 42 43 0
42 -1346 -1359 0
-42 1346 0
-42 1359 0
43 37 -44 0
43 -37 44 0
-43 -37 -44 0
-43 37 44 0
44 -1347 -1358 0
-44 1347 0
-44 1358 0
-45 46 61 73 93 0
-45 -46 -61 -73 -93 0
-45 46 61 -73 -93 0
-45 -46 -61 73 93 0
45 46 -61 0
45 -46 61 0
45 -73 93 0
45 73 -93 0
-46 47 0
46 -47 0
-47 48 0
47 -48 0
-48 49 0
48 -49 0
-49 50 0
49 -50 0
-50 51 0
50 -51 0
-51 52 0
51 -52 0
-52 53 0
52 -53 0
-53 1346 54 0
-53 -1346 -1360 -54 0
-53 1360 54 0
53 1346 -54 0
53 1360 -54 0
53 -1346 -1360 54 0
-54 1359 56 0
-54 -1359 -55 -60 0
-54 -1359 55 60 0
54 1359 -56 0
54 -1359 -55 60 0
54 -1359 55 -60 0
55 -1346 -35 0
-55 1346 0
-55 35 0
-56 1358 57 0
-56 -1358 58 59 0
-56 -1358 -58 -59 0
56 1358 -57 0
56 -1358 58 -59 0
56 -1358 -58 59 0
57 -1349 -1357 0
-57 1349 0
-57 1357 0
58 1348 -57 0
58 -1348 57 0
-58 -1348 -57 0
-58 1348 57 0
-59 1357 0
-59 1347 0
-59 1346 1348 0
59 -1346 -1347 -1357 0
59 -1347 -1348 -1357 0
60 -1347 56 0
60 1347 -56 0
-60 1347 56 0
-60 -1347 -56 0
61 62 -63 0
61 -62 63 0
-61 -62 -63 0
-61 62 63 0
62 -40 -41 0
-62 40 0
-62 41 0
63 64 -65 0
63 -64 65 0
-63 -64 -65 0
-63 64 65 0
64 -1347 -1358 -37 0
-64 1347 0
-64 1358 0
-64 37 0
65 66 -67 0
65 -66 67 0
-65 -66 -67 0
-65 66 67 0
66 -1346 -1359 -43 0
-66 1346 0
-66 1359 0
-66 43 0
67 68 -71 0
67 -68 71 0
-67 -68 -71 0
-67 68 71 0
68 69 -70 0
68 -69 70 0
-68 -69 -70 0
-68 69 70 0
69 -1346 -1360 0
-69 1346 0
-69 1360 0
70 -1347 -1359 0
-70 1347 0
-70 1359 0
71 57 -72 0
71 -57 72 0
-71 -57 -72 0
-71 57 72 0
72 -1348 -1358 0
-72 1348 0
-72 1358 0
-73 74 0
73 -74 0
-74 75 0
74 -75 0
-75 76 0
75 -76 0
-76 77 0
76 -77 0
-77 78 0
77 -78 0
-78 79 0
78 -79 0
-79 1346 80 0
-79 -1346 -1361 -80 0
-79 1361 80 0
79 1346 -80 0
79 1361 -80 0
79 -1346 -1361 80 0
-80 1360 82 0
-80 -1360 -81 -92 0
-80 -1360 81 92 0
80 1360 -82 0
80 -1360 -81 92 0
80 -1360 81 -92 0
81 -1346 -54 0
-81 1346 0
-81 54 0
-82 1359 83 0
-82 -1359 88 89 0
-82 -1359 -88 -89 0
82 1359 -83 0
82 -1359 88 -89 0
82 -1359 -88 89 0
-83 1358 84 0
-83 -1358 85 86 0
-83 -1358 -85 -86 0
83 1358 -84 0
83 -1358 85 -86 0
83 -1358 -85 86 0
84 -1350 -1357 0
-84 1350 0
-84 1357 0
85 1349 -84 0
85 -1349 84 0
-85 -1349 -84 0
-85 1349 84 0
-86 38 87 0
-86 36 87 0
-86 58 87 0
86 -87 0
86 -36 -38 -58 0
-87 1357 0
-87 1348 0
-87 1347 1349 0
87 -1347 -1348 -1357 0
87 -1348 -1349 -1357 0
88 -1348 83 0
88 1348 -83 0
-88 1348 83 0
-88 -1348 -83 0
-89 90 91 0
89 -90 0
89 -91 0
90 -1347 -56 0
-90 1347 0
-90 56 0
91 -55 -60 0
-91 55 0
-91 60 0
92 -1347 82 0
92 1347 -82 0
-92 1347 82 0
-92 -1347 -82 0
93 94 -95 0
93 -94 95 0
-93 -94 -95 0
-93 94 95 0
94 -62 -63 0
-94 62 0
-94 63 0
95 -96 110 0
95 96 -110 0
-95 96 110 0
-95 -96 -110 0
96 97 -98 0
96 -97 98 0
-96 -97 -98 0
-96 97 98 0
97 -1348 -1358 -57 0
-97 1348 0
-97 1358 0
-97 57 0
98 99 -100 0
98 -99 100 0
-98 -99 -100 0
-98 99 100 0
99 -68 -71 0
-99 68 0
-99 71 0
100 101 -108 0
100 -101 108 0
-100 -101 -108 0
-100 101 108 0
101 102 -103 0
101 -102 103 0
-101 -102 -103 0
-101 102 103 0
102 -1346 -1347 -1359 -1360 0
-102 1360 0
-102 1346 0
-102 1359 0
-102 1347 0
103 104 -107 0
103 -104 107 0
-103 -104 -107 0
-103 104 107 0
104 105 -106 0
104 -105 106 0
-104 -105 -106 0
-104 105 106 0
105 -1346 -1361 0
-105 1346 0
-105 1361 0
106 -1347 -1360 0
-106 1347 0
-106 1360 0
107 -1348 -1359 0
-107 1348 0
-107 1359 0
108 84 -109 0
108 -84 109 0
-108 -84 -109 0
-108 84 109 0
109 -1349 -1358 0
-109 1349 0
-109 1358 0
-110 67 0
-110 64 66 0
110 -66 -67 0
110 -64 -67 0
-111 -112 -136 164 303 0
-111 112 136 164 303 0
111 -303 0
111 -112 136 0
111 -164 0
111 112 -136 0
-112 113 0
112 -113 0
-113 114 0
113 -114 0
-114 115 0
114 -115 0
-115 116 0
115 -116 0
-116 117 0
116 -117 0
-117 1346 118 0
-117 -1346 -1362 -118 0
-117 1362 118 0
117 1346 -118 0
117 1362 -118 0
117 -1346 -1362 118 0
-118 1361 120 0
-118 1347 119 120 0
-118 -1347 -119 120 0
-118 1347 -1361 -119 -120 0
-118 -1347 -1361 119 -120 0
118 1361 -120 0
118 -1347 -119 -120 0
118 1347 119 -120 0
118 1347 -1361 -119 120 0
118 -1347 -1361 119 120 0
119 -1346 -80 0
-119 1346 0
-119 80 0
-120 1360 121 0
-120 -1360 132 133 0
-120 -1360 -132 -133 0
120 1360 -121 0
120 -1360 132 -133 0
120 -1360 -132 133 0
-121 1359 122 0
-121 -1359 128 129 0
-121 -1359 -128 -129 0
121 1359 -122 0
121 -1359 128 -129 0
121 -1359 -128 129 0
-122 1358 123 0
-122 -1358 124 125 0
-122 -1358 -124 -125 0
122 1358 -123 0
122 -1358 124 -125 0
122 -1358 -124 125 0
123 -1351 -1357 0
-123 1351 0
-123 1357 0
124 1350 -123 0
124 -1350 123 0
-124 -1350 -123 0
-124 1350 123 0
-125 126 127 0
125 -126 0
125 -127 0
126 -1349 -84 0
-126 1349 0
-126 84 0
127 -85 -86 0
-127 85 0
-127 86 0
128 -1349 122 0
128 1349 -122 0
-128 1349 122 0
-128 -1349 -122 0
-129 130 131 0
129 -130 0
129 -131 0
130 -1348 -83 0
-130 1348 0
-130 83 0
131 -88 -89 0
-131 88 0
-131 89 0
132 -1348 121 0
132 1348 -121 0
-132 1348 121 0
-132 -1348 -121 0
-133 134 135 0
133 -134 0
133 -135 0
134 -1347 -82 0
-134 1347 0
-134 82 0
135 -81 -92 0
-135 81 0
-135 92 0
136 -137 161 0
136 137 -161 0
-136 137 161 0
-136 -137 -161 0
137 -138 158 0
137 138 -158 0
-137 138 158 0
-137 -138 -158 0
138 139 -140 0
138 -139 140 0
-138 -139 -140 0
-138 139 140 0
139 -1349 -1358 -84 0
-139 1349 0
-139 1358 0
-139 84 0
140 141 -142 0
140 -141 142 0
-140 -141 -142 0
-140 141 142 0
141 -101 -108 0
-141 101 0
-141 108 0
142 143 -154 0
142 -143 154 0
-142 -143 -154 0
-142 143 154 0
143 144 -145 0
143 -144 145 0
-143 -144 -145 0
-143 144 145 0
144 -1346 -1362 0
-144 1346 0
-144 1362 0
145 -146 151 0
145 146 -151 0
-145 146 151 0
-145 -146 -151 0
146 147 -150 0
146 -147 150 0
-146 -147 -150 0
-146 147 150 0
147 148 -149 0
147 -148 149 0
-147 -148 -149 0
-147 148 149 0
148 -1347 -1361 0
-148 1347 0
-148 1361 0
149 -1348 -1360 0
-149 1348 0
-149 1360 0
150 -1349 -1359 0
-150 1349 0
-150 1359 0
-151 152 153 0
151 -152 0
151 -153 0
152 -1346 -1347 -1360 -1361 0
-152 1361 0
-152 1346 0
-152 1360 0
-152 1347 0
153 -1348 -1359 -104 0
-153 1348 0
-153 1359 0
-153 104 0
154 123 -155 0
154 -123 155 0
-154 -123 -155 0
-154 123 155 0
155 156 -157 0
155 -156 157 0
-155 -156 -157 0
-155 156 157 0
156 -102 -103 0
-156 102 0
-156 103 0
157 -1350 -1358 0
-157 1350 0
-157 1358 0
-158 159 160 0
158 -159 0
158 -160 0
159 -99 -100 0
-159 99 0
-159 100 0
160 -97 -98 0
-160 97 0
-160 98 0
-161 162 163 0
161 -162 0
161 -163 0
162 -96 -110 0
-162 96 0
-162 110 0
163 -94 -95 0
-163 94 0
-163 95 0
-164 165 195 230 263 0
-164 -165 -195 -230 -263 0
-164 165 195 -230 -263 0
-164 -165 -195 230 263 0
164 165 -195 0
164 -165 195 0
164 -230 263 0
164 230 -263 0
-165 166 0
165 -166 0
-166 167 0
166 -167 0
-167 168 0
167 -168 0
-168 169 0
168 -169 0
-169 1346 170 0
-169 -1346 -1363 -170 0
-169 1363 170 0
169 1346 -170 0
169 1363 -170 0
169 -1346 -1363 170 0
-170 1362 172 0
-170 -1362 -171 -194 0
-170 -1362 171 194 0
170 1362 -172 0
170 -1362 -171 194 0
170 -1362 171 -194 0
171 -1346 -118 0
-171 1346 0
-171 118 0
-172 1361 173 0
-172 -1348 173 -190 0
-172 1348 173 190 0
-172 -1348 -1361 -173 190 0
-172 1348 -1361 -173 -190 0
172 1361 -173 0
172 1348 -1361 173 -190 0
172 1348 -173 190 0
172 -1348 -173 -190 0
172 -1348 -1361 173 190 0
-173 1360 174 0
-173 -1360 186 187 0
-173 -1360 -186 -187 0
173 1360 -174 0
173 -1360 186 -187 0
173 -1360 -186 187 0
-174 1359 175 0
-174 -1359 181 182 0
-174 -1359 -181 -182 0
174 1359 -175 0
174 -1359 181 -182 0
174 -1359 -181 182 0
-175 1358 176 0
-175 -1358 177 178 0
-175 -1358 -177 -178 0
175 1358 -176 0
175 -1358 177 -178 0
175 -1358 -177 178 0
176 -1352 -1357 0
-176 1352 0
-176 1357 0
177 1351 -176 0
177 -1351 176 0
-177 -1351 -176 0
-177 1351 176 0
-178 86 179 0
-178 179 180 0
178 -179 0
178 -86 -180 0
-179 1357 0
-179 1350 0
-179 1349 1351 0
179 -1349 -1350 -1357 0
179 -1350 -1351 -1357 0
180 -85 -124 0
-180 85 0
-180 124 0
181 -1350 175 0
181 1350 -175 0
-181 1350 175 0
-181 -1350 -175 0
-182 89 183 0
-182 183 185 0
182 -183 0
182 -89 -185 0
-183 184 128 0
-183 130 184 0
183 -184 0
183 -130 -128 0
184 -1349 -122 0
-184 1349 0
-184 122 0
185 -88 -128 0
-185 88 0
-185 128 0
186 -1349 174 0
186 1349 -174 0
-186 1349 174 0
-186 -1349 -174 0
-187 81 188 0
-187 188 189 0
187 -188 0
187 -81 -189 0
-188 134 121 0
-188 1348 134 0
-188 1348 121 0
188 -1348 -134 0
188 -134 -121 0
188 -1348 -121 0
189 -92 -132 0
-189 92 0
-189 132 0
-190 191 192 0
190 -191 0
190 -192 0
191 -1347 -120 0
-191 1347 0
-191 120 0
192 -119 -193 0
-192 119 0
-192 193 0
193 -1347 120 0
193 1347 -120 0
-193 1347 120 0
-193 -1347 -120 0
194 -1347 172 0
194 1347 -172 0
-194 1347 172 0
-194 -1347 -172 0
195 -196 226 0
195 196 -226 0
-195 196 226 0
-195 -196 -226 0
196 -197 223 0
196 197 -223 0
-196 197 223 0
-196 -197 -223 0
197 -198 220 0
197 198 -220 0
-197 198 220 0
-197 -198 -220 0
198 199 -200 0
198 -199 200 0
-198 -199 -200 0
-198 199 200 0
199 -143 -154 0
-199 143 0
-199 154 0
200 201 -216 0
200 -201 216 0
-200 -201 -216 0
-200 201 216 0
201 202 -203 0
201 -202 203 0
-201 -202 -203 0
-201 202 203 0
202 -1346 -1362 -145 0
-202 1346 0
-202 1362 0
-202 145 0
203 204 -207 0
203 -204 207 0
-203 -204 -207 0
-203 204 207 0
204 205 -206 0
204 -205 206 0
-204 -205 -206 0
-204 205 206 0
205 -1346 -1363 0
-205 1346 0
-205 1363 0
206 -1347 -1362 0
-206 1347 0
-206 1362 0
207 -208 213 0
207 208 -213 0
-207 208 213 0
-207 -208 -213 0
208 209 -212 0
208 -209 212 0
-208 -209 -212 0
-208 209 212 0
209 210 -211 0
209 -210 211 0
-209 -210 -211 0
-209 210 211 0
210 -1348 -1361 0
-210 1348 0
-210 1361 0
211 -1349 -1360 0
-211 1349 0
-211 1360 0
212 -1350 -1359 0
-212 1350 0
-212 1359 0
-213 214 215 0
213 -214 0
213 -215 0
214 -1347 -1348 -1360 -1361 0
-214 1361 0
-214 1347 0
-214 1360 0
-214 1348 0
215 -1349 -1359 -147 0
-215 1349 0
-215 1359 0
-215 147 0
216 176 -217 0
216 -176 217 0
-216 -176 -217 0
-216 176 217 0
217 218 -219 0
217 -218 219 0
-217 -218 -219 0
-217 218 219 0
218 -146 -151 0
-218 146 0
-218 151 0
219 -1351 -1358 0
-219 1351 0
-219 1358 0
-220 221 222 0
220 -221 0
220 -222 0
221 -1350 -1358 -156 0
-221 1350 0
-221 1358 0
-221 156 0
222 -123 -155 0
-222 123 0
-222 155 0
-223 224 225 0
223 -224 0
223 -225 0
224 -141 -142 0
-224 141 0
-224 142 0
225 -139 -140 0
-225 139 0
-225 140 0
-226 94 227 0
-226 227 229 0
226 -227 0
226 -94 -229 0
-227 228 137 0
-227 162 228 0
227 -228 0
227 -162 -137 0
228 -138 -158 0
-228 138 0
-228 158 0
229 -95 -137 0
-229 95 0
-229 137 0
-230 231 0
230 -231 0
-231 232 0
231 -232 0
-232 233 0
232 -233 0
-233 1346 234 0
-233 -1346 -1364 -234 0
-233 1364 234 0
233 1346 -234 0
233 1364 -234 0
233 -1346 -1364 234 0
-234 1363 236 0
-234 1347 235 236 0
-234 -1347 -235 236 0
-234 1347 -1363 -235 -236 0
-234 -1347 -1363 235 -236 0
234 1363 -236 0
234 -1347 -235 -236 0
234 1347 235 -236 0
234 1347 -1363 -235 236 0
234 -1347 -1363 235 236 0
235 -1346 -170 0
-235 1346 0
-235 170 0
-236 1362 237 0
-236 -1362 259 260 0
-236 -1362 -259 -260 0
236 1362 -237 0
236 -1362 259 -260 0
236 -1362 -259 260 0
-237 1361 238 0
-237 -1361 254 255 0
-237 -1361 -254 -255 0
237 1361 -238 0
237 -1361 254 -255 0
237 -1361 -254 255 0
-238 1360 239 0
-238 -1360 250 251 0
-238 -1360 -250 -251 0
238 1360 -239 0
238 -1360 250 -251 0
238 -1360 -250 251 0
-239 1359 240 0
-239 -1359 246 247 0
-239 -1359 -246 -247 0
239 1359 -240 0
239 -1359 246 -247 0
239 -1359 -246 247 0
-240 1358 241 0
-240 -1358 242 243 0
-240 -1358 -242 -243 0
240 1358 -241 0
240 -1358 242 -243 0
240 -1358 -242 243 0
241 -1353 -1357 0
-241 1353 0
-241 1357 0
242 1352 -241 0
242 -1352 241 0
-242 -1352 -241 0
-242 1352 241 0
-243 244 245 0
243 -244 0
243 -245 0
244 -1351 -176 0
-244 1351 0
-244 176 0
245 -177 -178 0
-245 177 0
-245 178 0
246 -1351 240 0
246 1351 -240 0
-246 1351 240 0
-246 -1351 -240 0
-247 248 249 0
247 -248 0
247 -249 0
248 -1350 -175 0
-248 1350 0
-248 175 0
249 -181 -182 0
-249 181 0
-249 182 0
250 -1350 239 0
250 1350 -239 0
-250 1350 239 0
-250 -1350 -239 0
-251 252 253 0
251 -252 0
251 -253 0
252 -1349 -174 0
-252 1349 0
-252 174 0
253 -186 -187 0
-253 186 0
-253 187 0
254 -1349 238 0
254 1349 -238 0
-254 1349 238 0
-254 -1349 -238 0
-255 256 257 0
255 -256 0
255 -257 0
256 -1348 -173 0
-256 1348 0
-256 173 0
257 -258 -190 0
-257 258 0
-257 190 0
258 -1348 173 0
258 1348 -173 0
-258 1348 173 0
-258 -1348 -173 0
259 -1348 237 0
259 1348 -237 0
-259 1348 237 0
-259 -1348 -237 0
-260 261 262 0
260 -261 0
260 -262 0
261 -1347 -172 0
-261 1347 0
-261 172 0
262 -171 -194 0
-262 171 0
-262 194 0
263 -264 300 0
263 264 -300 0
-263 264 300 0
-263 -264 -300 0
264 -265 297 0
264 265 -297 0
-264 265 297 0
-264 -265 -297 0
265 -266 294 0
265 266 -294 0
-265 266 294 0
-265 -266 -294 0
266 -267 291 0
266 267 -291 0
-266 267 291 0
-266 -267 -291 0
267 268 -287 0
267 -268 287 0
-267 -268 -287 0
-267 268 287 0
268 269 -270 0
268 -269 270 0
-268 -269 -270 0
-268 269 270 0
269 -204 -207 0
-269 204 0
-269 207 0
270 271 -276 0
270 -271 276 0
-270 -271 -276 0
-270 271 276 0
271 272 -275 0
271 -272 275 0
-271 -272 -275 0
-271 272 275 0
272 273 -274 0
272 -273 274 0
-272 -273 -274 0
-272 273 274 0
273 -1346 -1364 0
-273 1346 0
-273 1364 0
274 -1347 -1363 0
-274 1347 0
-274 1363 0
275 -1348 -1362 0
-275 1348 0
-275 1362 0
276 -277 284 0
276 277 -284 0
-276 277 284 0
-276 -277 -284 0
277 278 -279 0
277 -278 279 0
-277 -278 -279 0
-277 278 279 0
278 -1346 -1347 -1362 -1363 0
-278 1363 0
-278 1346 0
-278 1362 0
-278 1347 0
279 280 -283 0
279 -280 283 0
-279 -280 -283 0
-279 280 283 0
280 281 -282 0
280 -281 282 0
-280 -281 -282 0
-280 281 282 0
281 -1349 -1361 0
-281 1349 0
-281 1361 0
282 -1350 -1360 0
-282 1350 0
-282 1360 0
283 -1351 -1359 0
-283 1351 0
-283 1359 0
-284 285 286 0
284 -285 0
284 -286 0
285 -1348 -1349 -1360 -1361 0
-285 1361 0
-285 1348 0
-285 1360 0
-285 1349 0
286 -1350 -1359 -209 0
-286 1350 0
-286 1359 0
-286 209 0
287 241 -288 0
287 -241 288 0
-287 -241 -288 0
-287 241 288 0
288 289 -290 0
288 -289 290 0
-288 -289 -290 0
-288 289 290 0
289 -208 -213 0
-289 208 0
-289 213 0
290 -1352 -1358 0
-290 1352 0
-290 1358 0
-291 292 293 0
291 -292 0
291 -293 0
292 -202 -203 0
-292 202 0
-292 203 0
293 -201 -216 0
-293 201 0
-293 216 0
-294 295 296 0
294 -295 0
294 -296 0
295 -1351 -1358 -218 0
-295 1351 0
-295 1358 0
-295 218 0
296 -176 -217 0
-296 176 0
-296 217 0
-297 298 299 0
297 -298 0
297 -299 0
298 -199 -200 0
-298 199 0
-298 200 0
299 -198 -220 0
-299 198 0
-299 220 0
-300 301 302 0
300 -301 0
300 -302 0
301 -197 -223 0
-301 197 0
-301 223 0
302 -196 -226 0
-302 196 0
-302 226 0
-303 -304 -343 391 0
-303 304 343 391 0
303 -391 0
303 -304 343 0
303 304 -343 0
-304 305 0
304 -305 0
-305 306 0
305 -306 0
-306 1346 307 0
-306 -1346 -1365 -307 0
-306 1365 307 0
306 1346 -307 0
306 1365 -307 0
306 -1346 -1365 307 0
-307 1364 309 0
-307 -1364 -308 -342 0
-307 -1364 308 342 0
307 1364 -309 0
307 -1364 -308 342 0
307 -1364 308 -342 0
308 -1346 -234 0
-308 1346 0
-308 234 0
-309 1363 310 0
-309 -1348 310 -338 0
-309 1348 310 338 0
-309 -1348 -1363 -310 338 0
-309 1348 -1363 -310 -338 0
309 1363 -310 0
309 1348 -1363 310 -338 0
309 1348 -310 338 0
309 -1348 -310 -338 0
309 -1348 -1363 310 338 0
-310 1362 311 0
-310 -1349 311 -335 0
-310 1349 311 335 0
-310 -1349 -1362 -311 335 0
-310 1349 -1362 -311 -335 0
310 1362 -311 0
310 1349 -1362 311 -335 0
310 1349 -311 335 0
310 -1349 -311 -335 0
310 -1349 -1362 311 335 0
-311 1361 312 0
-311 -1350 312 -332 0
-311 1350 312 332 0
-311 -1350 -1361 -312 332 0
-311 1350 -1361 -312 -332 0
311 1361 -312 0
311 1350 -1361 312 -332 0
311 1350 -312 332 0
311 -1350 -312 -332 0
311 -1350 -1361 312 332 0
-312 1360 313 0
-312 -1351 313 -327 0
-312 1351 313 327 0
-312 -1351 -1360 -313 327 0
-312 1351 -1360 -313 -327 0
312 1360 -313 0
312 1351 -1360 313 -327 0
312 1351 -313 327 0
312 -1351 -313 -327 0
312 -1351 -1360 313 327 0
-313 1359 314 0
-313 -1359 321 322 0
-313 -1359 -321 -322 0
313 1359 -314 0
313 -1359 321 -322 0
313 -1359 -321 322 0
-314 1358 315 0
-314 -1358 316 317 0
-314 -1358 -316 -317 0
314 1358 -315 0
314 -1358 316 -317 0
314 -1358 -316 317 0
315 -1354 -1357 0
-315 1354 0
-315 1357 0
316 1353 -315 0
316 -1353 315 0
-316 -1353 -315 0
-316 1353 315 0
-317 180 319 0
-317 318 319 0
-317 86 319 0
317 -319 0
317 -86 -180 -318 0
318 -177 -242 0
-318 177 0
-318 242 0
-319 179 320 0
-319 320 318 0
319 -320 0
319 -179 -318 0
-320 1357 0
-320 1352 0
-320 1351 1353 0
320 -1351 -1352 -1357 0
320 -1352 -1353 -1357 0
321 -1352 314 0
321 1352 -314 0
-321 1352 314 0
-321 -1352 -314 0
-322 185 324 0
-322 323 324 0
-322 89 324 0
322 -324 0
322 -89 -185 -323 0
323 -181 -246 0
-323 181 0
-323 246 0
-324 248 325 326 0
-324 325 246 326 0
324 -326 0
324 -325 0
324 -248 -246 0
325 -1351 -240 0
-325 1351 0
-325 240 0
326 -183 -323 0
-326 183 0
-326 323 0
-327 189 329 0
-327 81 329 0
-327 328 329 0
327 -329 0
327 -81 -189 -328 0
328 -186 -250 0
-328 186 0
-328 250 0
-329 188 330 331 0
-329 330 331 328 0
329 -331 0
329 -330 0
329 -188 -328 0
330 -1350 -239 0
-330 1350 0
-330 239 0
331 -252 -250 0
-331 252 0
-331 250 0
-332 258 333 0
-332 190 333 0
-332 254 333 0
332 -333 0
332 -258 -190 -254 0
-333 334 254 0
-333 256 334 0
333 -334 0
333 -256 -254 0
334 -1349 -238 0
-334 1349 0
-334 238 0
-335 194 336 0
-335 171 336 0
-335 259 336 0
335 -336 0
335 -171 -194 -259 0
-336 337 259 0
-336 261 337 0
336 -337 0
336 -261 -259 0
337 -1348 -237 0
-337 1348 0
-337 237 0
-338 339 340 0
338 -339 0
338 -340 0
339 -1347 -236 0
-339 1347 0
-339 236 0
340 -235 -341 0
-340 235 0
-340 341 0
341 -1347 236 0
341 1347 -236 0
-341 1347 236 0
-341 -1347 -236 0
342 -1347 309 0
342 1347 -309 0
-342 1347 309 0
-342 -1347 -309 0
343 -344 386 0
343 344 -386 0
-343 344 386 0
-343 -344 -386 0
344 -345 383 0
344 345 -383 0
-344 345 383 0
-344 -345 -383 0
345 -346 380 0
345 346 -380 0
-345 346 380 0
-345 -346 -380 0
346 -347 377 0
346 347 -377 0
-346 347 377 0
-346 -347 -377 0
347 348 -371 0
347 -348 371 0
-347 -348 -371 0
-347 348 371 0
348 349 -350 0
348 -349 350 0
-348 -349 -350 0
-348 349 350 0
349 -271 -276 0
-349 271 0
-349 276 0
350 351 -358 0
350 -351 358 0
-350 -351 -358 0
-350 351 358 0
351 352 -353 0
351 -352 353 0
-351 -352 -353 0
-351 352 353 0
352 -1346 -1365 0
-352 1346 0
-352 1365 0
353 354 -357 0
353 -354 357 0
-353 -354 -357 0
-353 354 357 0
354 355 -356 0
354 -355 356 0
-354 -355 -356 0
-354 355 356 0
355 -1347 -1364 0
-355 1347 0
-355 1364 0
356 -1348 -1363 0
-356 1348 0
-356 1363 0
357 -1349 -1362 0
-357 1349 0
-357 1362 0
358 -359 368 0
358 359 -368 0
-358 359 368 0
-358 -359 -368 0
359 360 -363 0
359 -360 363 0
-359 -360 -363 0
-359 360 363 0
-360 361 362 0
360 -361 0
360 -362 0
361 -1346 -1347 -1363 -1364 0
-361 1364 0
-361 1346 0
-361 1363 0
-361 1347 0
362 -1348 -1362 -272 0
-362 1348 0
-362 1362 0
-362 272 0
363 364 -367 0
363 -364 367 0
-363 -364 -367 0
-363 364 367 0
364 365 -366 0
364 -365 366 0
-364 -365 -366 0
-364 365 366 0
365 -1350 -1361 0
-365 1350 0
-365 1361 0
366 -1351 -1360 0
-366 1351 0
-366 1360 0
367 -1352 -1359 0
-367 1352 0
-367 1359 0
-368 369 370 0
368 -369 0
368 -370 0
369 -1349 -1350 -1360 -1361 0
-369 1361 0
-369 1349 0
-369 1360 0
-369 1350 0
370 -1351 -1359 -280 0
-370 1351 0
-370 1359 0
-370 280 0
371 315 -372 0
371 -315 372 0
-371 -315 -372 0
-371 315 372 0
372 373 -376 0
372 -373 376 0
-372 -373 -376 0
-372 373 376 0
-373 374 375 0
373 -374 0
373 -375 0
374 -278 -279 0
-374 278 0
-374 279 0
375 -277 -284 0
-375 277 0
-375 284 0
376 -1353 -1358 0
-376 1353 0
-376 1358 0
-377 378 379 0
377 -378 0
377 -379 0
378 -269 -270 0
-378 269 0
-378 270 0
379 -268 -287 0
-379 268 0
-379 287 0
-380 381 382 0
380 -381 0
380 -382 0
381 -1352 -1358 -289 0
-381 1352 0
-381 1358 0
-381 289 0
382 -241 -288 0
-382 241 0
-382 288 0
-383 384 385 0
383 -384 0
383 -385 0
384 -267 -291 0
-384 267 0
-384 291 0
385 -266 -294 0
-385 266 0
-385 294 0
-386 229 388 0
-386 94 388 0
-386 387 388 0
386 -388 0
386 -94 -229 -387 0
387 -196 -264 0
-387 196 0
-387 264 0
-388 301 389 390 0
-388 389 264 390 0
388 -390 0
388 -389 0
388 -301 -264 0
389 -265 -297 0
-389 265 0
-389 297 0
390 -227 -387 0
-390 227 0
-390 387 0
-391 392 436 486 527 0
-391 -392 -436 -486 -527 0
-391 392 436 -486 -527 0
-391 -392 -436 486 527 0
391 392 -436 0
391 -392 436 0
391 -486 527 0
391 486 -527 0
-392 393 0
392 -393 0
-393 1346 394 0
-393 -1346 -1366 -394 0
-393 1366 394 0
393 1346 -394 0
393 1366 -394 0
393 -1346 -1366 394 0
-394 1365 396 0
-394 1347 395 396 0
-394 -1347 -395 396 0
-394 1347 -1365 -395 -396 0
-394 -1347 -1365 395 -396 0
394 1365 -396 0
394 -1347 -395 -396 0
394 1347 395 -396 0
394 1347 -1365 -395 396 0
394 -1347 -1365 395 396 0
395 -1346 -307 0
-395 1346 0
-395 307 0
-396 1364 397 0
-396 -1364 432 433 0
-396 -1364 -432 -433 0
396 1364 -397 0
396 -1364 432 -433 0
396 -1364 -432 433 0
-397 1363 398 0
-397 -1363 427 428 0
-397 -1363 -427 -428 0
397 1363 -398 0
397 -1363 427 -428 0
397 -1363 -427 428 0
-398 1362 399 0
-398 -1362 422 423 0
-398 -1362 -422 -423 0
398 1362 -399 0
398 -1362 422 -423 0
398 -1362 -422 423 0
-399 1361 400 0
-399 -1361 417 418 0
-399 -1361 -417 -418 0
399 1361 -400 0
399 -1361 417 -418 0
399 -1361 -417 418 0
-400 1360 401 0
-400 -1360 412 413 0
-400 -1360 -412 -413 0
400 1360 -401 0
400 -1360 412 -413 0
400 -1360 -412 413 0
-401 1359 402 0
-401 -1359 408 409 0
-401 -1359 -408 -409 0
401 1359 -402 0
401 -1359 408 -409 0
401 -1359 -408 409 0
-402 1358 403 0
-402 -1358 404 405 0
-402 -1358 -404 -405 0
402 1358 -403 0
402 -1358 404 -405 0
402 -1358 -404 405 0
403 -1355 -1357 0
-403 1355 0
-403 1357 0
404 1354 -403 0
404 -1354 403 0
-404 -1354 -403 0
-404 1354 403 0
-405 406 407 0
405 -406 0
405 -407 0
406 -1353 -315 0
-406 1353 0
-406 315 0
407 -316 -317 0
-407 316 0
-407 317 0
408 -1353 402 0
408 1353 -402 0
-408 1353 402 0
-408 -1353 -402 0
-409 410 411 0
409 -410 0
409 -411 0
410 -1352 -314 0
-410 1352 0
-410 314 0
411 -321 -322 0
-411 321 0
-411 322 0
412 -1352 401 0
412 1352 -401 0
-412 1352 401 0
-412 -1352 -401 0
-413 414 415 0
413 -414 0
413 -415 0
414 -1351 -313 0
-414 1351 0
-414 313 0
415 -416 -327 0
-415 416 0
-415 327 0
416 -1351 313 0
416 1351 -313 0
-416 1351 313 0
-416 -1351 -313 0
417 -1351 400 0
417 1351 -400 0
-417 1351 400 0
-417 -1351 -400 0
-418 419 420 0
418 -419 0
418 -420 0
419 -1350 -312 0
-419 1350 0
-419 312 0
420 -421 -332 0
-420 421 0
-420 332 0
421 -1350 312 0
421 1350 -312 0
-421 1350 312 0
-421 -1350 -312 0
422 -1350 399 0
422 1350 -399 0
-422 1350 399 0
-422 -1350 -399 0
-423 424 425 0
423 -424 0
423 -425 0
424 -1349 -311 0
-424 1349 0
-424 311 0
425 -426 -335 0
-425 426 0
-425 335 0
426 -1349 311 0
426 1349 -311 0
-426 1349 311 0
-426 -1349 -311 0
427 -1349 398 0
427 1349 -398 0
-427 1349 398 0
-427 -1349 -398 0
-428 429 430 0
428 -429 0
428 -430 0
429 -1348 -310 0
-429 1348 0
-429 310 0
430 -431 -338 0
-430 431 0
-430 338 0
431 -1348 310 0
431 1348 -310 0
-431 1348 310 0
-431 -1348 -310 0
432 -1348 397 0
432 1348 -397 0
-432 1348 397 0
-432 -1348 -397 0
-433 434 435 0
433 -434 0
433 -435 0
434 -1347 -309 0
-434 1347 0
-434 309 0
435 -308 -342 0
-435 308 0
-435 342 0
436 -437 483 0
436 437 -483 0
-436 437 483 0
-436 -437 -483 0
437 -438 480 0
437 438 -480 0
-437 438 480 0
-437 -438 -480 0
438 -439 477 0
438 439 -477 0
-438 439 477 0
-438 -439 -477 0
439 -440 474 0
439 440 -474 0
-439 440 474 0
-439 -440 -474 0
440 441 -468 0
440 -441 468 0
-440 -441 -468 0
-440 441 468 0
441 442 -443 0
441 -442 443 0
-441 -442 -443 0
-441 442 443 0
442 -351 -358 0
-442 351 0
-442 358 0
443 444 -455 0
443 -444 455 0
-443 -444 -455 0
-443 444 455 0
444 445 -446 0
444 -445 446 0
-444 -445 -446 0
-444 445 446 0
445 -1346 -1365 -353 0
-445 1346 0
-445 1365 0
-445 353 0
446 447 -450 0
446 -447 450 0
-446 -447 -450 0
-446 447 450 0
447 448 -449 0
447 -448 449 0
-447 -448 -449 0
-447 448 449 0
448 -1346 -1366 0
-448 1346 0
-448 1366 0
449 -1347 -1365 0
-449 1347 0
-449 1365 0
450 451 -454 0
450 -451 454 0
-450 -451 -454 0
-450 451 454 0
451 452 -453 0
451 -452 453 0
-451 -452 -453 0
-451 452 453 0
452 -1348 -1364 0
-452 1348 0
-452 1364 0
453 -1349 -1363 0
-453 1349 0
-453 1363 0
454 -1350 -1362 0
-454 1350 0
-454 1362 0
455 -456 465 0
455 456 -465 0
-455 456 465 0
-455 -456 -465 0
456 457 -460 0
456 -457 460 0
-456 -457 -460 0
-456 457 460 0
-457 458 459 0
457 -458 0
457 -459 0
458 -1347 -1348 -1363 -1364 0
-458 1364 0
-458 1347 0
-458 1363 0
-458 1348 0
459 -1349 -1362 -354 0
-459 1349 0
-459 1362 0
-459 354 0
460 461 -464 0
460 -461 464 0
-460 -461 -464 0
-460 461 464 0
461 462 -463 0
461 -462 463 0
-461 -462 -463 0
-461 462 463 0
462 -1351 -1361 0
-462 1351 0
-462 1361 0
463 -1352 -1360 0
-463 1352 0
-463 1360 0
464 -1353 -1359 0
-464 1353 0
-464 1359 0
-465 466 467 0
465 -466 0
465 -467 0
466 -1350 -1351 -1360 -1361 0
-466 1361 0
-466 1350 0
-466 1360 0
-466 1351 0
467 -1352 -1359 -364 0
-467 1352 0
-467 1359 0
-467 364 0
468 403 -469 0
468 -403 469 0
-468 -403 -469 0
-468 403 469 0
469 470 -473 0
469 -470 473 0
-469 -470 -473 0
-469 470 473 0
-470 471 472 0
470 -471 0
470 -472 0
471 -360 -363 0
-471 360 0
-471 363 0
472 -359 -368 0
-472 359 0
-472 368 0
473 -1354 -1358 0
-473 1354 0
-473 1358 0
-474 475 476 0
474 -475 0
474 -476 0
475 -349 -350 0
-475 349 0
-475 350 0
476 -348 -371 0
-476 348 0
-476 371 0
-477 478 479 0
477 -478 0
477 -479 0
478 -1353 -1358 -373 0
-478 1353 0
-478 1358 0
-478 373 0
479 -315 -372 0
-479 315 0
-479 372 0
-480 481 482 0
480 -481 0
480 -482 0
481 -347 -377 0
-481 347 0
-481 377 0
482 -346 -380 0
-482 346 0
-482 380 0
-483 484 485 0
483 -484 0
483 -485 0
484 -345 -383 0
-484 345 0
-484 383 0
485 -344 -386 0
-485 344 0
-485 386 0
-486 1346 487 0
-486 -1346 -1367 -487 0
-486 1367 487 0
486 1346 -487 0
486 1367 -487 0
486 -1346 -1367 487 0
-487 1366 489 0
-487 1347 488 489 0
-487 -1347 -488 489 0
-487 1347 -1366 -488 -489 0
-487 -1347 -1366 488 -489 0
487 1366 -489 0
487 -1347 -488 -489 0
487 1347 488 -489 0
487 1347 -1366 -488 489 0
487 -1347 -1366 488 489 0
488 -1346 -394 0
-488 1346 0
-488 394 0
-489 1365 490 0
-489 -1348 490 -523 0
-489 1348 490 523 0
-489 -1348 -1365 -490 523 0
-489 1348 -1365 -490 -523 0
489 1365 -490 0
489 1348 -1365 490 -523 0
489 1348 -490 523 0
489 -1348 -490 -523 0
489 -1348 -1365 490 523 0
-490 1364 491 0
-490 -1349 491 -520 0
-490 1349 491 520 0
-490 -1349 -1364 -491 520 0
-490 1349 -1364 -491 -520 0
490 1364 -491 0
490 1349 -1364 491 -520 0
490 1349 -491 520 0
490 -1349 -491 -520 0
490 -1349 -1364 491 520 0
-491 1363 492 0
-491 -1350 492 -517 0
-491 1350 492 517 0
-491 -1350 -1363 -492 517 0
-491 1350 -1363 -492 -517 0
491 1363 -492 0
491 1350 -1363 492 -517 0
491 1350 -492 517 0
491 -1350 -492 -517 0
491 -1350 -1363 492 517 0
-492 1362 493 0
-492 -1351 493 -514 0
-492 1351 493 514 0
-492 -1351 -1362 -493 514 0
-492 1351 -1362 -493 -514 0
492 1362 -493 0
492 1351 -1362 493 -514 0
492 1351 -493 514 0
492 -1351 -493 -514 0
492 -1351 -1362 493 514 0
-493 1361 494 0
-493 -1352 494 -511 0
-493 1352 494 511 0
-493 -1352 -1361 -494 511 0
-493 1352 -1361 -494 -511 0
493 1361 -494 0
493 1352 -1361 494 -511 0
493 1352 -494 511 0
493 -1352 -494 -511 0
493 -1352 -1361 494 511 0
-494 1360 495 0
-494 -1353 495 -507 0
-494 1353 495 507 0
-494 -1353 -1360 -495 507 0
-494 1353 -1360 -495 -507 0
494 1360 -495 0
494 1353 -1360 495 -507 0
494 1353 -495 507 0
494 -1353 -495 -507 0
494 -1353 -1360 495 507 0
-495 1359 496 0
-495 -1359 502 503 0
-495 -1359 -502 -503 0
495 1359 -496 0
495 -1359 502 -503 0
495 -1359 -502 503 0
-496 1358 497 0
-496 -1358 498 499 0
-496 -1358 -498 -499 0
496 1358 -497 0
496 -1358 498 -499 0
496 -1358 -498 499 0
497 -1356 -1357 0
-497 1356 0
-497 1357 0
498 1355 -497 0
498 -1355 497 0
-498 -1355 -497 0
-498 1355 497 0
-499 317 500 0
-499 500 501 0
499 -500 0
499 -317 -501 0
-500 1357 0
-500 1354 0
-500 1353 1355 0
500 -1353 -1354 -1357 0
500 -1354 -1355 -1357 0
501 -316 -404 0
-501 316 0
-501 404 0
502 -1354 496 0
502 1354 -496 0
-502 1354 496 0
-502 -1354 -496 0
-503 322 504 0
-503 504 506 0
503 -504 0
503 -322 -506 0
-504 505 408 0
-504 410 505 0
504 -505 0
504 -410 -408 0
505 -1353 -402 0
-505 1353 0
-505 402 0
506 -321 -408 0
-506 321 0
-506 408 0
-507 327 508 0
-507 508 510 0
507 -508 0
507 -327 -510 0
-508 509 412 0
-508 414 509 0
508 -509 0
508 -414 -412 0
509 -1352 -401 0
-509 1352 0
-509 401 0
510 -416 -412 0
-510 416 0
-510 412 0
-511 332 512 0
-511 512 513 0
511 -512 0
511 -332 -513 0
-512 419 400 0
-512 1351 419 0
-512 1351 400 0
512 -1351 -419 0
512 -419 -400 0
512 -1351 -400 0
513 -421 -417 0
-513 421 0
-513 417 0
-514 335 515 0
-514 515 516 0
514 -515 0
514 -335 -516 0
-515 424 399 0
-515 1350 424 0
-515 1350 399 0
515 -1350 -424 0
515 -424 -399 0
515 -1350 -399 0
516 -426 -422 0
-516 426 0
-516 422 0
-517 338 518 0
-517 518 519 0
517 -518 0
517 -338 -519 0
-518 429 398 0
-518 1349 429 0
-518 1349 398 0
518 -1349 -429 0
518 -429 -398 0
518 -1349 -398 0
519 -431 -427 0
-519 431 0
-519 427 0
-520 308 521 0
-520 521 522 0
520 -521 0
520 -308 -522 0
-521 434 397 0
-521 1348 434 0
-521 1348 397 0
521 -1348 -434 0
521 -434 -397 0
521 -1348 -397 0
522 -342 -432 0
-522 342 0
-522 432 0
-523 524 525 0
523 -524 0
523 -525 0
524 -1347 -396 0
-524 1347 0
-524 396 0
525 -395 -526 0
-525 395 0
-525 526 0
526 -1347 396 0
526 1347 -396 0
-526 1347 396 0
-526 -1347 -396 0
527 -528 580 0
527 528 -580 0
-527 528 580 0
-527 -528 -580 0
528 -529 577 0
528 529 -577 0
-528 529 577 0
-528 -529 -577 0
529 -530 574 0
529 530 -574 0
-529 530 574 0
-529 -530 -574 0
530 -531 571 0
530 531 -571 0
-530 531 571 0
-530 -531 -571 0
531 532 -565 0
531 -532 565 0
-531 -532 -565 0
-531 532 565 0
532 -533 562 0
532 533 -562 0
-532 533 562 0
-532 -533 -562 0
533 534 -549 0
533 -534 549 0
-533 -534 -549 0
-533 534 549 0
534 535 -536 0
534 -535 536 0
-534 -535 -536 0
-534 535 536 0
535 -447 -450 0
-535 447 0
-535 450 0
536 537 -544 0
536 -537 544 0
-536 -537 -544 0
-536 537 544 0
537 538 -539 0
537 -538 539 0
-537 -538 -539 0
-537 538 539 0
538 -1346 -1347 -1365 -1366 0
-538 1366 0
-538 1346 0
-538 1365 0
-538 1347 0
539 540 -543 0
539 -540 543 0
-539 -540 -543 0
-539 540 543 0
540 541 -542 0
540 -541 542 0
-540 -541 -542 0
-540 541 542 0
541 -1346 -1367 0
-541 1346 0
-541 1367 0
542 -1347 -1366 0
-542 1347 0
-542 1366 0
543 -1348 -1365 0
-543 1348 0
-543 1365 0
544 545 -548 0
544 -545 548 0
-544 -545 -548 0
-544 545 548 0
545 546 -547 0
545 -546 547 0
-545 -546 -547 0
-545 546 547 0
546 -1349 -1364 0
-546 1349 0
-546 1364 0
547 -1350 -1363 0
-547 1350 0
-547 1363 0
548 -1351 -1362 0
-548 1351 0
-548 1362 0
549 -550 559 0
549 550 -559 0
-549 550 559 0
-549 -550 -559 0
550 551 -554 0
550 -551 554 0
-550 -551 -554 0
-550 551 554 0
-551 552 553 0
551 -552 0
551 -553 0
552 -1348 -1349 -1363 -1364 0
-552 1364 0
-552 1348 0
-552 1363 0
-552 1349 0
553 -1350 -1362 -451 0
-553 1350 0
-553 1362 0
-553 451 0
554 555 -558 0
554 -555 558 0
-554 -555 -558 0
-554 555 558 0
555 556 -557 0
555 -556 557 0
-555 -556 -557 0
-555 556 557 0
556 -1352 -1361 0
-556 1352 0
-556 1361 0
557 -1353 -1360 0
-557 1353 0
-557 1360 0
558 -1354 -1359 0
-558 1354 0
-558 1359 0
-559 560 561 0
559 -560 0
559 -561 0
560 -1351 -1352 -1360 -1361 0
-560 1361 0
-560 1351 0
-560 1360 0
-560 1352 0
561 -1353 -1359 -461 0
-561 1353 0
-561 1359 0
-561 461 0
-562 563 564 0
562 -563 0
562 -564 0
563 -445 -446 0
-563 445 0
-563 446 0
564 -444 -455 0
-564 444 0
-564 455 0
565 497 -566 0
565 -497 566 0
-565 -497 -566 0
-565 497 566 0
566 567 -570 0
566 -567 570 0
-566 -567 -570 0
-566 567 570 0
-567 568 569 0
567 -568 0
567 -569 0
568 -457 -460 0
-568 457 0
-568 460 0
569 -456 -465 0
-569 456 0
-569 465 0
570 -1355 -1358 0
-570 1355 0
-570 1358 0
-571 572 573 0
571 -572 0
571 -573 0
572 -442 -443 0
-572 442 0
-572 443 0
573 -441 -468 0
-573 441 0
-573 468 0
-574 575 576 0
574 -575 0
574 -576 0
575 -1354 -1358 -470 0
-575 1354 0
-575 1358 0
-575 470 0
576 -403 -469 0
-576 403 0
-576 469 0
-577 578 579 0
577 -578 0
577 -579 0
578 -440 -474 0
-578 440 0
-578 474 0
579 -439 -477 0
-579 439 0
-579 477 0
-580 386 581 0
-580 581 583 0
580 -581 0
580 -386 -583 0
-581 582 437 0
-581 484 582 0
581 -582 0
581 -484 -437 0
582 -438 -480 0
-582 438 0
-582 480 0
583 -344 -437 0
-583 344 0
-583 437 0
-584 585 -812 -864 915 0
-584 585 812 864 915 0
584 -915 0
584 812 -864 0
584 -585 0
584 -812 864 0
-585 586 639 698 754 0
-585 -586 -639 -698 -754 0
-585 586 639 -698 -754 0
-585 -586 -639 698 754 0
585 586 -639 0
585 -586 639 0
585 -698 754 0
585 698 -754 0
-586 1367 588 0
-586 1347 587 588 0
-586 -1347 -587 588 0
-586 1347 -1367 -587 -588 0
-586 -1347 -1367 587 -588 0
586 1367 -588 0
586 -1347 -587 -588 0
586 1347 587 -588 0
586 1347 -1367 -587 588 0
586 -1347 -1367 587 588 0
587 -1346 -487 0
-587 1346 0
-587 487 0
-588 1366 589 0
-588 -1366 634 635 0
-588 -1366 -634 -635 0
588 1366 -589 0
588 -1366 634 -635 0
588 -1366 -634 635 0
-589 1365 590 0
-589 -1365 629 630 0
-589 -1365 -629 -630 0
589 1365 -590 0
589 -1365 629 -630 0
589 -1365 -629 630 0
-590 1364 591 0
-590 -1364 624 625 0
-590 -1364 -624 -625 0
590 1364 -591 0
590 -1364 624 -625 0
590 -1364 -624 625 0
-591 1363 592 0
-591 -1363 619 620 0
-591 -1363 -619 -620 0
591 1363 -592 0
591 -1363 619 -620 0
591 -1363 -619 620 0
-592 1362 593 0
-592 -1362 614 615 0
-592 -1362 -614 -615 0
592 1362 -593 0
592 -1362 614 -615 0
592 -1362 -614 615 0
-593 1361 594 0
-593 -1361 609 610 0
-593 -1361 -609 -610 0
593 1361 -594 0
593 -1361 609 -610 0
593 -1361 -609 610 0
-594 1360 595 0
-594 -1360 604 605 0
-594 -1360 -604 -605 0
594 1360 -595 0
594 -1360 604 -605 0
594 -1360 -604 605 0
-595 1359 596 0
-595 -1359 600 601 0
-595 -1359 -600 -601 0
595 1359 -596 0
595 -1359 600 -601 0
595 -1359 -600 601 0
596 1356 -1358 -597 0
596 -1356 -1358 597 0
-596 1358 0
-596 -1356 -597 0
-596 1356 597 0
-597 598 599 0
597 -598 0
597 -599 0
598 -1355 -497 0
-598 1355 0
-598 497 0
599 -498 -499 0
-599 498 0
-599 499 0
600 1355 -596 0
600 -1355 596 0
-600 -1355 -596 0
-600 1355 596 0
-601 602 603 0
601 -602 0
601 -603 0
602 -1354 -496 0
-602 1354 0
-602 496 0
603 -502 -503 0
-603 502 0
-603 503 0
604 -1354 595 0
604 1354 -595 0
-604 1354 595 0
-604 -1354 -595 0
-605 606 607 0
605 -606 0
605 -607 0
606 -1353 -495 0
-606 1353 0
-606 495 0
607 -608 -507 0
-607 608 0
-607 507 0
608 -1353 495 0
608 1353 -495 0
-608 1353 495 0
-608 -1353 -495 0
609 -1353 594 0
609 1353 -594 0
-609 1353 594 0
-609 -1353 -594 0
-610 611 612 0
610 -611 0
610 -612 0
611 -1352 -494 0
-611 1352 0
-611 494 0
612 -613 -511 0
-612 613 0
-612 511 0
613 -1352 494 0
613 1352 -494 0
-613 1352 494 0
-613 -1352 -494 0
614 -1352 593 0
614 1352 -593 0
-614 1352 593 0
-614 -1352 -593 0
-615 616 617 0
615 -616 0
615 -617 0
616 -1351 -493 0
-616 1351 0
-616 493 0
617 -618 -514 0
-617 618 0
-617 514 0
618 -1351 493 0
618 1351 -493 0
-618 1351 493 0
-618 -1351 -493 0
619 -1351 592 0
619 1351 -592 0
-619 1351 592 0
-619 -1351 -592 0
-620 621 622 0
620 -621 0
620 -622 0
621 -1350 -492 0
-621 1350 0
-621 492 0
622 -623 -517 0
-622 623 0
-622 517 0
623 -1350 492 0
623 1350 -492 0
-623 1350 492 0
-623 -1350 -492 0
624 -1350 591 0
624 1350 -591 0
-624 1350 591 0
-624 -1350 -591 0
-625 626 627 0
625 -626 0
625 -627 0
626 -1349 -491 0
-626 1349 0
-626 491 0
627 -628 -520 0
-627 628 0
-627 520 0
628 -1349 491 0
628 1349 -491 0
-628 1349 491 0
-628 -1349 -491 0
629 -1349 590 0
629 1349 -590 0
-629 1349 590 0
-629 -1349 -590 0
-630 631 632 0
630 -631 0
630 -632 0
631 -1348 -490 0
-631 1348 0
-631 490 0
632 -633 -523 0
-632 633 0
-632 523 0
633 -1348 490 0
633 1348 -490 0
-633 1348 490 0
-633 -1348 -490 0
634 -1348 589 0
634 1348 -589 0
-634 1348 589 0
-634 -1348 -589 0
-635 636 637 0
635 -636 0
635 -637 0
636 -1347 -489 0
-636 1347 0
-636 489 0
637 -488 -638 0
-637 488 0
-637 638 0
638 -1347 489 0
638 1347 -489 0
-638 1347 489 0
-638 -1347 -489 0
639 -640 695 0
639 640 -695 0
-639 640 695 0
-639 -640 -695 0
640 -641 692 0
640 641 -692 0
-640 641 692 0
-640 -641 -692 0
641 -642 689 0
641 642 -689 0
-641 642 689 0
-641 -642 -689 0
642 -643 686 0
642 643 -686 0
-642 643 686 0
-642 -643 -686 0
643 644 -681 0
643 -644 681 0
-643 -644 -681 0
-643 644 681 0
644 -645 678 0
644 645 -678 0
-644 645 678 0
-644 -645 -678 0
645 646 -665 0
645 -646 665 0
-645 -646 -665 0
-645 646 665 0
646 -647 662 0
646 647 -662 0
-646 647 662 0
-646 -647 -662 0
647 648 -657 0
647 -648 657 0
-647 -648 -657 0
-647 648 657 0
648 -649 654 0
648 649 -654 0
-648 649 654 0
-648 -649 -654 0
649 650 -653 0
649 -650 653 0
-649 -650 -653 0
-649 650 653 0
650 651 -652 0
650 -651 652 0
-650 -651 -652 0
-650 651 652 0
651 -1347 -1367 0
-651 1347 0
-651 1367 0
652 -1348 -1366 0
-652 1348 0
-652 1366 0
653 -1349 -1365 0
-653 1349 0
-653 1365 0
-654 655 656 0
654 -655 0
654 -656 0
655 -1346 -1347 -1366 -1367 0
-655 1367 0
-655 1346 0
-655 1366 0
-655 1347 0
656 -1348 -1365 -540 0
-656 1348 0
-656 1365 0
-656 540 0
657 658 -661 0
657 -658 661 0
-657 -658 -661 0
-657 658 661 0
658 659 -660 0
658 -659 660 0
-658 -659 -660 0
-658 659 660 0
659 -1350 -1364 0
-659 1350 0
-659 1364 0
660 -1351 -1363 0
-660 1351 0
-660 1363 0
661 -1352 -1362 0
-661 1352 0
-661 1362 0
-662 663 664 0
662 -663 0
662 -664 0
663 -538 -539 0
-663 538 0
-663 539 0
664 -537 -544 0
-664 537 0
-664 544 0
665 -666 675 0
665 666 -675 0
-665 666 675 0
-665 -666 -675 0
666 667 -670 0
666 -667 670 0
-666 -667 -670 0
-666 667 670 0
-667 668 669 0
667 -668 0
667 -669 0
668 -1349 -1350 -1363 -1364 0
-668 1364 0
-668 1349 0
-668 1363 0
-668 1350 0
669 -1351 -1362 -545 0
-669 1351 0
-669 1362 0
-669 545 0
670 671 -674 0
670 -671 674 0
-670 -671 -674 0
-670 671 674 0
671 672 -673 0
671 -672 673 0
-671 -672 -673 0
-671 672 673 0
672 -1353 -1361 0
-672 1353 0
-672 1361 0
673 -1354 -1360 0
-673 1354 0
-673 1360 0
674 -1355 -1359 0
-674 1355 0
-674 1359 0
-675 676 677 0
675 -676 0
675 -677 0
676 -1352 -1353 -1360 -1361 0
-676 1361 0
-676 1352 0
-676 1360 0
-676 1353 0
677 -1354 -1359 -555 0
-677 1354 0
-677 1359 0
-677 555 0
-678 679 680 0
678 -679 0
678 -680 0
679 -535 -536 0
-679 535 0
-679 536 0
680 -534 -549 0
-680 534 0
-680 549 0
681 682 -685 0
681 -682 685 0
-681 -682 -685 0
-681 682 685 0
-682 683 684 0
682 -683 0
682 -684 0
683 -551 -554 0
-683 551 0
-683 554 0
684 -550 -559 0
-684 550 0
-684 559 0
685 -1356 -1358 0
-685 1356 0
-685 1358 0
-686 687 688 0
686 -687 0
686 -688 0
687 -533 -562 0
-687 533 0
-687 562 0
688 -532 -565 0
-688 532 0
-688 565 0
-689 690 691 0
689 -690 0
689 -691 0
690 -1355 -1358 -567 0
-690 1355 0
-690 1358 0
-690 567 0
691 -497 -566 0
-691 497 0
-691 566 0
-692 693 694 0
692 -693 0
692 -694 0
693 -531 -571 0
-693 531 0
-693 571 0
694 -530 -574 0
-694 530 0
-694 574 0
-695 696 697 0
695 -696 0
695 -697 0
696 -529 -577 0
-696 529 0
-696 577 0
697 -528 -580 0
-697 528 0
-697 580 0
-698 1367 699 0
-698 -1348 699 -750 0
-698 1348 699 750 0
-698 -1348 -1367 -699 750 0
-698 1348 -1367 -699 -750 0
698 1367 -699 0
698 1348 -1367 699 -750 0
698 1348 -699 750 0
698 -1348 -699 -750 0
698 -1348 -1367 699 750 0
-699 1366 700 0
-699 -1349 700 -747 0
-699 1349 700 747 0
-699 -1349 -1366 -700 747 0
-699 1349 -1366 -700 -747 0
699 1366 -700 0
699 1349 -1366 700 -747 0
699 1349 -700 747 0
699 -1349 -700 -747 0
699 -1349 -1366 700 747 0
-700 1365 701 0
-700 -1350 701 -744 0
-700 1350 701 744 0
-700 -1350 -1365 -701 744 0
-700 1350 -1365 -701 -744 0
700 1365 -701 0
700 1350 -1365 701 -744 0
700 1350 -701 744 0
700 -1350 -701 -744 0
700 -1350 -1365 701 744 0
-701 1364 702 0
-701 -1351 702 -738 0
-701 1351 702 738 0
-701 -1351 -1364 -702 738 0
-701 1351 -1364 -702 -738 0
701 1364 -702 0
701 1351 -1364 702 -738 0
701 1351 -702 738 0
701 -1351 -702 -738 0
701 -1351 -1364 702 738 0
-702 1363 703 0
-702 -1352 703 -732 0
-702 1352 703 732 0
-702 -1352 -1363 -703 732 0
-702 1352 -1363 -703 -732 0
702 1363 -703 0
702 1352 -1363 703 -732 0
702 1352 -703 732 0
702 -1352 -703 -732 0
702 -1352 -1363 703 732 0
-703 1362 704 0
-703 -1353 704 -726 0
-703 1353 704 726 0
-703 -1353 -1362 -704 726 0
-703 1353 -1362 -704 -726 0
703 1362 -704 0
703 1353 -1362 704 -726 0
703 1353 -704 726 0
703 -1353 -704 -726 0
703 -1353 -1362 704 726 0
-704 1361 705 0
-704 -1354 705 -721 0
-704 1354 705 721 0
-704 -1354 -1361 -705 721 0
-704 1354 -1361 -705 -721 0
704 1361 -705 0
704 1354 -1361 705 -721 0
704 1354 -705 721 0
704 -1354 -705 -721 0
704 -1354 -1361 705 721 0
-705 1360 706 0
-705 -1355 706 -716 0
-705 1355 706 716 0
-705 -1355 -1360 -706 716 0
-705 1355 -1360 -706 -716 0
705 1360 -706 0
705 1355 -1360 706 -716 0
705 1355 -706 716 0
705 -1355 -706 -716 0
705 -1355 -1360 706 716 0
-706 1359 707 0
-706 1356 -1359 -707 -711 0
-706 1356 707 711 0
-706 -1356 707 -711 0
-706 -1356 -1359 -707 711 0
706 1359 -707 0
706 -1356 -707 -711 0
706 1356 -707 711 0
706 -1356 -1359 707 711 0
706 1356 -1359 707 -711 0
707 -1358 -708 0
707 -1358 -317 -709 0
-707 1358 0
-707 317 708 0
-707 708 709 0
-708 1355 500 0
-708 1357 500 0
-708 1356 0
-708 1355 1357 0
708 -1355 -1356 -500 0
708 -1356 -1357 -500 0
708 -1355 -1356 -1357 0
709 -501 -710 0
-709 501 0
-709 710 0
710 -1356 -498 0
-710 1356 0
-710 498 0
-711 506 713 0
-711 712 713 0
-711 322 713 0
711 -713 0
711 -322 -506 -712 0
712 -502 -600 0
-712 502 0
-712 600 0
-713 504 714 715 0
-713 714 715 712 0
713 -715 0
713 -714 0
713 -504 -712 0
714 -1355 -596 0
-714 1355 0
-714 596 0
715 -602 -600 0
-715 602 0
-715 600 0
-716 510 718 0
-716 717 718 0
-716 327 718 0
716 -718 0
716 -327 -510 -717 0
717 -608 -604 0
-717 608 0
-717 604 0
-718 606 719 720 0
-718 719 604 720 0
718 -720 0
718 -719 0
718 -606 -604 0
719 -1354 -595 0
-719 1354 0
-719 595 0
720 -508 -717 0
-720 508 0
-720 717 0
-721 513 723 0
-721 722 723 0
-721 332 723 0
721 -723 0
721 -332 -513 -722 0
722 -613 -609 0
-722 613 0
-722 609 0
-723 512 724 725 0
-723 724 725 722 0
723 -725 0
723 -724 0
723 -512 -722 0
724 -1353 -594 0
-724 1353 0
-724 594 0
725 -611 -609 0
-725 611 0
-725 609 0
-726 335 727 0
-726 727 731 0
726 -727 0
726 -335 -731 0
-727 616 728 729 0
-727 728 614 729 0
727 -729 0
727 -728 0
727 -616 -614 0
728 -1352 -593 0
-728 1352 0
-728 593 0
729 -515 -730 0
-729 515 0
-729 730 0
730 -618 -614 0
-730 618 0
-730 614 0
731 -516 -730 0
-731 516 0
-731 730 0
-732 338 733 0
-732 733 737 0
732 -733 0
732 -338 -737 0
-733 621 734 735 0
-733 734 619 735 0
733 -735 0
733 -734 0
733 -621 -619 0
734 -1351 -592 0
-734 1351 0
-734 592 0
735 -518 -736 0
-735 518 0
-735 736 0
736 -623 -619 0
-736 623 0
-736 619 0
737 -519 -736 0
-737 519 0
-737 736 0
-738 308 739 0
-738 739 743 0
738 -739 0
738 -308 -743 0
-739 626 740 741 0
-739 740 624 741 0
739 -741 0
739 -740 0
739 -626 -624 0
740 -1350 -591 0
-740 1350 0
-740 591 0
741 -521 -742 0
-741 521 0
-741 742 0
742 -628 -624 0
-742 628 0
-742 624 0
743 -522 -742 0
-743 522 0
-743 742 0
-744 633 745 0
-744 523 745 0
-744 629 745 0
744 -745 0
744 -633 -523 -629 0
-745 746 629 0
-745 631 746 0
745 -746 0
745 -631 -629 0
746 -1349 -590 0
-746 1349 0
-746 590 0
-747 638 748 0
-747 488 748 0
-747 634 748 0
747 -748 0
747 -488 -638 -634 0
-748 749 634 0
-748 636 749 0
748 -749 0
748 -636 -634 0
749 -1348 -589 0
-749 1348 0
-749 589 0
-750 751 752 0
750 -751 0
750 -752 0
751 -1347 -588 0
-751 1347 0
-751 588 0
752 -587 -753 0
-752 587 0
-752 753 0
753 -1347 588 0
753 1347 -588 0
-753 1347 588 0
-753 -1347 -588 0
754 -755 806 0
754 755 -806 0
-754 755 806 0
-754 -755 -806 0
755 -756 803 0
755 756 -803 0
-755 756 803 0
-755 -756 -803 0
756 757 -758 0
756 -757 758 0
-756 -757 -758 0
-756 757 758 0
757 -1356 -1358 -682 0
-757 1356 0
-757 1358 0
-757 682 0
758 -759 800 0
758 759 -800 0
-758 759 800 0
-758 -759 -800 0
759 -760 797 0
759 760 -797 0
-759 760 797 0
-759 -760 -797 0
760 -761 794 0
760 761 -794 0
-760 761 794 0
-760 -761 -794 0
761 762 -781 0
761 -762 781 0
-761 -762 -781 0
-761 762 781 0
762 -763 778 0
762 763 -778 0
-762 763 778 0
-762 -763 -778 0
763 764 -773 0
763 -764 773 0
-763 -764 -773 0
-763 764 773 0
764 -765 770 0
764 765 -770 0
-764 765 770 0
-764 -765 -770 0
765 766 -769 0
765 -766 769 0
-765 -766 -769 0
-765 766 769 0
766 767 -768 0
766 -767 768 0
-766 -767 -768 0
-766 767 768 0
767 -1348 -1367 0
-767 1348 0
-767 1367 0
768 -1349 -1366 0
-768 1349 0
-768 1366 0
769 -1350 -1365 0
-769 1350 0
-769 1365 0
-770 771 772 0
770 -771 0
770 -772 0
771 -1347 -1348 -1366 -1367 0
-771 1367 0
-771 1347 0
-771 1366 0
-771 1348 0
772 -1349 -1365 -650 0
-772 1349 0
-772 1365 0
-772 650 0
773 774 -777 0
773 -774 777 0
-773 -774 -777 0
-773 774 777 0
774 775 -776 0
774 -775 776 0
-774 -775 -776 0
-774 775 776 0
775 -1351 -1364 0
-775 1351 0
-775 1364 0
776 -1352 -1363 0
-776 1352 0
-776 1363 0
777 -1353 -1362 0
-777 1353 0
-777 1362 0
-778 779 780 0
778 -779 0
778 -780 0
779 -649 -654 0
-779 649 0
-779 654 0
780 -648 -657 0
-780 648 0
-780 657 0
781 -782 791 0
781 782 -791 0
-781 782 791 0
-781 -782 -791 0
782 783 -786 0
782 -783 786 0
-782 -783 -786 0
-782 783 786 0
-783 784 785 0
783 -784 0
783 -785 0
784 -1350 -1351 -1363 -1364 0
-784 1364 0
-784 1350 0
-784 1363 0
-784 1351 0
785 -1352 -1362 -658 0
-785 1352 0
-785 1362 0
-785 658 0
786 787 -790 0
786 -787 790 0
-786 -787 -790 0
-786 787 790 0
787 788 -789 0
787 -788 789 0
-787 -788 -789 0
-787 788 789 0
788 -1354 -1361 0
-788 1354 0
-788 1361 0
789 -1355 -1360 0
-789 1355 0
-789 1360 0
790 -1356 -1359 0
-790 1356 0
-790 1359 0
-791 792 793 0
791 -792 0
791 -793 0
792 -1353 -1354 -1360 -1361 0
-792 1361 0
-792 1353 0
-792 1360 0
-792 1354 0
793 -1355 -1359 -671 0
-793 1355 0
-793 1359 0
-793 671 0
-794 795 796 0
794 -795 0
794 -796 0
795 -647 -662 0
-795 647 0
-795 662 0
796 -646 -665 0
-796 646 0
-796 665 0
-797 798 799 0
797 -798 0
797 -799 0
798 -667 -670 0
-798 667 0
-798 670 0
799 -666 -675 0
-799 666 0
-799 675 0
-800 801 802 0
800 -801 0
800 -802 0
801 -645 -678 0
-801 645 0
-801 678 0
802 -644 -681 0
-802 644 0
-802 681 0
-803 804 805 0
803 -804 0
803 -805 0
804 -643 -686 0
-804 643 0
-804 686 0
805 -642 -689 0
-805 642 0
-805 689 0
-806 386 807 0
-806 807 811 0
806 -807 0
806 -386 -811 0
-807 696 808 809 0
-807 808 640 809 0
807 -809 0
807 -808 0
807 -696 -640 0
808 -641 -692 0
-808 641 0
-808 692 0
809 -581 -810 0
-809 581 0
-809 810 0
810 -528 -640 0
-810 528 0
-810 640 0
811 -583 -810 0
-811 583 0
-811 810 0
-812 1367 813 0
-812 -1367 859 860 0
-812 -1367 -859 -860 0
812 1367 -813 0
812 -1367 859 -860 0
812 -1367 -859 860 0
-813 1366 814 0
-813 -1366 854 855 0
-813 -1366 -854 -855 0
813 1366 -814 0
813 -1366 854 -855 0
813 -1366 -854 855 0
-814 1365 815 0
-814 -1365 849 850 0
-814 -1365 -849 -850 0
814 1365 -815 0
814 -1365 849 -850 0
814 -1365 -849 850 0
-815 1364 816 0
-815 -1364 844 845 0
-815 -1364 -844 -845 0
815 1364 -816 0
815 -1364 844 -845 0
815 -1364 -844 845 0
-816 1363 817 0
-816 -1363 839 840 0
-816 -1363 -839 -840 0
816 1363 -817 0
816 -1363 839 -840 0
816 -1363 -839 840 0
-817 1362 818 0
-817 -1362 834 835 0
-817 -1362 -834 -835 0
817 1362 -818 0
817 -1362 834 -835 0
817 -1362 -834 835 0
-818 1361 819 0
-818 -1361 829 830 0
-818 -1361 -829 -830 0
818 1361 -819 0
818 -1361 829 -830 0
818 -1361 -829 830 0
-819 1360 820 0
-819 -1360 824 825 0
-819 -1360 -824 -825 0
819 1360 -820 0
819 -1360 824 -825 0
819 -1360 -824 825 0
820 -1359 -821 0
820 -1359 -822 0
-820 1359 0
-820 821 822 0
821 -1356 -707 0
-821 1356 0
-821 707 0
822 -823 -711 0
-822 823 0
-822 711 0
823 1356 -707 0
823 -1356 707 0
-823 -1356 -707 0
-823 1356 707 0
824 1356 -820 0
824 -1356 820 0
-824 -1356 -820 0
-824 1356 820 0
-825 826 827 0
825 -826 0
825 -827 0
826 -1355 -706 0
-826 1355 0
-826 706 0
827 -828 -716 0
-827 828 0
-827 716 0
828 -1355 706 0
828 1355 -706 0
-828 1355 706 0
-828 -1355 -706 0
829 -1355 819 0
829 1355 -819 0
-829 1355 819 0
-829 -1355 -819 0
-830 831 832 0
830 -831 0
830 -832 0
831 -1354 -705 0
-831 1354 0
-831 705 0
832 -833 -721 0
-832 833 0
-832 721 0
833 -1354 705 0
833 1354 -705 0
-833 1354 705 0
-833 -1354 -705 0
834 -1354 818 0
834 1354 -818 0
-834 1354 818 0
-834 -1354 -818 0
-835 836 837 0
835 -836 0
835 -837 0
836 -1353 -704 0
-836 1353 0
-836 704 0
837 -838 -726 0
-837 838 0
-837 726 0
838 -1353 704 0
838 1353 -704 0
-838 1353 704 0
-838 -1353 -704 0
839 -1353 817 0
839 1353 -817 0
-839 1353 817 0
-839 -1353 -817 0
-840 841 842 0
840 -841 0
840 -842 0
841 -1352 -703 0
-841 1352 0
-841 703 0
842 -843 -732 0
-842 843 0
-842 732 0
843 -1352 703 0
843 1352 -703 0
-843 1352 703 0
-843 -1352 -703 0
844 -1352 816 0
844 1352 -816 0
-844 1352 816 0
-844 -1352 -816 0
-845 846 847 0
845 -846 0
845 -847 0
846 -1351 -702 0
-846 1351 0
-846 702 0
847 -848 -738 0
-847 848 0
-847 738 0
848 -1351 702 0
848 1351 -702 0
-848 1351 702 0
-848 -1351 -702 0
849 -1351 815 0
849 1351 -815 0
-849 1351 815 0
-849 -1351 -815 0
-850 851 852 0
850 -851 0
850 -852 0
851 -1350 -701 0
-851 1350 0
-851 701 0
852 -853 -744 0
-852 853 0
-852 744 0
853 -1350 701 0
853 1350 -701 0
-853 1350 701 0
-853 -1350 -701 0
854 -1350 814 0
854 1350 -814 0
-854 1350 814 0
-854 -1350 -814 0
-855 856 857 0
855 -856 0
855 -857 0
856 -1349 -700 0
-856 1349 0
-856 700 0
857 -858 -747 0
-857 858 0
-857 747 0
858 -1349 700 0
858 1349 -700 0
-858 1349 700 0
-858 -1349 -700 0
859 -1349 813 0
859 1349 -813 0
-859 1349 813 0
-859 -1349 -813 0
-860 861 862 0
860 -861 0
860 -862 0
861 -1348 -699 0
-861 1348 0
-861 699 0
862 -863 -750 0
-862 863 0
-862 750 0
863 -1348 699 0
863 1348 -699 0
-863 1348 699 0
-863 -1348 -699 0
864 -865 912 0
864 865 -912 0
-864 865 912 0
-864 -865 -912 0
865 -866 909 0
865 866 -909 0
-865 866 909 0
-865 -866 -909 0
866 -867 906 0
866 867 -906 0
-866 867 906 0
-866 -867 -906 0
867 -868 903 0
867 868 -903 0
-867 868 903 0
-867 -868 -903 0
868 -869 900 0
868 869 -900 0
-868 869 900 0
-868 -869 -900 0
869 870 -889 0
869 -870 889 0
-869 -870 -889 0
-869 870 889 0
870 -871 886 0
870 871 -886 0
-870 871 886 0
-870 -871 -886 0
871 872 -881 0
871 -872 881 0
-871 -872 -881 0
-871 872 881 0
872 -873 878 0
872 873 -878 0
-872 873 878 0
-872 -873 -878 0
873 874 -877 0
873 -874 877 0
-873 -874 -877 0
-873 874 877 0
874 875 -876 0
874 -875 876 0
-874 -875 -876 0
-874 875 876 0
875 -1349 -1367 0
-875 1349 0
-875 1367 0
876 -1350 -1366 0
-876 1350 0
-876 1366 0
877 -1351 -1365 0
-877 1351 0
-877 1365 0
-878 879 880 0
878 -879 0
878 -880 0
879 -1348 -1349 -1366 -1367 0
-879 1367 0
-879 1348 0
-879 1366 0
-879 1349 0
880 -1350 -1365 -766 0
-880 1350 0
-880 1365 0
-880 766 0
881 882 -885 0
881 -882 885 0
-881 -882 -885 0
-881 882 885 0
882 883 -884 0
882 -883 884 0
-882 -883 -884 0
-882 883 884 0
883 -1352 -1364 0
-883 1352 0
-883 1364 0
884 -1353 -1363 0
-884 1353 0
-884 1363 0
885 -1354 -1362 0
-885 1354 0
-885 1362 0
-886 887 888 0
886 -887 0
886 -888 0
887 -765 -770 0
-887 765 0
-887 770 0
888 -764 -773 0
-888 764 0
-888 773 0
889 -890 897 0
889 890 -897 0
-889 890 897 0
-889 -890 -897 0
890 891 -894 0
890 -891 894 0
-890 -891 -894 0
-890 891 894 0
-891 892 893 0
891 -892 0
891 -893 0
892 -1351 -1352 -1363 -1364 0
-892 1364 0
-892 1351 0
-892 1363 0
-892 1352 0
893 -1353 -1362 -774 0
-893 1353 0
-893 1362 0
-893 774 0
894 895 -896 0
894 -895 896 0
-894 -895 -896 0
-894 895 896 0
895 -1355 -1361 0
-895 1355 0
-895 1361 0
896 -1356 -1360 0
-896 1356 0
-896 1360 0
-897 898 899 0
897 -898 0
897 -899 0
898 -1354 -1355 -1360 -1361 0
-898 1361 0
-898 1354 0
-898 1360 0
-898 1355 0
899 -1356 -1359 -787 0
-899 1356 0
-899 1359 0
-899 787 0
-900 901 902 0
900 -901 0
900 -902 0
901 -763 -778 0
-901 763 0
-901 778 0
902 -762 -781 0
-902 762 0
-902 781 0
-903 904 905 0
903 -904 0
903 -905 0
904 -783 -786 0
-904 783 0
-904 786 0
905 -782 -791 0
-905 782 0
-905 791 0
-906 907 908 0
906 -907 0
906 -908 0
907 -761 -794 0
-907 761 0
-907 794 0
908 -760 -797 0
-908 760 0
-908 797 0
-909 910 911 0
909 -910 0
909 -911 0
910 -759 -800 0
-910 759 0
-910 800 0
911 -757 -758 0
-911 757 0
-911 758 0
-912 913 914 0
912 -913 0
912 -914 0
913 -756 -803 0
-913 756 0
-913 803 0
914 -755 -806 0
-914 755 0
-914 806 0
-915 916 953 999 1039 0
-915 -916 -953 -999 -1039 0
-915 916 953 -999 -1039 0
-915 -916 -953 999 1039 0
915 916 -953 0
915 -916 953 0
915 -999 1039 0
915 999 -1039 0
-916 1367 917 0
-916 -1350 917 -950 0
-916 1350 917 950 0
-916 -1350 -1367 -917 950 0
-916 1350 -1367 -917 -950 0
916 1367 -917 0
916 1350 -1367 917 -950 0
916 1350 -917 950 0
916 -1350 -917 -950 0
916 -1350 -1367 917 950 0
-917 1366 918 0
-917 -1351 918 -946 0
-917 1351 918 946 0
-917 -1351 -1366 -918 946 0
-917 1351 -1366 -918 -946 0
917 1366 -918 0
917 1351 -1366 918 -946 0
917 1351 -918 946 0
917 -1351 -918 -946 0
917 -1351 -1366 918 946 0
-918 1365 919 0
-918 -1352 919 -943 0
-918 1352 919 943 0
-918 -1352 -1365 -919 943 0
-918 1352 -1365 -919 -943 0
918 1365 -919 0
918 1352 -1365 919 -943 0
918 1352 -919 943 0
918 -1352 -919 -943 0
918 -1352 -1365 919 943 0
-919 1364 920 0
-919 -1353 920 -940 0
-919 1353 920 940 0
-919 -1353 -1364 -920 940 0
-919 1353 -1364 -920 -940 0
919 1364 -920 0
919 1353 -1364 920 -940 0
919 1353 -920 940 0
919 -1353 -920 -940 0
919 -1353 -1364 920 940 0
-920 1363 921 0
-920 -1354 921 -936 0
-920 1354 921 936 0
-920 -1354 -1363 -921 936 0
-920 1354 -1363 -921 -936 0
920 1363 -921 0
920 1354 -1363 921 -936 0
920 1354 -921 936 0
920 -1354 -921 -936 0
920 -1354 -1363 921 936 0
-921 1362 922 0
-921 -1355 922 -931 0
-921 1355 922 931 0
-921 -1355 -1362 -922 931 0
-921 1355 -1362 -922 -931 0
921 1362 -922 0
921 1355 -1362 922 -931 0
921 1355 -922 931 0
921 -1355 -922 -931 0
921 -1355 -1362 922 931 0
-922 1361 923 0
-922 1356 -1361 -923 -927 0
-922 1356 923 927 0
-922 -1356 923 -927 0
-922 -1356 -1361 -923 927 0
922 1361 -923 0
922 -1356 -923 -927 0
922 1356 -923 927 0
922 -1356 -1361 923 927 0
922 1356 -1361 923 -927 0
923 -1360 -924 0
923 -1360 -926 0
923 -1360 -925 0
-923 1360 0
-923 924 925 926 0
924 -1356 -820 0
-924 1356 0
-924 820 0
925 -826 -824 0
-925 826 0
-925 824 0
926 -828 -716 -824 0
-926 828 0
-926 716 0
-926 824 0
-927 833 928 0
-927 721 928 0
-927 829 928 0
927 -928 0
927 -833 -721 -829 0
-928 929 930 0
928 -929 0
928 -930 0
929 -1355 -819 0
-929 1355 0
-929 819 0
930 -831 -829 0
-930 831 0
-930 829 0
-931 726 932 0
-931 932 935 0
931 -932 0
931 -726 -935 0
-932 933 934 0
932 -933 0
932 -934 0
933 -1354 -818 0
-933 1354 0
-933 818 0
934 -836 -834 0
-934 836 0
-934 834 0
935 -838 -834 0
-935 838 0
-935 834 0
-936 732 937 0
-936 937 939 0
936 -937 0
936 -732 -939 0
-937 938 839 0
-937 841 938 0
937 -938 0
937 -841 -839 0
938 -1353 -817 0
-938 1353 0
-938 817 0
939 -843 -839 0
-939 843 0
-939 839 0
-940 738 941 0
-940 941 942 0
940 -941 0
940 -738 -942 0
-941 846 816 0
-941 1352 846 0
-941 1352 816 0
941 -1352 -846 0
941 -846 -816 0
941 -1352 -816 0
942 -848 -844 0
-942 848 0
-942 844 0
-943 744 944 0
-943 944 945 0
943 -944 0
943 -744 -945 0
-944 851 815 0
-944 1351 851 0
-944 1351 815 0
944 -1351 -851 0
944 -851 -815 0
944 -1351 -815 0
945 -853 -849 0
-945 853 0
-945 849 0
-946 747 947 0
-946 947 949 0
946 -947 0
946 -747 -949 0
-947 948 854 0
-947 856 948 0
947 -948 0
947 -856 -854 0
948 -1350 -814 0
-948 1350 0
-948 814 0
949 -858 -854 0
-949 858 0
-949 854 0
-950 750 951 0
-950 951 952 0
950 -951 0
950 -750 -952 0
-951 861 813 0
-951 1349 861 0
-951 1349 813 0
951 -1349 -861 0
951 -861 -813 0
951 -1349 -813 0
952 -863 -859 0
-952 863 0
-952 859 0
953 -954 995 0
953 954 -995 0
-953 954 995 0
-953 -954 -995 0
954 955 -956 0
954 -955 956 0
-954 -955 -956 0
-954 955 956 0
955 -867 -906 0
-955 867 0
-955 906 0
956 -957 992 0
956 957 -992 0
-956 957 992 0
-956 -957 -992 0
957 -958 989 0
957 958 -989 0
-957 958 989 0
-957 -958 -989 0
958 -959 986 0
958 959 -986 0
-958 959 986 0
-958 -959 -986 0
959 960 -979 0
959 -960 979 0
-959 -960 -979 0
-959 960 979 0
960 -961 976 0
960 961 -976 0
-960 961 976 0
-960 -961 -976 0
961 962 -971 0
961 -962 971 0
-961 -962 -971 0
-961 962 971 0
962 -963 968 0
962 963 -968 0
-962 963 968 0
-962 -963 -968 0
963 964 -967 0
963 -964 967 0
-963 -964 -967 0
-963 964 967 0
964 965 -966 0
964 -965 966 0
-964 -965 -966 0
-964 965 966 0
965 -1350 -1367 0
-965 1350 0
-965 1367 0
966 -1351 -1366 0
-966 1351 0
-966 1366 0
967 -1352 -1365 0
-967 1352 0
-967 1365 0
-968 969 970 0
968 -969 0
968 -970 0
969 -1349 -1350 -1366 -1367 0
-969 1367 0
-969 1349 0
-969 1366 0
-969 1350 0
970 -1351 -1365 -874 0
-970 1351 0
-970 1365 0
-970 874 0
971 972 -975 0
971 -972 975 0
-971 -972 -975 0
-971 972 975 0
972 973 -974 0
972 -973 974 0
-972 -973 -974 0
-972 973 974 0
973 -1353 -1364 0
-973 1353 0
-973 1364 0
974 -1354 -1363 0
-974 1354 0
-974 1363 0
975 -1355 -1362 0
-975 1355 0
-975 1362 0
-976 977 978 0
976 -977 0
976 -978 0
977 -873 -878 0
-977 873 0
-977 878 0
978 -872 -881 0
-978 872 0
-978 881 0
979 980 -981 0
979 -980 981 0
-979 -980 -981 0
-979 980 981 0
980 -1355 -1356 -1360 -1361 0
-980 1361 0
-980 1355 0
-980 1360 0
-980 1356 0
981 982 -985 0
981 -982 985 0
-981 -982 -985 0
-981 982 985 0
-982 983 984 0
982 -983 0
982 -984 0
983 -1352 -1353 -1363 -1364 0
-983 1364 0
-983 1352 0
-983 1363 0
-983 1353 0
984 -1354 -1362 -882 0
-984 1354 0
-984 1362 0
-984 882 0
985 -1356 -1361 0
-985 1356 0
-985 1361 0
-986 987 988 0
986 -987 0
986 -988 0
987 -871 -886 0
-987 871 0
-987 886 0
988 -870 -889 0
-988 870 0
-988 889 0
-989 990 991 0
989 -990 0
989 -991 0
990 -891 -894 0
-990 891 0
-990 894 0
991 -890 -897 0
-991 890 0
-991 897 0
-992 993 994 0
992 -993 0
992 -994 0
993 -869 -900 0
-993 869 0
-993 900 0
994 -868 -903 0
-994 868 0
-994 903 0
-995 806 996 0
-995 996 998 0
995 -996 0
995 -806 -998 0
-996 997 865 0
-996 913 997 0
996 -997 0
996 -913 -865 0
997 -866 -909 0
-997 866 0
-997 909 0
998 -755 -865 0
-998 755 0
-998 865 0
-999 1367 1000 0
-999 -1367 1034 1035 0
-999 -1367 -1034 -1035 0
999 1367 -1000 0
999 -1367 1034 -1035 0
999 -1367 -1034 1035 0
-1000 1366 1001 0
-1000 -1366 1029 1030 0
-1000 -1366 -1029 -1030 0
1000 1366 -1001 0
1000 -1366 1029 -1030 0
1000 -1366 -1029 1030 0
-1001 1365 1002 0
-1001 -1365 1024 1025 0
-1001 -1365 -1024 -1025 0
1001 1365 -1002 0
1001 -1365 1024 -1025 0
1001 -1365 -1024 1025 0
-1002 1364 1003 0
-1002 -1364 1019 1020 0
-1002 -1364 -1019 -1020 0
1002 1364 -1003 0
1002 -1364 1019 -1020 0
1002 -1364 -1019 1020 0
-1003 1363 1004 0
-1003 -1363 1014 1015 0
-1003 -1363 -1014 -1015 0
1003 1363 -1004 0
1003 -1363 1014 -1015 0
1003 -1363 -1014 1015 0
-1004 1362 1005 0
-1004 -1362 1009 1010 0
-1004 -1362 -1009 -1010 0
1004 1362 -1005 0
1004 -1362 1009 -1010 0
1004 -1362 -1009 1010 0
1005 -1361 -1006 0
1005 -1361 -1007 0
-1005 1361 0
-1005 1006 1007 0
1006 -1356 -923 0
-1006 1356 0
-1006 923 0
1007 -1008 -927 0
-1007 1008 0
-1007 927 0
1008 1356 -923 0
1008 -1356 923 0
-1008 -1356 -923 0
-1008 1356 923 0
1009 1356 -1005 0
1009 -1356 1005 0
-1009 -1356 -1005 0
-1009 1356 1005 0
-1010 1011 1012 0
1010 -1011 0
1010 -1012 0
1011 -1355 -922 0
-1011 1355 0
-1011 922 0
1012 -1013 -931 0
-1012 1013 0
-1012 931 0
1013 -1355 922 0
1013 1355 -922 0
-1013 1355 922 0
-1013 -1355 -922 0
1014 -1355 1004 0
1014 1355 -1004 0
-1014 1355 1004 0
-1014 -1355 -1004 0
-1015 1016 1017 0
1015 -1016 0
1015 -1017 0
1016 -1354 -921 0
-1016 1354 0
-1016 921 0
1017 -1018 -936 0
-1017 1018 0
-1017 936 0
1018 -1354 921 0
1018 1354 -921 0
-1018 1354 921 0
-1018 -1354 -921 0
1019 -1354 1003 0
1019 1354 -1003 0
-1019 1354 1003 0
-1019 -1354 -1003 0
-1020 1021 1022 0
1020 -1021 0
1020 -1022 0
1021 -1353 -920 0
-1021 1353 0
-1021 920 0
1022 -1023 -940 0
-1022 1023 0
-1022 940 0
1023 -1353 920 0
1023 1353 -920 0
-1023 1353 920 0
-1023 -1353 -920 0
1024 -1353 1002 0
1024 1353 -1002 0
-1024 1353 1002 0
-1024 -1353 -1002 0
-1025 1026 1027 0
1025 -1026 0
1025 -1027 0
1026 -1352 -919 0
-1026 1352 0
-1026 919 0
1027 -1028 -943 0
-1027 1028 0
-1027 943 0
1028 -1352 919 0
1028 1352 -919 0
-1028 1352 919 0
-1028 -1352 -919 0
1029 -1352 1001 0
1029 1352 -1001 0
-1029 1352 1001 0
-1029 -1352 -1001 0
-1030 1031 1032 0
1030 -1031 0
1030 -1032 0
1031 -1351 -918 0
-1031 1351 0
-1031 918 0
1032 -1033 -946 0
-1032 1033 0
-1032 946 0
1033 -1351 918 0
1033 1351 -918 0
-1033 1351 918 0
-1033 -1351 -918 0
1034 -1351 1000 0
1034 1351 -1000 0
-1034 1351 1000 0
-1034 -1351 -1000 0
-1035 1036 1037 0
1035 -1036 0
1035 -1037 0
1036 -1350 -917 0
-1036 1350 0
-1036 917 0
1037 -1038 -950 0
-1037 1038 0
-1037 950 0
1038 -1350 917 0
1038 1350 -917 0
-1038 1350 917 0
-1038 -1350 -917 0
1039 -1040 1077 0
1039 1040 -1077 0
-1039 1040 1077 0
-1039 -1040 -1077 0
1040 1041 -1042 0
1040 -1041 1042 0
-1040 -1041 -1042 0
-1040 1041 1042 0
1041 -957 -992 0
-1041 957 0
-1041 992 0
1042 -1043 1074 0
1042 1043 -1074 0
-1042 1043 1074 0
-1042 -1043 -1074 0
1043 -1044 1071 0
1043 1044 -1071 0
-1043 1044 1071 0
-1043 -1044 -1071 0
1044 -1045 1068 0
1044 1045 -1068 0
-1044 1045 1068 0
-1044 -1045 -1068 0
1045 -1046 1065 0
1045 1046 -1065 0
-1045 1046 1065 0
-1045 -1046 -1065 0
1046 -1047 1062 0
1046 1047 -1062 0
-1046 1047 1062 0
-1046 -1047 -1062 0
1047 1048 -1057 0
1047 -1048 1057 0
-1047 -1048 -1057 0
-1047 1048 1057 0
1048 -1049 1054 0
1048 1049 -1054 0
-1048 1049 1054 0
-1048 -1049 -1054 0
1049 1050 -1053 0
1049 -1050 1053 0
-1049 -1050 -1053 0
-1049 1050 1053 0
1050 1051 -1052 0
1050 -1051 1052 0
-1050 -1051 -1052 0
-1050 1051 1052 0
1051 -1351 -1367 0
-1051 1351 0
-1051 1367 0
1052 -1352 -1366 0
-1052 1352 0
-1052 1366 0
1053 -1353 -1365 0
-1053 1353 0
-1053 1365 0
-1054 1055 1056 0
1054 -1055 0
1054 -1056 0
1055 -1350 -1351 -1366 -1367 0
-1055 1367 0
-1055 1350 0
-1055 1366 0
-1055 1351 0
1056 -1352 -1365 -964 0
-1056 1352 0
-1056 1365 0
-1056 964 0
1057 1058 -1061 0
1057 -1058 1061 0
-1057 -1058 -1061 0
-1057 1058 1061 0
1058 1059 -1060 0
1058 -1059 1060 0
-1058 -1059 -1060 0
-1058 1059 1060 0
1059 -1354 -1364 0
-1059 1354 0
-1059 1364 0
1060 -1355 -1363 0
-1060 1355 0
-1060 1363 0
1061 -1356 -1362 0
-1061 1356 0
-1061 1362 0
-1062 1063 1064 0
1062 -1063 0
1062 -1064 0
1063 -963 -968 0
-1063 963 0
-1063 968 0
1064 -962 -971 0
-1064 962 0
-1064 971 0
-1065 1066 1067 0
1065 -1066 0
1065 -1067 0
1066 -1353 -1354 -1363 -1364 0
-1066 1364 0
-1066 1353 0
-1066 1363 0
-1066 1354 0
1067 -1355 -1362 -972 0
-1067 1355 0
-1067 1362 0
-1067 972 0
-1068 1069 1070 0
1068 -1069 0
1068 -1070 0
1069 -961 -976 0
-1069 961 0
-1069 976 0
1070 -960 -979 0
-1070 960 0
-1070 979 0
-1071 1072 1073 0
1071 -1072 0
1071 -1073 0
1072 -1356 -1361 -982 0
-1072 1356 0
-1072 1361 0
-1072 982 0
1073 -980 -981 0
-1073 980 0
-1073 981 0
-1074 1075 1076 0
1074 -1075 0
1074 -1076 0
1075 -959 -986 0
-1075 959 0
-1075 986 0
1076 -958 -989 0
-1076 958 0
-1076 989 0
-1077 1078 1079 0
1077 -1078 0
1077 -1079 0
1078 -955 -956 0
-1078 955 0
-1078 956 0
1079 -954 -995 0
-1079 954 0
-1079 995 0
-1080 -1081 -1123 1162 1266 0
-1080 1081 1123 1162 1266 0
1080 -1266 0
1080 -1081 1123 0
1080 -1162 0
1080 1081 -1123 0
-1081 1367 1082 0
-1081 -1352 1082 -1118 0
-1081 1352 1082 1118 0
-1081 -1352 -1367 -1082 1118 0
-1081 1352 -1367 -1082 -1118 0
1081 1367 -1082 0
1081 1352 -1367 1082 -1118 0
1081 1352 -1082 1118 0
1081 -1352 -1082 -1118 0
1081 -1352 -1367 1082 1118 0
-1082 1366 1083 0
-1082 -1353 1083 -1113 0
-1082 1353 1083 1113 0
-1082 -1353 -1366 -1083 1113 0
-1082 1353 -1366 -1083 -1113 0
1082 1366 -1083 0
1082 1353 -1366 1083 -1113 0
1082 1353 -1083 1113 0
1082 -1353 -1083 -1113 0
1082 -1353 -1366 1083 1113 0
-1083 1365 1084 0
-1083 -1354 1084 -1108 0
-1083 1354 1084 1108 0
-1083 -1354 -1365 -1084 1108 0
-1083 1354 -1365 -1084 -1108 0
1083 1365 -1084 0
1083 1354 -1365 1084 -1108 0
1083 1354 -1084 1108 0
1083 -1354 -1084 -1108 0
1083 -1354 -1365 1084 1108 0
-1084 1364 1085 0
-1084 -1355 1085 -1101 0
-1084 1355 1085 1101 0
-1084 -1355 -1364 -1085 1101 0
-1084 1355 -1364 -1085 -1101 0
1084 1364 -1085 0
1084 1355 -1364 1085 -1101 0
1084 1355 -1085 1101 0
1084 -1355 -1085 -1101 0
1084 -1355 -1364 1085 1101 0
-1085 1363 1086 0
-1085 1356 -1363 -1086 -1094 0
-1085 1356 1086 1094 0
-1085 -1356 1086 -1094 0
-1085 -1356 -1363 -1086 1094 0
1085 1363 -1086 0
1085 -1356 -1086 -1094 0
1085 1356 -1086 1094 0
1085 -1356 -1363 1086 1094 0
1085 1356 -1363 1086 -1094 0
1086 -1362 -1087 0
1086 -1362 -335 -1093 0
-1086 1362 0
-1086 335 1087 0
-1086 1087 1093 0
-1087 727 1088 1090 0
-1087 1088 1090 1092 0
1087 -1088 0
1087 -1090 0
1087 -727 -1092 0
-1088 1089 1009 0
-1088 1011 1089 0
1088 -1089 0
1088 -1011 -1009 0
1089 -1356 -1005 0
-1089 1356 0
-1089 1005 0
1090 -932 -1091 0
-1090 932 0
-1090 1091 0
1091 -1013 -1009 0
-1091 1013 0
-1091 1009 0
1092 -935 -1091 0
-1092 935 0
-1092 1091 0
1093 -731 -1092 0
-1093 731 0
-1093 1092 0
-1094 737 1097 0
-1094 1095 1097 0
-1094 338 1097 0
1094 -1097 0
1094 -338 -737 -1095 0
1095 -939 -1096 0
-1095 939 0
-1095 1096 0
1096 -1018 -1014 0
-1096 1018 0
-1096 1014 0
-1097 733 1098 1100 0
-1097 1098 1100 1095 0
1097 -1098 0
1097 -1100 0
1097 -733 -1095 0
-1098 1099 1014 0
-1098 1016 1099 0
1098 -1099 0
1098 -1016 -1014 0
1099 -1355 -1004 0
-1099 1355 0
-1099 1004 0
1100 -937 -1096 0
-1100 937 0
-1100 1096 0
-1101 743 1104 0
-1101 308 1104 0
-1101 1102 1104 0
1101 -1104 0
1101 -308 -743 -1102 0
1102 -942 -1103 0
-1102 942 0
-1102 1103 0
1103 -1023 -1019 0
-1103 1023 0
-1103 1019 0
-1104 739 1105 0
-1104 1105 1102 0
1104 -1105 0
1104 -739 -1102 0
-1105 941 1106 1107 0
-1105 1106 1107 1103 0
1105 -1107 0
1105 -1106 0
1105 -941 -1103 0
1106 -1354 -1003 0
-1106 1354 0
-1106 1003 0
1107 -1021 -1019 0
-1107 1021 0
-1107 1019 0
-1108 945 1110 0
-1108 1109 1110 0
-1108 744 1110 0
1108 -1110 0
1108 -744 -945 -1109 0
1109 -1028 -1024 0
-1109 1028 0
-1109 1024 0
-1110 944 1111 1112 0
-1110 1111 1112 1109 0
1110 -1112 0
1110 -1111 0
1110 -944 -1109 0
1111 -1353 -1002 0
-1111 1353 0
-1111 1002 0
1112 -1026 -1024 0
-1112 1026 0
-1112 1024 0
-1113 949 1115 0
-1113 1114 1115 0
-1113 747 1115 0
1113 -1115 0
1113 -747 -949 -1114 0
1114 -1033 -1029 0
-1114 1033 0
-1114 1029 0
-1115 947 1116 1117 0
-1115 1116 1117 1114 0
1115 -1117 0
1115 -1116 0
1115 -947 -1114 0
1116 -1352 -1001 0
-1116 1352 0
-1116 1001 0
1117 -1031 -1029 0
-1117 1031 0
-1117 1029 0
-1118 952 1120 0
-1118 1119 1120 0
-1118 750 1120 0
1118 -1120 0
1118 -750 -952 -1119 0
1119 -1038 -1034 0
-1119 1038 0
-1119 1034 0
-1120 951 1121 1122 0
-1120 1121 1122 1119 0
1120 -1122 0
1120 -1121 0
1120 -951 -1119 0
1121 -1351 -1000 0
-1121 1351 0
-1121 1000 0
1122 -1036 -1034 0
-1122 1036 0
-1122 1034 0
1123 -1124 1155 0
1123 1124 -1155 0
-1123 1124 1155 0
-1123 -1124 -1155 0
1124 1125 -1126 0
1124 -1125 1126 0
-1124 -1125 -1126 0
-1124 1125 1126 0
1125 -1043 -1074 0
-1125 1043 0
-1125 1074 0
1126 -1127 1152 0
1126 1127 -1152 0
-1126 1127 1152 0
-1126 -1127 -1152 0
1127 -1128 1149 0
1127 1128 -1149 0
-1127 1128 1149 0
-1127 -1128 -1149 0
1128 -1129 1146 0
1128 1129 -1146 0
-1128 1129 1146 0
-1128 -1129 -1146 0
1129 -1130 1143 0
1129 1130 -1143 0
-1129 1130 1143 0
-1129 -1130 -1143 0
1130 1131 -1140 0
1130 -1131 1140 0
-1130 -1131 -1140 0
-1130 1131 1140 0
1131 -1132 1137 0
1131 1132 -1137 0
-1131 1132 1137 0
-1131 -1132 -1137 0
1132 1133 -1136 0
1132 -1133 1136 0
-1132 -1133 -1136 0
-1132 1133 1136 0
1133 1134 -1135 0
1133 -1134 1135 0
-1133 -1134 -1135 0
-1133 1134 1135 0
1134 -1352 -1367 0
-1134 1352 0
-1134 1367 0
1135 -1353 -1366 0
-1135 1353 0
-1135 1366 0
1136 -1354 -1365 0
-1136 1354 0
-1136 1365 0
-1137 1138 1139 0
1137 -1138 0
1137 -1139 0
1138 -1351 -1352 -1366 -1367 0
-1138 1367 0
-1138 1351 0
-1138 1366 0
-1138 1352 0
1139 -1353 -1365 -1050 0
-1139 1353 0
-1139 1365 0
-1139 1050 0
1140 1141 -1142 0
1140 -1141 1142 0
-1140 -1141 -1142 0
-1140 1141 1142 0
1141 -1355 -1364 0
-1141 1355 0
-1141 1364 0
1142 -1356 -1363 0
-1142 1356 0
-1142 1363 0
-1143 1144 1145 0
1143 -1144 0
1143 -1145 0
1144 -1049 -1054 0
-1144 1049 0
-1144 1054 0
1145 -1048 -1057 0
-1145 1048 0
-1145 1057 0
-1146 1147 1148 0
1146 -1147 0
1146 -1148 0
1147 -1354 -1355 -1363 -1364 0
-1147 1364 0
-1147 1354 0
-1147 1363 0
-1147 1355 0
1148 -1356 -1362 -1058 0
-1148 1356 0
-1148 1362 0
-1148 1058 0
-1149 1150 1151 0
1149 -1150 0
1149 -1151 0
1150 -1047 -1062 0
-1150 1047 0
-1150 1062 0
1151 -1046 -1065 0
-1151 1046 0
-1151 1065 0
-1152 1153 1154 0
1152 -1153 0
1152 -1154 0
1153 -1045 -1068 0
-1153 1045 0
-1153 1068 0
1154 -1044 -1071 0
-1154 1044 0
-1154 1071 0
-1155 811 1158 0
-1155 1156 1158 0
-1155 386 1158 0
1155 -1158 0
1155 -386 -811 -1156 0
1156 -998 -1157 0
-1156 998 0
-1156 1157 0
1157 -954 -1040 0
-1157 954 0
-1157 1040 0
-1158 807 1159 1161 0
-1158 1159 1161 1156 0
1158 -1159 0
1158 -1161 0
1158 -807 -1156 0
-1159 1160 1040 0
-1159 1078 1160 0
1159 -1160 0
1159 -1078 -1040 0
1160 -1041 -1042 0
-1160 1041 0
-1160 1042 0
1161 -996 -1157 0
-1161 996 0
-1161 1157 0
-1162 1163 1188 1217 1240 0
-1162 -1163 -1188 -1217 -1240 0
-1162 1163 1188 -1217 -1240 0
-1162 -1163 -1188 1217 1240 0
1162 1163 -1188 0
1162 -1163 1188 0
1162 -1217 1240 0
1162 1217 -1240 0
-1163 1367 1164 0
-1163 -1367 1183 1184 0
-1163 -1367 -1183 -1184 0
1163 1367 -1164 0
1163 -1367 1183 -1184 0
1163 -1367 -1183 1184 0
-1164 1366 1165 0
-1164 -1354 1165 -1179 0
-1164 1354 1165 1179 0
-1164 -1354 -1366 -1165 1179 0
-1164 1354 -1366 -1165 -1179 0
1164 1366 -1165 0
1164 1354 -1366 1165 -1179 0
1164 1354 -1165 1179 0
1164 -1354 -1165 -1179 0
1164 -1354 -1366 1165 1179 0
-1165 1365 1166 0
-1165 -1355 1166 -1175 0
-1165 1355 1166 1175 0
-1165 -1355 -1365 -1166 1175 0
-1165 1355 -1365 -1166 -1175 0
1165 1365 -1166 0
1165 1355 -1365 1166 -1175 0
1165 1355 -1166 1175 0
1165 -1355 -1166 -1175 0
1165 -1355 -1365 1166 1175 0
-1166 1364 1167 0
-1166 1356 -1364 -1167 -1171 0
-1166 1356 1167 1171 0
-1166 -1356 1167 -1171 0
-1166 -1356 -1364 -1167 1171 0
1166 1364 -1167 0
1166 -1356 -1167 -1171 0
1166 1356 -1167 1171 0
1166 -1356 -1364 1167 1171 0
1166 1356 -1364 1167 -1171 0
1167 -1363 -1168 0
1167 -1363 -1169 0
-1167 1363 0
-1167 1168 1169 0
1168 -1356 -1086 0
-1168 1356 0
-1168 1086 0
1169 -1170 -1094 0
-1169 1170 0
-1169 1094 0
1170 1356 -1086 0
1170 -1356 1086 0
-1170 -1356 -1086 0
-1170 1356 1086 0
-1171 1172 1173 0
1171 -1172 0
1171 -1173 0
1172 -1355 -1085 0
-1172 1355 0
-1172 1085 0
1173 -1174 -1101 0
-1173 1174 0
-1173 1101 0
1174 -1355 1085 0
1174 1355 -1085 0
-1174 1355 1085 0
-1174 -1355 -1085 0
-1175 1176 1177 0
1175 -1176 0
1175 -1177 0
1176 -1354 -1084 0
-1176 1354 0
-1176 1084 0
1177 -1178 -1108 0
-1177 1178 0
-1177 1108 0
1178 -1354 1084 0
1178 1354 -1084 0
-1178 1354 1084 0
-1178 -1354 -1084 0
-1179 1180 1181 0
1179 -1180 0
1179 -1181 0
1180 -1353 -1083 0
-1180 1353 0
-1180 1083 0
1181 -1182 -1113 0
-1181 1182 0
-1181 1113 0
1182 -1353 1083 0
1182 1353 -1083 0
-1182 1353 1083 0
-1182 -1353 -1083 0
1183 -1353 1164 0
1183 1353 -1164 0
-1183 1353 1164 0
-1183 -1353 -1164 0
-1184 1185 1186 0
1184 -1185 0
1184 -1186 0
1185 -1352 -1082 0
-1185 1352 0
-1185 1082 0
1186 -1187 -1118 0
-1186 1187 0
-1186 1118 0
1187 -1352 1082 0
1187 1352 -1082 0
-1187 1352 1082 0
-1187 -1352 -1082 0
1188 -1189 1214 0
1188 1189 -1214 0
-1188 1189 1214 0
-1188 -1189 -1214 0
1189 1190 -1191 0
1189 -1190 1191 0
-1189 -1190 -1191 0
-1189 1190 1191 0
1190 -1127 -1152 0
-1190 1127 0
-1190 1152 0
1191 1192 -1193 0
1191 -1192 1193 0
-1191 -1192 -1193 0
-1191 1192 1193 0
1192 -1128 -1149 0
-1192 1128 0
-1192 1149 0
1193 -1194 1211 0
1193 1194 -1211 0
-1193 1194 1211 0
-1193 -1194 -1211 0
1194 1195 -1196 0
1194 -1195 1196 0
-1194 -1195 -1196 0
-1194 1195 1196 0
1195 -1355 -1356 -1363 -1364 0
-1195 1364 0
-1195 1355 0
-1195 1363 0
-1195 1356 0
1196 -1197 1208 0
1196 1197 -1208 0
-1196 1197 1208 0
-1196 -1197 -1208 0
1197 1198 -1207 0
1197 -1198 1207 0
-1197 -1198 -1207 0
-1197 1198 1207 0
1198 -1199 1204 0
1198 1199 -1204 0
-1198 1199 1204 0
-1198 -1199 -1204 0
1199 1200 -1203 0
1199 -1200 1203 0
-1199 -1200 -1203 0
-1199 1200 1203 0
1200 1201 -1202 0
1200 -1201 1202 0
-1200 -1201 -1202 0
-1200 1201 1202 0
1201 -1353 -1367 0
-1201 1353 0
-1201 1367 0
1202 -1354 -1366 0
-1202 1354 0
-1202 1366 0
1203 -1355 -1365 0
-1203 1355 0
-1203 1365 0
-1204 1205 1206 0
1204 -1205 0
1204 -1206 0
1205 -1352 -1353 -1366 -1367 0
-1205 1367 0
-1205 1352 0
-1205 1366 0
-1205 1353 0
1206 -1354 -1365 -1133 0
-1206 1354 0
-1206 1365 0
-1206 1133 0
1207 -1356 -1364 0
-1207 1356 0
-1207 1364 0
-1208 1209 1210 0
1208 -1209 0
1208 -1210 0
1209 -1132 -1137 0
-1209 1132 0
-1209 1137 0
1210 -1131 -1140 0
-1210 1131 0
-1210 1140 0
-1211 1212 1213 0
1211 -1212 0
1211 -1213 0
1212 -1130 -1143 0
-1212 1130 0
-1212 1143 0
1213 -1129 -1146 0
-1213 1129 0
-1213 1146 0
-1214 1215 1216 0
1214 -1215 0
1214 -1216 0
1215 -1125 -1126 0
-1215 1125 0
-1215 1126 0
1216 -1124 -1155 0
-1216 1124 0
-1216 1155 0
-1217 1367 1218 0
-1217 -1354 1218 -1236 0
-1217 1354 1218 1236 0
-1217 -1354 -1367 -1218 1236 0
-1217 1354 -1367 -1218 -1236 0
1217 1367 -1218 0
1217 1354 -1367 1218 -1236 0
1217 1354 -1218 1236 0
1217 -1354 -1218 -1236 0
1217 -1354 -1367 1218 1236 0
-1218 1366 1219 0
-1218 -1355 1219 -1230 0
-1218 1355 1219 1230 0
-1218 -1355 -1366 -1219 1230 0
-1218 1355 -1366 -1219 -1230 0
1218 1366 -1219 0
1218 1355 -1366 1219 -1230 0
1218 1355 -1219 1230 0
1218 -1355 -1219 -1230 0
1218 -1355 -1366 1219 1230 0
-1219 1365 1220 0
-1219 1356 -1365 -1220 -1225 0
-1219 1356 1220 1225 0
-1219 -1356 1220 -1225 0
-1219 -1356 -1365 -1220 1225 0
1219 1365 -1220 0
1219 -1356 -1220 -1225 0
1219 1356 -1220 1225 0
1219 -1356 -1365 1220 1225 0
1219 1356 -1365 1220 -1225 0
1220 -1364 -1221 0
1220 -1364 -1224 0
1220 -1364 -1222 0
-1220 1364 0
-1220 1221 1222 1224 0
1221 -1356 -1167 0
-1221 1356 0
-1221 1167 0
1222 -1172 -1223 0
-1222 1172 0
-1222 1223 0
1223 1356 -1167 0
1223 -1356 1167 0
-1223 -1356 -1167 0
-1223 1356 1167 0
1224 -1174 -1101 -1223 0
-1224 1174 0
-1224 1101 0
-1224 1223 0
-1225 1178 1227 0
-1225 1108 1227 0
-1225 1226 1227 0
1225 -1227 0
1225 -1178 -1108 -1226 0
1226 -1355 1166 0
1226 1355 -1166 0
-1226 1355 1166 0
-1226 -1355 -1166 0
-1227 1228 1229 0
1227 -1228 0
1227 -1229 0
1228 -1355 -1166 0
-1228 1355 0
-1228 1166 0
1229 -1176 -1226 0
-1229 1176 0
-1229 1226 0
-1230 1113 1231 0
-1230 1231 1235 0
1230 -1231 0
1230 -1113 -1235 0
-1231 1232 1233 0
1231 -1232 0
1231 -1233 0
1232 -1354 -1165 0
-1232 1354 0
-1232 1165 0
1233 -1180 -1234 0
-1233 1180 0
-1233 1234 0
1234 -1354 1165 0
1234 1354 -1165 0
-1234 1354 1165 0
-1234 -1354 -1165 0
1235 -1182 -1234 0
-1235 1182 0
-1235 1234 0
-1236 1118 1237 0
-1236 1237 1239 0
1236 -1237 0
1236 -1118 -1239 0
-1237 1238 1183 0
-1237 1185 1238 0
1237 -1238 0
1237 -1185 -1183 0
1238 -1353 -1164 0
-1238 1353 0
-1238 1164 0
1239 -1187 -1183 0
-1239 1187 0
-1239 1183 0
1240 -1241 1262 0
1240 1241 -1262 0
-1240 1241 1262 0
-1240 -1241 -1262 0
1241 1242 -1243 0
1241 -1242 1243 0
-1241 -1242 -1243 0
-1241 1242 1243 0
1242 -1192 -1193 0
-1242 1192 0
-1242 1193 0
1243 1244 -1245 0
1243 -1244 1245 0
-1243 -1244 -1245 0
-1243 1244 1245 0
1244 -1194 -1211 0
-1244 1194 0
-1244 1211 0
1245 -1246 1259 0
1245 1246 -1259 0
-1245 1246 1259 0
-1245 -1246 -1259 0
1246 -1247 1256 0
1246 1247 -1256 0
-1246 1247 1256 0
-1246 -1247 -1256 0
1247 -1248 1253 0
1247 1248 -1253 0
-1247 1248 1253 0
-1247 -1248 -1253 0
1248 1249 -1252 0
1248 -1249 1252 0
-1248 -1249 -1252 0
-1248 1249 1252 0
1249 1250 -1251 0
1249 -1250 1251 0
-1249 -1250 -1251 0
-1249 1250 1251 0
1250 -1354 -1367 0
-1250 1354 0
-1250 1367 0
1251 -1355 -1366 0
-1251 1355 0
-1251 1366 0
1252 -1356 -1365 0
-1252 1356 0
-1252 1365 0
-1253 1254 1255 0
1253 -1254 0
1253 -1255 0
1254 -1353 -1354 -1366 -1367 0
-1254 1367 0
-1254 1353 0
-1254 1366 0
-1254 1354 0
1255 -1355 -1365 -1200 0
-1255 1355 0
-1255 1365 0
-1255 1200 0
-1256 1257 1258 0
1256 -1257 0
1256 -1258 0
1257 -1199 -1204 0
-1257 1199 0
-1257 1204 0
1258 -1356 -1364 -1198 0
-1258 1356 0
-1258 1364 0
-1258 1198 0
-1259 1260 1261 0
1259 -1260 0
1259 -1261 0
1260 -1197 -1208 0
-1260 1197 0
-1260 1208 0
1261 -1195 -1196 0
-1261 1195 0
-1261 1196 0
-1262 1155 1263 0
-1262 1263 1265 0
1262 -1263 0
1262 -1155 -1265 0
-1263 1264 1189 0
-1263 1215 1264 0
1263 -1264 0
1263 -1215 -1189 0
1264 -1190 -1191 0
-1264 1190 0
-1264 1191 0
1265 -1124 -1189 0
-1265 1124 0
-1265 1189 0
-1266 -1267 -1281 1300 0
-1266 1267 1281 1300 0
1266 -1300 0
1266 -1267 1281 0
1266 1267 -1281 0
-1267 1367 1268 0
-1267 -1355 1268 -1277 0
-1267 1355 1268 1277 0
-1267 -1355 -1367 -1268 1277 0
-1267 1355 -1367 -1268 -1277 0
1267 1367 -1268 0
1267 1355 -1367 1268 -1277 0
1267 1355 -1268 1277 0
1267 -1355 -1268 -1277 0
1267 -1355 -1367 1268 1277 0
-1268 1366 1269 0
-1268 1356 -1366 -1269 -1273 0
-1268 1356 1269 1273 0
-1268 -1356 1269 -1273 0
-1268 -1356 -1366 -1269 1273 0
1268 1366 -1269 0
1268 -1356 -1269 -1273 0
1268 1356 -1269 1273 0
1268 -1356 -1366 1269 1273 0
1268 1356 -1366 1269 -1273 0
1269 -1365 -1270 0
1269 -1365 -1271 0
-1269 1365 0
-1269 1270 1271 0
1270 -1356 -1220 0
-1270 1356 0
-1270 1220 0
1271 -1272 -1225 0
-1271 1272 0
-1271 1225 0
1272 1356 -1220 0
1272 -1356 1220 0
-1272 -1356 -1220 0
-1272 1356 1220 0
-1273 1274 1275 0
1273 -1274 0
1273 -1275 0
1274 -1355 -1219 0
-1274 1355 0
-1274 1219 0
1275 -1276 -1230 0
-1275 1276 0
-1275 1230 0
1276 -1355 1219 0
1276 1355 -1219 0
-1276 1355 1219 0
-1276 -1355 -1219 0
-1277 1278 1279 0
1277 -1278 0
1277 -1279 0
1278 -1354 -1218 0
-1278 1354 0
-1278 1218 0
1279 -1280 -1236 0
-1279 1280 0
-1279 1236 0
1280 -1354 1218 0
1280 1354 -1218 0
-1280 1354 1218 0
-1280 -1354 -1218 0
1281 -1282 1297 0
1281 1282 -1297 0
-1281 1282 1297 0
-1281 -1282 -1297 0
1282 1283 -1284 0
1282 -1283 1284 0
-1282 -1283 -1284 0
-1282 1283 1284 0
1283 -1244 -1245 0
-1283 1244 0
-1283 1245 0
1284 1285 -1286 0
1284 -1285 1286 0
-1284 -1285 -1286 0
-1284 1285 1286 0
1285 -1246 -1259 0
-1285 1246 0
-1285 1259 0
1286 1287 -1288 0
1286 -1287 1288 0
-1286 -1287 -1288 0
-1286 1287 1288 0
1287 -1247 -1256 0
-1287 1247 0
-1287 1256 0
1288 1289 -1290 0
1288 -1289 1290 0
-1288 -1289 -1290 0
-1288 1289 1290 0
1289 -1248 -1253 0
-1289 1248 0
-1289 1253 0
1290 -1291 1294 0
1290 1291 -1294 0
-1290 1291 1294 0
-1290 -1291 -1294 0
1291 1292 -1293 0
1291 -1292 1293 0
-1291 -1292 -1293 0
-1291 1292 1293 0
1292 -1355 -1367 0
-1292 1355 0
-1292 1367 0
1293 -1356 -1366 0
-1293 1356 0
-1293 1366 0
-1294 1295 1296 0
1294 -1295 0
1294 -1296 0
1295 -1354 -1355 -1366 -1367 0
-1295 1367 0
-1295 1354 0
-1295 1366 0
-1295 1355 0
1296 -1356 -1365 -1249 0
-1296 1356 0
-1296 1365 0
-1296 1249 0
-1297 1298 1299 0
1297 -1298 0
1297 -1299 0
1298 -1242 -1243 0
-1298 1242 0
-1298 1243 0
1299 -1241 -1262 0
-1299 1241 0
-1299 1262 0
-1300 -1301 -1315 -1330 -1334 0
-1300 1301 1315 -1330 -1334 0
-1300 -1301 -1315 1330 1334 0
-1300 1301 1315 1330 1334 0
1300 1330 -1334 0
1300 -1330 1334 0
1300 1301 -1315 0
1300 -1301 1315 0
-1301 1367 1302 0
-1301 1356 -1367 -1302 -1309 0
-1301 1356 1302 1309 0
-1301 -1356 1302 -1309 0
-1301 -1356 -1367 -1302 1309 0
1301 1367 -1302 0
1301 -1356 -1302 -1309 0
1301 1356 -1302 1309 0
1301 -1356 -1367 1302 1309 0
1301 1356 -1367 1302 -1309 0
1302 -1366 -1303 0
1302 -1366 -1113 -1308 0
-1302 1366 0
-1302 1113 1303 0
-1302 1303 1308 0
-1303 1274 1304 1306 0
-1303 1304 1305 1306 0
1303 -1306 0
1303 -1304 0
1303 -1274 -1305 0
1304 -1356 -1269 0
-1304 1356 0
-1304 1269 0
1305 1356 -1269 0
1305 -1356 1269 0
-1305 -1356 -1269 0
-1305 1356 1269 0
1306 -1231 -1307 0
-1306 1231 0
-1306 1307 0
1307 -1276 -1305 0
-1307 1276 0
-1307 1305 0
1308 -1235 -1307 0
-1308 1235 0
-1308 1307 0
-1309 1239 1312 0
-1309 1310 1312 0
-1309 1118 1312 0
1309 -1312 0
1309 -1118 -1239 -1310 0
1310 -1280 -1311 0
-1310 1280 0
-1310 1311 0
1311 -1355 1268 0
1311 1355 -1268 0
-1311 1355 1268 0
-1311 -1355 -1268 0
-1312 1237 1313 1314 0
-1312 1313 1314 1310 0
1312 -1314 0
1312 -1313 0
1312 -1237 -1310 0
1313 -1355 -1268 0
-1313 1355 0
-1313 1268 0
1314 -1278 -1311 0
-1314 1278 0
-1314 1311 0
1315 -1316 1325 0
1315 1316 -1325 0
-1315 1316 1325 0
-1315 -1316 -1325 0
1316 1317 -1318 0
1316 -1317 1318 0
-1316 -1317 -1318 0
-1316 1317 1318 0
1317 -1285 -1286 0
-1317 1285 0
-1317 1286 0
1318 1319 -1320 0
1318 -1319 1320 0
-1318 -1319 -1320 0
-1318 1319 1320 0
1319 -1287 -1288 0
-1319 1287 0
-1319 1288 0
1320 1321 -1322 0
1320 -1321 1322 0
-1320 -1321 -1322 0
-1320 1321 1322 0
1321 -1289 -1290 0
-1321 1289 0
-1321 1290 0
1322 1323 -1324 0
1322 -1323 1324 0
-1322 -1323 -1324 0
-1322 1323 1324 0
1323 -1291 -1294 0
-1323 1291 0
-1323 1294 0
1324 1355 -1356 -1367 0
1324 -1356 1366 -1367 0
-1324 1367 0
-1324 1356 0
-1324 -1355 -1366 0
-1325 1265 1327 0
-1325 1326 1327 0
-1325 1155 1327 0
1325 -1327 0
1325 -1155 -1265 -1326 0
1326 -1241 -1282 0
-1326 1241 0
-1326 1282 0
-1327 1298 1328 1329 0
-1327 1328 1282 1329 0
1327 -1329 0
1327 -1328 0
1327 -1298 -1282 0
1328 -1283 -1284 0
-1328 1283 0
-1328 1284 0
1329 -1263 -1326 0
-1329 1263 0
-1329 1326 0
1330 -1367 -1331 0
1330 -1367 -1332 0
-1330 1367 0
-1330 1331 1332 0
1331 -1356 -1302 0
-1331 1356 0
-1331 1302 0
1332 -1333 -1309 0
-1332 1333 0
-1332 1309 0
1333 1356 -1302 0
1333 -1356 1302 0
-1333 -1356 -1302 0
-1333 1356 1302 0
1334 -1335 1343 0
1334 1335 -1343 0
-1334 1335 1343 0
-1334 -1335 -1343 0
1335 1336 -1337 0
1335 -1336 1337 0
-1335 -1336 -1337 0
-1335 1336 1337 0
1336 -1319 -1320 0
-1336 1319 0
-1336 1320 0
1337 1338 -1339 0
1337 -1338 1339 0
-1337 -1338 -1339 0
-1337 1338 1339 0
1338 -1321 -1322 0
-1338 1321 0
-1338 1322 0
1339 -1340 0
-1339 1340 0
-1340 1341 1342 0
1340 -1341 0
1340 -1342 0
1341 -1355 -1356 -1366 -1367 0
-1341 1367 0
-1341 1355 0
-1341 1366 0
-1341 1356 0
1342 -1323 -1324 0
-1342 1323 0
-1342 1324 0
-1343 1344 1345 0
1343 -1344 0
1343 -1345 0
1344 -1317 -1318 0
-1344 1317 0
-1344 1318 0
1345 -1316 -1325 0
-1345 1316 0
-1345 1325 0
-1368 0
2 0

