c Result of efficient AIG-to-CNF conversion using package CNF
p cnf 244 949
-2 3 0
2 -3 0
-3 4 0
3 -4 0
-4 5 0
4 -5 0
-5 6 0
5 -6 0
-6 7 0
6 -7 0
-7 8 0
7 -8 0
8 -230 -237 0
-8 230 0
-8 237 0
-9 10 0
9 -10 0
-10 11 0
10 -11 0
-11 12 0
11 -12 0
-12 13 0
12 -13 0
-13 14 0
13 -14 0
-14 230 15 0
-14 238 15 0
-14 -230 -238 -15 0
14 230 -15 0
14 -230 -238 15 0
14 238 -15 0
15 -231 -237 0
-15 231 0
-15 237 0
-16 17 0
16 -17 0
-17 18 0
17 -18 0
-18 19 0
18 -19 0
-19 20 0
19 -20 0
-20 230 21 0
-20 -230 -239 -21 0
-20 239 21 0
20 230 -21 0
20 239 -21 0
20 -230 -239 21 0
-21 238 23 0
-21 -238 -22 -24 0
-21 -238 22 24 0
21 238 -23 0
21 -238 -22 24 0
21 -238 22 -24 0
22 -230 -231 -237 0
-22 230 0
-22 231 0
-22 237 0
23 -232 -237 0
-23 232 0
-23 237 0
24 231 -23 0
24 -231 23 0
-24 -231 -23 0
-24 231 23 0
-25 26 0
25 -26 0
-26 27 0
26 -27 0
-27 28 0
27 -28 0
-28 230 29 0
-28 -230 -240 -29 0
-28 240 29 0
28 230 -29 0
28 240 -29 0
28 -230 -240 29 0
-29 239 31 0
-29 -239 -30 -35 0
-29 -239 30 35 0
29 239 -31 0
29 -239 -30 35 0
29 -239 30 -35 0
30 -230 -21 0
-30 230 0
-30 21 0
-31 238 32 0
-31 -238 33 34 0
-31 -238 -33 -34 0
31 238 -32 0
31 -238 33 -34 0
31 -238 -33 34 0
32 -233 -237 0
-32 233 0
-32 237 0
33 232 -32 0
33 -232 32 0
-33 -232 -32 0
-33 232 32 0
-34 237 0
-34 231 0
-34 230 232 0
34 -230 -231 -237 0
34 -231 -232 -237 0
35 -231 31 0
35 231 -31 0
-35 231 31 0
-35 -231 -31 0
-36 37 0
36 -37 0
-37 38 0
37 -38 0
-38 230 39 0
-38 -230 -241 -39 0
-38 241 39 0
38 230 -39 0
38 241 -39 0
38 -230 -241 39 0
-39 240 41 0
-39 -240 -40 -51 0
-39 -240 40 51 0
39 240 -41 0
39 -240 -40 51 0
39 -240 40 -51 0
40 -230 -29 0
-40 230 0
-40 29 0
-41 239 42 0
-41 -239 47 48 0
-41 -239 -47 -48 0
41 239 -42 0
41 -239 47 -48 0
41 -239 -47 48 0
-42 238 43 0
-42 -238 44 45 0
-42 -238 -44 -45 0
42 238 -43 0
42 -238 44 -45 0
42 -238 -44 45 0
43 -234 -237 0
-43 234 0
-43 237 0
44 233 -43 0
44 -233 43 0
-44 -233 -43 0
-44 233 43 0
-45 24 46 0
-45 22 46 0
-45 33 46 0
45 -46 0
45 -22 -24 -33 0
-46 237 0
-46 232 0
-46 231 233 0
46 -231 -232 -237 0
46 -232 -233 -237 0
47 -232 42 0
47 232 -42 0
-47 232 42 0
-47 -232 -42 0
-48 49 50 0
48 -49 0
48 -50 0
49 -231 -31 0
-49 231 0
-49 31 0
50 -30 -35 0
-50 30 0
-50 35 0
51 -231 41 0
51 231 -41 0
-51 231 41 0
-51 -231 -41 0
-52 53 0
52 -53 0
-53 230 54 0
-53 -230 -242 -54 0
-53 242 54 0
53 230 -54 0
53 242 -54 0
53 -230 -242 54 0
-54 241 56 0
-54 231 55 56 0
-54 -231 -55 56 0
-54 231 -241 -55 -56 0
-54 -231 -241 55 -56 0
54 241 -56 0
54 -231 -55 -56 0
54 231 55 -56 0
54 231 -241 -55 56 0
54 -231 -241 55 56 0
55 -230 -39 0
-55 230 0
-55 39 0
-56 240 57 0
-56 -240 68 69 0
-56 -240 -68 -69 0
56 240 -57 0
56 -240 68 -69 0
56 -240 -68 69 0
-57 239 58 0
-57 -239 64 65 0
-57 -239 -64 -65 0
57 239 -58 0
57 -239 64 -65 0
57 -239 -64 65 0
-58 238 59 0
-58 -238 60 61 0
-58 -238 -60 -61 0
58 238 -59 0
58 -238 60 -61 0
58 -238 -60 61 0
59 -235 -237 0
-59 235 0
-59 237 0
60 234 -59 0
60 -234 59 0
-60 -234 -59 0
-60 234 59 0
-61 62 63 0
61 -62 0
61 -63 0
62 -233 -234 -237 0
-62 233 0
-62 234 0
-62 237 0
63 -44 -45 0
-63 44 0
-63 45 0
64 -233 58 0
64 233 -58 0
-64 233 58 0
-64 -233 -58 0
-65 66 67 0
65 -66 0
65 -67 0
66 -232 -42 0
-66 232 0
-66 42 0
67 -47 -48 0
-67 47 0
-67 48 0
68 -232 57 0
68 232 -57 0
-68 232 57 0
-68 -232 -57 0
-69 70 71 0
69 -70 0
69 -71 0
70 -231 -41 0
-70 231 0
-70 41 0
71 -40 -51 0
-71 40 0
-71 51 0
-72 230 73 0
-72 -230 -243 -73 0
-72 243 73 0
72 230 -73 0
72 243 -73 0
72 -230 -243 73 0
-73 242 75 0
-73 -242 -74 -96 0
-73 -242 74 96 0
73 242 -75 0
73 -242 -74 96 0
73 -242 74 -96 0
74 -230 -54 0
-74 230 0
-74 54 0
-75 241 76 0
-75 -232 76 -92 0
-75 232 76 92 0
-75 -232 -241 -76 92 0
-75 232 -241 -76 -92 0
75 241 -76 0
75 232 -241 76 -92 0
75 232 -76 92 0
75 -232 -76 -92 0
75 -232 -241 76 92 0
-76 240 77 0
-76 -240 88 89 0
-76 -240 -88 -89 0
76 240 -77 0
76 -240 88 -89 0
76 -240 -88 89 0
-77 239 78 0
-77 -239 84 85 0
-77 -239 -84 -85 0
77 239 -78 0
77 -239 84 -85 0
77 -239 -84 85 0
-78 238 79 0
-78 -238 80 81 0
-78 -238 -80 -81 0
78 238 -79 0
78 -238 80 -81 0
78 -238 -80 81 0
79 -236 -237 0
-79 236 0
-79 237 0
80 235 -79 0
80 -235 79 0
-80 -235 -79 0
-80 235 79 0
-81 45 82 0
-81 82 83 0
81 -82 0
81 -45 -83 0
-82 237 0
-82 234 0
-82 233 235 0
82 -233 -234 -237 0
82 -234 -235 -237 0
83 -44 -60 0
-83 44 0
-83 60 0
84 -234 78 0
84 234 -78 0
-84 234 78 0
-84 -234 -78 0
-85 48 86 0
-85 86 87 0
85 -86 0
85 -48 -87 0
-86 66 58 0
-86 233 66 0
-86 233 58 0
86 -233 -66 0
86 -66 -58 0
86 -233 -58 0
87 -47 -64 0
-87 47 0
-87 64 0
88 -233 77 0
88 233 -77 0
-88 233 77 0
-88 -233 -77 0
-89 40 90 0
-89 90 91 0
89 -90 0
89 -40 -91 0
-90 70 57 0
-90 232 70 0
-90 232 57 0
90 -232 -70 0
90 -70 -57 0
90 -232 -57 0
91 -51 -68 0
-91 51 0
-91 68 0
-92 93 94 0
92 -93 0
92 -94 0
93 -231 -56 0
-93 231 0
-93 56 0
94 -55 -95 0
-94 55 0
-94 95 0
95 -231 56 0
95 231 -56 0
-95 231 56 0
-95 -231 -56 0
96 -231 75 0
96 231 -75 0
-96 231 75 0
-96 -231 -75 0
-97 243 99 0
-97 231 98 99 0
-97 -231 -98 99 0
-97 231 -243 -98 -99 0
-97 -231 -243 98 -99 0
97 243 -99 0
97 -231 -98 -99 0
97 231 98 -99 0
97 231 -243 -98 99 0
97 -231 -243 98 99 0
98 -230 -73 0
-98 230 0
-98 73 0
-99 242 100 0
-99 -242 120 121 0
-99 -242 -120 -121 0
99 242 -100 0
99 -242 120 -121 0
99 -242 -120 121 0
-100 241 101 0
-100 -241 115 116 0
-100 -241 -115 -116 0
100 241 -101 0
100 -241 115 -116 0
100 -241 -115 116 0
-101 240 102 0
-101 -240 111 112 0
-101 -240 -111 -112 0
101 240 -102 0
101 -240 111 -112 0
101 -240 -111 112 0
-102 239 103 0
-102 -239 107 108 0
-102 -239 -107 -108 0
102 239 -103 0
102 -239 107 -108 0
102 -239 -107 108 0
103 236 -238 -104 0
103 -236 -238 104 0
-103 238 0
-103 -236 -104 0
-103 236 104 0
-104 105 106 0
104 -105 0
104 -106 0
105 -235 -236 -237 0
-105 235 0
-105 236 0
-105 237 0
106 -80 -81 0
-106 80 0
-106 81 0
107 235 -103 0
107 -235 103 0
-107 -235 -103 0
-107 235 103 0
-108 109 110 0
108 -109 0
108 -110 0
109 -234 -78 0
-109 234 0
-109 78 0
110 -84 -85 0
-110 84 0
-110 85 0
111 -234 102 0
111 234 -102 0
-111 234 102 0
-111 -234 -102 0
-112 113 114 0
112 -113 0
112 -114 0
113 -233 -77 0
-113 233 0
-113 77 0
114 -88 -89 0
-114 88 0
-114 89 0
115 -233 101 0
115 233 -101 0
-115 233 101 0
-115 -233 -101 0
-116 117 118 0
116 -117 0
116 -118 0
117 -232 -76 0
-117 232 0
-117 76 0
118 -119 -92 0
-118 119 0
-118 92 0
119 -232 76 0
119 232 -76 0
-119 232 76 0
-119 -232 -76 0
120 -232 100 0
120 232 -100 0
-120 232 100 0
-120 -232 -100 0
-121 122 123 0
121 -122 0
121 -123 0
122 -231 -75 0
-122 231 0
-122 75 0
123 -74 -96 0
-123 74 0
-123 96 0
-124 243 125 0
-124 -232 125 -148 0
-124 232 125 148 0
-124 -232 -243 -125 148 0
-124 232 -243 -125 -148 0
124 243 -125 0
124 232 -243 125 -148 0
124 232 -125 148 0
124 -232 -125 -148 0
124 -232 -243 125 148 0
-125 242 126 0
-125 -233 126 -146 0
-125 233 126 146 0
-125 -233 -242 -126 146 0
-125 233 -242 -126 -146 0
125 242 -126 0
125 233 -242 126 -146 0
125 233 -126 146 0
125 -233 -126 -146 0
125 -233 -242 126 146 0
-126 241 127 0
-126 -234 127 -143 0
-126 234 127 143 0
-126 -234 -241 -127 143 0
-126 234 -241 -127 -143 0
126 241 -127 0
126 234 -241 127 -143 0
126 234 -127 143 0
126 -234 -127 -143 0
126 -234 -241 127 143 0
-127 240 128 0
-127 -235 128 -138 0
-127 235 128 138 0
-127 -235 -240 -128 138 0
-127 235 -240 -128 -138 0
127 240 -128 0
127 235 -240 128 -138 0
127 235 -128 138 0
127 -235 -128 -138 0
127 -235 -240 128 138 0
-128 239 129 0
-128 236 -239 -129 -133 0
-128 236 129 133 0
-128 -236 129 -133 0
-128 -236 -239 -129 133 0
128 239 -129 0
128 -236 -129 -133 0
128 236 -129 133 0
128 -236 -239 129 133 0
128 236 -239 129 -133 0
129 -238 -130 0
129 -238 -45 -131 0
-129 238 0
-129 45 130 0
-129 130 131 0
-130 235 82 0
-130 237 82 0
-130 236 0
-130 235 237 0
130 -235 -236 -82 0
130 -236 -237 -82 0
130 -235 -236 -237 0
131 -83 -132 0
-131 83 0
-131 132 0
132 -236 -80 0
-132 236 0
-132 80 0
-133 87 135 0
-133 134 135 0
-133 48 135 0
133 -135 0
133 -48 -87 -134 0
134 -84 -107 0
-134 84 0
-134 107 0
-135 86 136 137 0
-135 136 137 134 0
135 -137 0
135 -136 0
135 -86 -134 0
136 -235 -103 0
-136 235 0
-136 103 0
137 -109 -107 0
-137 109 0
-137 107 0
-138 91 140 0
-138 40 140 0
-138 139 140 0
138 -140 0
138 -40 -91 -139 0
139 -88 -111 0
-139 88 0
-139 111 0
-140 113 141 142 0
-140 141 111 142 0
140 -142 0
140 -141 0
140 -113 -111 0
141 -234 -102 0
-141 234 0
-141 102 0
142 -90 -139 0
-142 90 0
-142 139 0
-143 119 144 0
-143 92 144 0
-143 115 144 0
143 -144 0
143 -119 -92 -115 0
-144 145 115 0
-144 117 145 0
144 -145 0
144 -117 -115 0
145 -233 -101 0
-145 233 0
-145 101 0
-146 232 122 147 0
-146 122 100 147 0
-146 232 100 147 0
146 -232 -122 0
146 -122 -100 0
146 -147 0
146 -232 -100 0
147 -74 -96 -120 0
-147 74 0
-147 96 0
-147 120 0
-148 149 150 0
148 -149 0
148 -150 0
149 -231 -99 0
-149 231 0
-149 99 0
150 -98 -151 0
-150 98 0
-150 151 0
151 -231 99 0
151 231 -99 0
-151 231 99 0
-151 -231 -99 0
-152 243 153 0
-152 -243 175 176 0
-152 -243 -175 -176 0
152 243 -153 0
152 -243 175 -176 0
152 -243 -175 176 0
-153 242 154 0
-153 -242 170 171 0
-153 -242 -170 -171 0
153 242 -154 0
153 -242 170 -171 0
153 -242 -170 171 0
-154 241 155 0
-154 -241 165 166 0
-154 -241 -165 -166 0
154 241 -155 0
154 -241 165 -166 0
154 -241 -165 166 0
-155 240 156 0
-155 -240 160 161 0
-155 -240 -160 -161 0
155 240 -156 0
155 -240 160 -161 0
155 -240 -160 161 0
156 -239 -157 0
156 -239 -158 0
-156 239 0
-156 157 158 0
157 -236 -129 0
-157 236 0
-157 129 0
158 -159 -133 0
-158 159 0
-158 133 0
159 236 -129 0
159 -236 129 0
-159 -236 -129 0
-159 236 129 0
160 236 -156 0
160 -236 156 0
-160 -236 -156 0
-160 236 156 0
-161 162 163 0
161 -162 0
161 -163 0
162 -235 -128 0
-162 235 0
-162 128 0
163 -164 -138 0
-163 164 0
-163 138 0
164 -235 128 0
164 235 -128 0
-164 235 128 0
-164 -235 -128 0
165 -235 155 0
165 235 -155 0
-165 235 155 0
-165 -235 -155 0
-166 167 168 0
166 -167 0
166 -168 0
167 -234 -127 0
-167 234 0
-167 127 0
168 -169 -143 0
-168 169 0
-168 143 0
169 -234 127 0
169 234 -127 0
-169 234 127 0
-169 -234 -127 0
170 -234 154 0
170 234 -154 0
-170 234 154 0
-170 -234 -154 0
-171 172 173 0
171 -172 0
171 -173 0
172 -233 -126 0
-172 233 0
-172 126 0
173 -174 -146 0
-173 174 0
-173 146 0
174 -233 126 0
174 233 -126 0
-174 233 126 0
-174 -233 -126 0
175 -233 153 0
175 233 -153 0
-175 233 153 0
-175 -233 -153 0
-176 177 178 0
176 -177 0
176 -178 0
177 -232 -125 0
-177 232 0
-177 125 0
178 -179 -148 0
-178 179 0
-178 148 0
179 -232 125 0
179 232 -125 0
-179 232 125 0
-179 -232 -125 0
-180 243 181 0
-180 -234 181 -194 0
-180 234 181 194 0
-180 -234 -243 -181 194 0
-180 234 -243 -181 -194 0
180 243 -181 0
180 234 -243 181 -194 0
180 234 -181 194 0
180 -234 -181 -194 0
180 -234 -243 181 194 0
-181 242 182 0
-181 -235 182 -190 0
-181 235 182 190 0
-181 -235 -242 -182 190 0
-181 235 -242 -182 -190 0
181 242 -182 0
181 235 -242 182 -190 0
181 235 -182 190 0
181 -235 -182 -190 0
181 -235 -242 182 190 0
-182 241 183 0
-182 236 -241 -183 -187 0
-182 236 183 187 0
-182 -236 183 -187 0
-182 -236 -241 -183 187 0
182 241 -183 0
182 -236 -183 -187 0
182 236 -183 187 0
182 -236 -241 183 187 0
182 236 -241 183 -187 0
183 -240 -184 0
183 -240 -186 0
183 -240 -185 0
-183 240 0
-183 184 185 186 0
184 -236 -156 0
-184 236 0
-184 156 0
185 -162 -160 0
-185 162 0
-185 160 0
186 -164 -138 -160 0
-186 164 0
-186 138 0
-186 160 0
-187 169 188 0
-187 143 188 0
-187 165 188 0
187 -188 0
187 -169 -143 -165 0
-188 189 165 0
-188 167 189 0
188 -189 0
188 -167 -165 0
189 -235 -155 0
-189 235 0
-189 155 0
-190 146 191 0
-190 191 193 0
190 -191 0
190 -146 -193 0
-191 192 170 0
-191 172 192 0
191 -192 0
191 -172 -170 0
192 -234 -154 0
-192 234 0
-192 154 0
193 -174 -170 0
-193 174 0
-193 170 0
-194 148 195 0
-194 195 197 0
194 -195 0
194 -148 -197 0
-195 196 175 0
-195 177 196 0
195 -196 0
195 -177 -175 0
196 -233 -153 0
-196 233 0
-196 153 0
197 -179 -175 0
-197 179 0
-197 175 0
-198 243 199 0
-198 -243 209 210 0
-198 -243 -209 -210 0
198 243 -199 0
198 -243 209 -210 0
198 -243 -209 210 0
-199 242 200 0
-199 -242 204 205 0
-199 -242 -204 -205 0
199 242 -200 0
199 -242 204 -205 0
199 -242 -204 205 0
200 -241 -201 0
200 -241 -202 0
-200 241 0
-200 201 202 0
201 -236 -183 0
-201 236 0
-201 183 0
202 -203 -187 0
-202 203 0
-202 187 0
203 236 -183 0
203 -236 183 0
-203 -236 -183 0
-203 236 183 0
204 236 -200 0
204 -236 200 0
-204 -236 -200 0
-204 236 200 0
-205 206 207 0
205 -206 0
205 -207 0
206 -235 -182 0
-206 235 0
-206 182 0
207 -208 -190 0
-207 208 0
-207 190 0
208 -235 182 0
208 235 -182 0
-208 235 182 0
-208 -235 -182 0
209 -235 199 0
209 235 -199 0
-209 235 199 0
-209 -235 -199 0
-210 211 212 0
210 -211 0
210 -212 0
211 -234 -181 0
-211 234 0
-211 181 0
212 -213 -194 0
-212 213 0
-212 194 0
213 -234 181 0
213 234 -181 0
-213 234 181 0
-213 -234 -181 0
-214 243 215 0
-214 236 -243 -215 -221 0
-214 236 215 221 0
-214 -236 215 -221 0
-214 -236 -243 -215 221 0
214 243 -215 0
214 -236 -215 -221 0
214 236 -215 221 0
214 -236 -243 215 221 0
214 236 -243 215 -221 0
215 -242 -216 0
215 -242 -146 -220 0
-215 242 0
-215 146 216 0
-215 216 220 0
-216 206 217 218 0
-216 217 204 218 0
216 -218 0
216 -217 0
216 -206 -204 0
217 -236 -200 0
-217 236 0
-217 200 0
218 -191 -219 0
-218 191 0
-218 219 0
219 -208 -204 0
-219 208 0
-219 204 0
220 -193 -219 0
-220 193 0
-220 219 0
-221 197 223 0
-221 222 223 0
-221 148 223 0
221 -223 0
221 -148 -197 -222 0
222 -213 -209 0
-222 213 0
-222 209 0
-223 211 224 225 0
-223 224 209 225 0
223 -225 0
223 -224 0
223 -211 -209 0
224 -235 -199 0
-224 235 0
-224 199 0
225 -195 -222 0
-225 195 0
-225 222 0
226 -243 -227 0
226 -243 -228 0
-226 243 0
-226 227 228 0
227 -236 -215 0
-227 236 0
-227 215 0
228 -229 -221 0
-228 229 0
-228 221 0
229 236 -215 0
229 -236 215 0
-229 -236 -215 0
-229 236 215 0
-244 0
2 0
9 0
16 0
25 0
36 0
52 0
72 0
97 0
124 0
152 0
180 0
198 0
214 0
226 0

